,Time,S11,S22,S33,S12,S13,S23,LE11,LE22,LE33,LE12,LE13,LE23,SDV_EPBAR,E11,E12,E13,E22,E23,E33
0,0.00021562,0.00564112,0.00188037,-4.33681e-19,0.0032569,-1.54682e-19,7.64818e-20,6.75e-08,2.5e-09,-3e-08,1.12583e-07,3.74487e-31,2.1621e-31,0.0,6.750000225430597e-08,1.1258300625094364e-07,0.0,2.4999999848063226e-09,0.0,-2.9999999595631266e-08
1,0.00043124,0.0112822,0.00376074,8.67362e-19,0.0065138,-1.96129e-19,5.25525e-20,1.35e-07,5.00134e-09,-6.00018e-08,2.25165e-07,1.11753e-30,6.45204e-31,0.0,1.3500000917154864e-07,2.2516502529157378e-07,0.0,5.001340008803368e-09,0.0,-6.000179819665163e-08
2,0.00075467,0.0197439,0.0065813,8.67362e-19,0.0113991,-2.48681e-19,-1.43576e-19,2.3625e-07,8.75125e-09,-1.05002e-07,3.9404e-07,-8.15318e-24,-1.23481e-23,0.0,2.3625002798510764e-07,3.940400776780706e-07,0.0,8.751249946925554e-09,0.0,-1.050019944326408e-07
3,0.0012398,0.0324364,0.0108121,-9.54098e-18,0.0187272,-4.14468e-19,-2.39293e-19,3.88125e-07,1.4375e-08,-1.725e-07,6.47354e-07,-5.73087e-24,-3.30872e-24,0.0,3.8812507541230445e-07,6.473542095708495e-07,0.0,1.4375000079169808e-08,0.0,-1.7249998507384845e-07
4,0.0019675,0.0514752,0.0171584,6.07153e-18,0.0297192,-4.62327e-19,-1.564e-19,6.15939e-07,2.2817e-08,-2.73756e-07,1.02732e-06,-1.32346e-23,2.29231e-23,0.0,6.159391896520816e-07,1.0273205277577802e-06,0.0,2.281700028916589e-08,0.0,-2.737559625654029e-07
5,0.0030591,0.0800333,0.0266778,1.30104e-17,0.0462072,-8.89618e-19,-1.82047e-19,9.57656e-07,3.54687e-08,-4.25625e-07,1.59727e-06,4.7568e-29,2.74634e-29,0.0,9.576564585778158e-07,1.5972712756884277e-06,0.0,3.5468700643193074e-08,0.0,-4.256249094281017e-07
6,0.0046965,0.12287,0.0409568,1.64799e-17,0.0709393,-9.3404e-19,-8.70843e-19,1.47023e-06,5.44575e-08,-6.53443e-07,2.4522e-06,-2.64696e-23,4.58469e-23,0.0,1.470231080880069e-06,2.452203006653164e-06,0.0,5.4457501397209285e-08,0.0,-6.534427865467762e-07
7,0.0071525,0.187126,0.0623754,2.60209e-18,0.108037,-2.78334e-18,-1.49644e-18,2.2391e-06,8.29373e-08,-9.95165e-07,3.73458e-06,5.29397e-23,-9.16935e-23,0.0,2.239102506740309e-06,3.734586973447307e-06,0.0,8.293730346942141e-08,0.0,-9.95164504802304e-07
8,0.010837,0.283509,0.0945032,3.72966e-17,0.163684,-4.87537e-18,-9.35875e-19,3.3924e-06,1.25654e-07,-1.50774e-06,5.65817e-06,-1.44632e-22,3.87538e-23,0.0,3.392405754087946e-06,5.6581860075066714e-06,0.0,1.2565400786535008e-07,0.0,-1.5077388633155664e-06
9,0.016363,0.428084,0.142695,6.50521e-17,0.247155,-5.05305e-18,-3.69105e-18,5.12233e-06,1.89716e-07,-2.27659e-06,8.54354e-06,-1.83387e-22,-1.05878e-22,0.0,5.122343119223771e-06,8.543576496045091e-06,0.0,1.8971601800643612e-07,0.0,-2.276587408589492e-06
10,0.024652,0.644946,0.214982,3.72966e-17,0.37236,-8.47134e-18,-3.89621e-18,7.71724e-06,2.85824e-07,-3.42988e-06,1.28716e-05,-3.66773e-22,-2.11757e-22,0.0,7.717269777884894e-06,1.2871682839366017e-05,0.0,2.8582404087984514e-07,0.0,-3.429874117943932e-06
11,0.037086,0.970236,0.323412,1.48319e-16,0.560166,-3.52149e-18,-6.3436e-18,1.16096e-05,4.29999e-07,-5.15983e-06,1.93636e-05,-1.83385e-22,-1.05877e-22,0.0,1.1609667391665468e-05,1.936378747569023e-05,0.0,4.299990925549224e-07,0.0,-5.159816688138363e-06
12,0.055736,1.45817,0.486056,3.70363e-16,0.841874,-1.83157e-17,-1.13483e-17,1.7448e-05,6.46245e-07,-7.75471e-06,2.91016e-05,-3.66757e-22,-2.11748e-22,0.0,1.7448152217269808e-05,2.9102023455740422e-05,0.0,6.462452089017745e-07,0.0,-7.75467993230361e-06
13,0.083712,2.19006,0.73002,-4.62304e-16,1.26443,-2.58627e-17,-2.27791e-17,2.62056e-05,9.70579e-07,-1.16469e-05,4.37084e-05,-1.46707e-21,-8.47013e-22,0.0,2.6205943369772555e-05,4.3709355226129176e-05,0.0,9.705794710157534e-07,0.0,-1.16468321751384e-05
14,0.1257,3.28788,1.09596,-1.35048e-15,1.89826,-5.76923e-17,-4.11559e-17,3.93418e-05,1.45713e-06,-1.74853e-05,6.56182e-05,-6.19924e-22,-2.31408e-21,0.0,3.93425738987041e-05,6.562035292123625e-05,0.0,1.4571310615885125e-06,0.0,-1.7485147133067258e-05
15,0.1886,4.93456,1.64485,-6.23546e-15,2.84897,-1.06256e-16,-5.50469e-17,5.90456e-05,2.1869e-06,-2.62425e-05,9.84822e-05,-2.08683e-21,-3.16101e-21,0.0,5.9047343225815396e-05,9.84870495310819e-05,0.0,2.1869023911769148e-06,0.0,-2.6242155668598777e-05
16,0.283,7.40451,2.46817,-3.22147e-14,4.27499,-1.2747e-16,-6.72947e-17,8.86002e-05,3.28152e-06,-3.93779e-05,0.000147776,-4.62772e-21,1.24061e-21,0.0,8.860412511357829e-05,0.00014778691941086386,0.0,3.2815253840912106e-06,0.0,-3.9377124700701316e-05
17,0.4247,11.1092,3.70307,-1.63887e-13,6.41391,-2.21302e-16,-1.49763e-16,0.00013293,4.92337e-06,-5.90799e-05,0.000221713,-1.21894e-20,7.87434e-22,0.0,0.00013293883558396224,0.00022173758014365497,0.0,4.923382119770281e-06,0.0,-5.9078154817093775e-05
18,0.6371,16.6658,5.55527,-8.18919e-13,9.62202,-2.7596e-16,-1.53026e-16,0.000199418,7.38587e-06,-8.86304e-05,0.00033261,-1.17342e-20,-6.77477e-21,0.0,0.00019943788509113602,0.00033266532083930933,0.0,7.385897275558051e-06,0.0,-8.862647244212152e-05
19,0.9558,24.9997,8.33323,-4.13982e-12,14.4336,-4.09782e-16,-1.1711e-16,0.000299139,1.10793e-05,-0.000132951,0.000498935,-3.11548e-20,1.33151e-20,0.0,0.0002991837465322611,0.0004990594887701594,0.0,1.1079361375676555e-05,0.0,-0.0001329421624074456
20,1.434,37.4982,12.4994,-2.09628e-11,21.6496,-3.96523e-16,-3.3581e-16,0.000448693,1.66184e-05,-0.000199419,0.000748375,1.82928e-21,-3.02483e-20,0.0,0.0004487936777612944,0.0007486551024398214,0.0,1.661853808632152e-05,0.0,-0.00019939911735289417
21,2.151,56.2408,18.7469,-1.0604e-10,32.4706,-8.20564e-16,-5.8063e-16,0.000672961,2.49247e-05,-0.000299094,0.00112243,-3.69984e-20,9.94653e-21,0.0,0.0006731874890570921,0.0011230601603007262,0.0,2.4925010623011445e-05,0.0,-0.0002990492758485619
22,3.226,261.059,87.9773,-8.70428e-07,151.552,-0.0986076,-0.0569298,0.00399675,-4.34857e-05,-0.00209705,0.00693537,-4.58084e-06,-2.64459e-06,0.00135683,0.004004747656609631,0.00695947537285635,-4.5808295079385886e-06,-4.3484754510658696e-05,-2.644586503119939e-06,-0.002094852726847729
23,4.839,276.833,93.6407,-6.88561e-05,161.01,-0.218526,-0.126146,0.00884782,-0.000939528,-0.00593804,0.0163172,-2.16972e-05,-1.25215e-05,0.008589,0.008887077655514553,0.01645105254983159,-2.169696461751247e-05,-0.0009390867817583581,-1.2521421606348504e-05,-0.005920444684934356
24,6.996,294.876,100.164,0.000191451,171.868,-0.35768,-0.206441,0.0152597,-0.00212255,-0.0110362,0.0287733,-5.30734e-05,-3.06226e-05,0.0182231,0.015376723713251605,0.02919125037011705,-5.307199163206988e-05,-0.00212029898366195,-3.062213113291801e-05,-0.010975524558678673
25,9.152,310.463,105.8,7.64463e-05,181.249,-0.468709,-0.270472,0.0215967,-0.00329125,-0.0160915,0.0411265,-8.97558e-05,-5.17809e-05,0.0278043,0.02183159667541701,0.041983908173171436,-8.975177206871354e-05,-0.0032858397738152467,-5.177955939228429e-05,-0.01596272347494565
26,11.31,324.244,110.782,3.06411e-06,189.54,-0.559032,-0.32255,0.0278627,-0.00444604,-0.0211029,0.0533747,-0.000130113,-7.50563e-05,0.0373228,0.028254495386802914,0.05482481393763683,-0.00013010453567074975,-0.004436170995572697,-7.505348334635453e-05,-0.020881791877986444
27,13.46,336.63,115.259,-6.50602e-05,196.992,-0.634835,-0.366244,0.0340606,-0.00558724,-0.0260698,0.0655171,-0.000173149,-9.98738e-05,0.0467728,0.03464730445500752,0.06771099501540889,-0.00017313401057705846,-0.0055716604037437945,-9.986881277801452e-05,-0.025732916607060785
28,15.62,347.902,119.336,-0.000135009,203.775,-0.699955,-0.403771,0.0401927,-0.00671521,-0.0309924,0.0775541,-0.000218175,-0.000125837,0.056151,0.04101135775418063,0.08064069353869385,-0.00021815120156543077,-0.006692713362044245,-0.00012582908285685424,-0.03051705888162015
29,17.78,358.259,123.085,-0.000209025,210.01,-0.756936,-0.436598,0.0462613,-0.00783027,-0.0358708,0.0894863,-0.000264701,-0.000152662,0.0654555,0.04734804724954489,0.09361235072051532,-0.00026466596978125256,-0.007799693295862498,-0.00015265034774980535,-0.03523506693941558
30,19.93,367.851,126.56,-0.000288261,215.787,-0.807544,-0.465747,0.0522679,-0.00893276,-0.0407054,0.101315,-0.000312367,-0.000180143,0.0746852,0.0536579796787644,0.10662517379649228,-0.0003123182185080786,-0.008892981431642855,-0.0001801267752240543,-0.03988806273504608
31,22.09,376.79,129.801,-0.00037329,221.173,-0.853058,-0.491954,0.0582143,-0.010023,-0.0454967,0.11304,-0.000360903,-0.000208123,0.0838397,0.05994211696904195,0.11967671912162148,-0.00036083788234619885,-0.009972937135142024,-0.00020810134391080481,-0.04447724420815424
32,24.25,385.166,132.842,-0.000464389,226.223,-0.894429,-0.515768,0.0641019,-0.0111013,-0.0502453,0.124664,-0.000410106,-0.000236485,0.092919,0.06620103911207087,0.13276777914339633,-0.0004100219180289688,-0.011039907956327588,-0.000236457039626492,-0.049003883460724706
33,26.4,393.05,135.707,-0.000561682,230.979,-0.932385,-0.53761,0.0699322,-0.0121678,-0.0549518,0.136188,-0.000459816,-0.000265137,0.101923,0.072435467664546,0.14589730203861695,-0.0004597103008243675,-0.012094071661777117,-0.0002651018542918493,-0.05346923036291107
34,28.56,400.5,138.418,-0.000665218,235.475,-0.967498,-0.557809,0.0757064,-0.013223,-0.0596167,0.147613,-0.000509909,-0.000294009,0.110853,0.07864583724476537,0.15906425169042504,-0.0005097790184996898,-0.013135960200292729,-0.0002939657835894227,-0.05787441887968858
35,30.71,407.565,140.991,-0.000775015,239.741,-1.00022,-0.576628,0.0814257,-0.0142671,-0.0642407,0.158941,-0.00056029,-0.000323043,0.119709,0.08483261152648525,0.1722687807822776,-0.00056013306686864,-0.014165807219054583,-0.00032299082722819783,-0.06222075110247893
36,32.87,414.283,143.441,-0.000891082,243.801,-1.03093,-0.59428,0.0870914,-0.0153002,-0.0688244,0.170173,-0.000610881,-0.000352197,0.128492,0.09099639223159639,0.18550992679816125,-0.0006106944501904632,-0.015183746616484028,-0.0003521349859172407,-0.06650941336620186
37,35.03,420.69,145.78,-0.00101343,247.674,-1.05992,-0.610942,0.0927045,-0.0163227,-0.0733684,0.18131,-0.000661623,-0.000381435,0.137202,0.09713748323590754,0.19878674558858078,-0.0006614041757653233,-0.016190206595216194,-0.00038136226291884956,-0.07074157184569152
38,37.18,426.813,148.018,-0.00114209,251.378,-1.08746,-0.626759,0.098266,-0.0173348,-0.0778734,0.192354,-0.000712467,-0.00041073,0.145841,0.10325621223342418,0.21209952425771683,-0.0007122132556520722,-0.017185416776055784,-0.00041064566198067975,-0.0749184655472861
39,39.34,432.679,150.164,-0.00127709,254.928,-1.11375,-0.641858,0.103777,-0.0183367,-0.0823399,0.203307,-0.000763378,-0.00044006,0.154409,0.10935304160174608,0.22544862323208692,-0.0007630867011430009,-0.018169605595271254,-0.0004399631877998189,-0.0790411284302408
40,41.49,438.308,152.225,-0.00141851,258.336,-1.13899,-0.656345,0.109239,-0.0193286,-0.0867686,0.214169,-0.000814326,-0.00046941,0.162907,0.1154289059953113,0.23883199971125957,-0.0008139945265648318,-0.01914300032855587,-0.000469299844362725,-0.08311076074284751
41,43.65,443.719,154.209,-0.00156642,261.614,-1.16333,-0.670314,0.114652,-0.0203107,-0.0911601,0.224943,-0.00086529,-0.000498767,0.171336,0.1214830935394644,0.2522513358314009,-0.0008649157445622668,-0.02010582711445108,-0.0004986426364168572,-0.08712845153563409
42,45.81,448.93,156.12,-0.00172091,264.772,-1.18692,-0.683844,0.120017,-0.0212832,-0.0955149,0.235628,-0.000916254,-0.000528122,0.179697,0.12751601918877675,0.26570338092176815,-0.0009158343674768865,-0.021058310977235872,-0.0005279825681233641,-0.09109518112902348
43,47.96,453.955,157.965,-0.00188212,267.819,-1.20988,-0.697008,0.125335,-0.0222464,-0.0998336,0.246228,-0.000967208,-0.000557468,0.187991,0.133528121389497,0.27919119588818986,-0.0009667404051083572,-0.022000773649215266,-0.0005573126435846065,-0.09501200448998082
44,50.12,458.808,159.748,-0.00205019,270.762,-1.23232,-0.709871,0.130608,-0.0232004,-0.104117,0.256742,-0.00101814,-0.000586801,0.196219,0.1395210015162771,0.29271156414807686,-0.0010176218713275897,-0.022933340006273006,-0.0005866288659642782,-0.09888013977039756
45,52.28,463.499,161.473,-0.00222526,273.608,-1.25434,-0.722489,0.135835,-0.0241454,-0.108365,0.267173,-0.00106906,-0.000616119,0.204382,0.14549287167715574,0.3062664108732389,-0.001068488758939945,-0.023856231864883393,-0.0006159292376629599,-0.10269997785631813
46,54.43,468.04,163.144,-0.00240753,276.364,-1.27604,-0.734916,0.141018,-0.0250815,-0.112579,0.277522,-0.00111995,-0.000645423,0.21248,0.15144537381493972,0.3198551556377802,-0.0011193230900564677,-0.024769572490459524,-0.0006452147593790647,-0.1064732442935088
47,56.59,472.439,164.764,-0.00259721,279.035,-1.29749,-0.747199,0.146158,-0.026009,-0.116759,0.287789,-0.00117083,-0.000674714,0.220515,0.15737903949339183,0.3334759110202308,-0.0011701448459812136,-0.02567367936759668,-0.0006744864316930999,-0.11020039096896206
48,58.74,476.707,166.336,-0.00279451,281.626,-1.31877,-0.759381,0.151255,-0.026928,-0.120906,0.297976,-0.00122169,-0.000703993,0.228487,0.16329326004477407,0.34712945638462456,-0.0012209440405799299,-0.026568673943260568,-0.0007037452550683332,-0.11388274930030196
49,60.9,480.85,167.862,-0.00299967,284.143,-1.33996,-0.771506,0.15631,-0.0278387,-0.12502,0.308085,-0.00127254,-0.000733266,0.236398,0.16918859538072994,0.3608166534368813,-0.0012717306643146298,-0.02745477430485832,-0.0007329972261849171,-0.11752074717695804
50,63.06,484.876,169.347,-0.00321298,286.588,-1.36111,-0.78361,0.161323,-0.0287412,-0.129102,0.318116,-0.00132339,-0.000762537,0.244248,0.17506445334225051,0.3745356981210246,-0.0013225147056151743,-0.028332100418090644,-0.0007622463425455139,-0.1211156852266354
51,65.21,488.791,170.79,-0.0034347,288.967,-1.3823,-0.79573,0.166296,-0.0296358,-0.133151,0.32807,-0.00137426,-0.000791811,0.252038,0.18092260308503572,0.3882861489186149,-0.0013733161371467517,-0.029200965819615843,-0.0007914976003933205,-0.12466709313989988
52,67.37,492.601,172.196,-0.00366517,291.282,-1.40358,-0.8079,0.171229,-0.0305224,-0.13717,0.33795,-0.00142514,-0.000821096,0.25977,0.18676248651599336,0.40207039813279666,-0.0014241249702339198,-0.030061294803125915,-0.0008207589929241088,-0.12817799620707726
53,69.53,496.312,173.565,-0.0039089,293.537,-1.425,-0.82018,0.176123,-0.0314014,-0.141158,0.347755,-0.00147606,-0.000850401,0.267443,0.19258473755245098,0.4158853153400366,-0.0014749711592355608,-0.03091349632755347,-0.0008500395115469406,-0.13164789877366767
54,71.68,499.929,174.9,-0.00416045,295.735,-1.44666,-0.832494,0.180978,-0.0322728,-0.145115,0.357486,-0.00152704,-0.000879727,0.275058,0.1983888144492696,0.4297305500802475,-0.0015258746676644064,-0.03175759048161797,-0.000879340153650765,-0.13507717873322578
55,73.84,503.456,176.201,-0.00441294,297.879,-1.46855,-0.845025,0.185795,-0.0331368,-0.149042,0.367146,-0.00157808,-0.000909091,0.282617,0.2041753791204457,0.4436086705958524,-0.0015768354864901246,-0.0325937906329582,-0.0009086779019675806,-0.1384670702439742
56,75.99,506.898,177.471,-0.0046814,299.971,-1.49075,-0.857712,0.190574,-0.0339934,-0.15294,0.376734,-0.0016292,-0.0009385,0.290121,0.20994390617378778,0.4575165583980989,-0.0016278735741154238,-0.033422115969510724,-0.0009380597466116525,-0.14181878886063315
57,78.15,510.26,178.711,-0.00496099,302.013,-1.5133,-0.870609,0.195317,-0.034843,-0.156809,0.386253,-0.00168042,-0.000967963,0.297569,0.21569630114159377,0.4714569023217594,-0.0016790088848445128,-0.03424297179085434,-0.0009674946749346214,-0.14513267711585875
58,80.31,513.544,179.922,-0.0052517,304.008,-1.53627,-0.883737,0.200024,-0.0356855,-0.160649,0.395702,-0.00173176,-0.000997492,0.304963,0.22143207217813243,0.4854265944637757,-0.001730261368865893,-0.03505627943316858,-0.0009969946702295118,-0.14840907292973704
59,82.46,516.754,181.106,-0.00555402,305.958,-1.55969,-0.897127,0.204695,-0.0365211,-0.164461,0.405083,-0.00178324,-0.0010271,0.312304,0.22715072690781923,0.499426947328762,-0.0017816509722308194,-0.03586224962483231,-0.0010265727133358382,-0.15164915801798562
60,84.62,519.893,182.263,-0.00586844,307.864,-1.58361,-0.910806,0.209331,-0.03735,-0.168245,0.414397,-0.00183487,-0.00105679,0.319592,0.23285300534617126,0.5134578503994955,-0.0018331876551602733,-0.03666109228004111,-0.0010562317941007482,-0.15485325163572894
61,86.78,522.966,183.394,-0.00619554,309.729,-1.60809,-0.924803,0.213932,-0.0381722,-0.172002,0.423644,-0.00188669,-0.00108659,0.326828,0.23853843131655705,0.5275177006753877,-0.0018849113192042077,-0.03745282400445482,-0.0010859998748466992,-0.15802251078816243
62,88.93,525.973,184.502,-0.00653588,311.555,-1.63318,-0.939146,0.2185,-0.038988,-0.175732,0.432826,-0.00193871,-0.0011165,0.334012,0.2442090166271662,0.541607957577799,-0.0019368319156509717,-0.03823774977587724,-0.0011158769457766393,-0.1611572369242521
63,91.09,528.919,185.585,-0.00689009,313.342,-1.65891,-0.953863,0.223034,-0.0397973,-0.179435,0.441944,-0.00199096,-0.00114654,0.341146,0.2498630683578955,0.5557286171921167,-0.0019889793538196976,-0.03901578908890979,-0.001145882974140311,-0.16425772757460189
64,93.24,531.806,186.646,-0.00725882,315.092,-1.68534,-0.968982,0.227535,-0.0406003,-0.183112,0.450998,-0.00204346,-0.00117672,0.348231,0.25550138153349655,0.569878142333778,-0.002041373557043702,-0.0397871496675507,-0.0011760279365023996,-0.16732510907342468
65,95.4,534.635,187.685,-0.00764278,316.807,-1.71252,-0.984534,0.232003,-0.0413972,-0.186763,0.459989,-0.00209624,-0.00120706,0.355266,0.26112351219319097,0.5840565602764829,-0.002094044423351038,-0.04055203847755573,-0.0012063317961029663,-0.1703596621527198
66,97.56,537.41,188.703,-0.00804268,318.488,-1.74051,-1.00055,0.23644,-0.042188,-0.190389,0.468918,-0.00214932,-0.00123757,0.362252,0.26673154944700483,0.5982639357383996,-0.002147011865704651,-0.041310470002178135,-0.0012368045260560123,-0.17336249059971232
67,99.71,540.133,189.7,-0.0084593,320.135,-1.76934,-1.01705,0.240845,-0.0429729,-0.193989,0.477786,-0.00220273,-0.00126827,0.369191,0.27232380983312554,0.6125003713784805,-0.0022003057705745066,-0.04206265018254551,-0.0012674660854996578,-0.17633303544464474
68,101.9,542.804,190.677,-0.00889344,321.752,-1.79909,-1.03408,0.245219,-0.0437519,-0.197565,0.486594,-0.0022565,-0.00129917,0.376082,0.2779011429127132,0.6267660082862738,-0.0022539560177333717,-0.042808592795683054,-0.0012983264440026288,-0.17927320834755556
69,104.0,545.428,191.636,-0.00934589,323.337,-1.82979,-1.05166,0.249563,-0.0445252,-0.201116,0.495342,-0.00231066,-0.00133029,0.382926,0.28346442016731643,0.6410593854053577,-0.0023079924801548968,-0.04354850278780398,-0.001329405556490193,-0.18218244078549872
70,106.2,548.004,192.575,-0.0098174,324.893,-1.86151,-1.06984,0.253876,-0.0452929,-0.204643,0.504031,-0.00236524,-0.00136165,0.389725,0.2890119568748182,0.6553806791627068,-0.002362445023901927,-0.044282488825624466,-0.0013607233752659376,-0.18506180257745541
71,108.3,550.535,193.497,-0.0103084,326.42,-1.89432,-1.08864,0.25816,-0.0460551,-0.208146,0.512662,-0.00242028,-0.00139327,0.396478,0.2945459294036381,0.669730105675747,-0.0024173534838330957,-0.04501065917167024,-0.0013922998499661388,-0.1879115368593396
72,110.5,553.023,194.401,-0.0108181,327.92,-1.92827,-1.10811,0.262415,-0.0468119,-0.211626,0.521236,-0.0024758,-0.00142517,0.403187,0.3000659578654512,0.6841079212168772,-0.002472737734886654,-0.04573312169050969,-0.001424154927509802,-0.19073269305218332
73,112.6,555.469,195.288,-0.0113403,329.392,-1.96344,-1.12831,0.266641,-0.0475633,-0.215083,0.529753,-0.00253185,-0.00145736,0.409851,0.3055716619622506,0.6985127241591358,-0.002528647571048759,-0.046449888499857206,-0.0014562985666080053,-0.1935254999841527
74,114.8,557.875,196.158,-0.0118328,330.838,-1.99993,-1.14932,0.270838,-0.0483096,-0.218517,0.538214,-0.00258847,-0.00148987,0.416471,0.3110626610288081,0.7129448091562944,-0.002585122800194517,-0.04716125746772215,-0.0014887606946668575,-0.19629018373835705
75,117.0,560.243,197.011,-0.0117634,332.259,-2.03788,-1.17143,0.275008,-0.0490507,-0.221928,0.54662,-0.00264572,-0.00152272,0.423048,0.31654120715514966,0.7274045122095365,-0.0026422231674005925,-0.0478671446610055,-0.0015215612501259246,-0.19902696768308625
76,119.1,562.584,197.835,-0.0132645,333.648,-2.08421,-1.19761,0.27915,-0.0497873,-0.225317,0.554971,-0.00270453,-0.00155581,0.429583,0.32200562984219583,0.741890469217996,-0.002700876053551071,-0.04856822748174594,-0.0015546003550291898,-0.20173687076516067
77,121.3,564.945,198.716,0.0490113,335.017,-2.13158,-1.21985,0.283265,-0.0505185,-0.228684,0.563267,-0.00276397,-0.00158926,0.436076,0.3274568912871352,0.7564013002538721,-0.0027601537517277785,-0.049263660112656815,-0.0015879977950720159,-0.20442010296497237
78,123.4,567.145,199.453,-0.0146306,336.363,-2.17318,-1.24876,0.287354,-0.0512458,-0.23203,0.571511,-0.00282385,-0.00162344,0.442527,0.33289597514413494,0.7709409225493484,-0.0028198666858980648,-0.049954879260344476,-0.0016221229341054633,-0.2070776647201933
79,125.6,569.373,200.241,-0.0153966,337.687,-2.21933,-1.27531,0.291416,-0.0519681,-0.235354,0.579701,-0.00288466,-0.00165798,0.448937,0.33832120978710534,0.7855044850881336,-0.0028805033661279955,-0.050640849083229744,-0.00165660631044795,-0.20970896292228947
80,127.7,571.568,201.014,-0.0161874,338.989,-2.26663,-1.30251,0.295453,-0.0526858,-0.238657,0.58784,-0.0029463,-0.00169298,0.455307,0.34373493275838185,0.8000960057364008,-0.002941963917666768,-0.05132195970006159,-0.0016915477177489313,-0.21231498799807524
81,129.9,573.731,201.774,-0.0170072,340.271,-2.31506,-1.33038,0.299464,-0.053399,-0.241939,0.595927,-0.0030088,-0.00172848,0.461637,0.3491354771250208,0.8147124038819342,-0.0030042780975835237,-0.05199831566119839,-0.0017269870387532915,-0.21489593256071315
82,132.1,575.862,202.521,-0.0178674,341.531,-2.36467,-1.35893,0.303449,-0.0541078,-0.2452,0.603963,-0.00307218,-0.00176447,0.467927,0.3545225085325061,0.8293541846408194,-0.0030674656840019576,-0.052670021174501924,-0.001762914237975921,-0.21745198701273305
83,134.2,577.964,203.254,-0.0187666,342.772,-2.41548,-1.38817,0.30741,-0.0548123,-0.248441,0.611948,-0.00313646,-0.00180098,0.474178,0.3598984121371147,0.8440200533612012,-0.0031315464477299493,-0.05333718011025568,-0.001799359208670026,-0.21998411958551378
84,136.4,580.035,203.975,-0.0197065,343.993,-2.46749,-1.41812,0.311347,-0.0555126,-0.251663,0.619884,-0.00320168,-0.00183803,0.480391,0.36526288522187045,0.858712418699872,-0.0031965600881528333,-0.05399989600596944,-0.001836341857303636,-0.22249328631391252
85,138.5,582.079,204.683,-0.020689,345.195,-2.52075,-1.44878,0.315259,-0.0562087,-0.254864,0.627771,-0.00326785,-0.00187561,0.486565,0.370614254081685,0.873430046218137,-0.003262516389583525,-0.05465817753689173,-0.001873852142753929,-0.22497810622844372
86,140.7,584.095,205.379,-0.0217158,346.379,-2.57527,-1.48017,0.319147,-0.0569007,-0.258046,0.635609,-0.00333501,-0.00191376,0.492702,0.37595357521583406,0.8881716879442623,-0.003329455031158002,-0.055312127785154264,-0.0019119299289562797,-0.2274403064563556
87,142.8,586.085,206.062,-0.0227889,347.544,-2.63107,-1.5123,0.323012,-0.0575888,-0.261208,0.643399,-0.00340318,-0.00195249,0.498802,0.38128192618929235,0.9029379854489148,-0.0033973957464229487,-0.055961943915146084,-0.001950585131347271,-0.22987928215463915
88,145.0,588.049,206.733,-0.0239105,348.691,-2.68819,-1.5452,0.326854,-0.058273,-0.264352,0.651141,-0.00347238,-0.00199181,0.504865,0.3865990189444446,0.9177277084772799,-0.0034663582605067855,-0.05660763383740808,-0.0019898276628267375,-0.2322967394573382
89,147.1,589.988,207.393,-0.0250827,349.821,-2.74664,-1.57887,0.330672,-0.0589534,-0.267476,0.658837,-0.00354265,-0.00203173,0.510892,0.39190317318594703,0.9325434788800857,-0.00353638221919117,-0.05724929968386949,-0.002029667433699256,-0.23469130218883405
90,149.3,591.903,208.041,-0.0263076,350.934,-2.80646,-1.61333,0.334469,-0.05963,-0.270582,0.666486,-0.00361402,-0.00207228,0.516883,0.3971982759253694,0.9473821822234636,-0.0036074972898207935,-0.05788694906659153,-0.0020701343102134118,-0.23706466326645104
91,151.5,593.794,208.677,-0.0275878,352.03,-2.86768,-1.6486,0.338243,-0.060303,-0.27367,0.674088,-0.0036865,-0.00211347,0.522839,0.4024812649484988,0.962242594433838,-0.0036797132012809097,-0.058520777842563265,-0.0021112381948408254,-0.239416973749646
92,153.6,595.664,209.301,-0.0289257,353.11,-2.93031,-1.68469,0.341995,-0.0609725,-0.276739,0.681646,-0.00376014,-0.00215531,0.528759,0.40775325873021195,0.9771294103746595,-0.0037530795258196026,-0.05915088722914441,-0.0021529889872020647,-0.2417476248437842
93,155.8,597.511,209.914,-0.0303239,354.173,-2.9944,-1.72163,0.345725,-0.0616384,-0.279791,0.689158,-0.00383495,-0.00219783,0.534645,0.4130139835377149,0.9920375313020457,-0.003827605970243786,-0.0597771901026537,-0.0021954165400942527,-0.24405828323446543
94,157.9,599.337,210.516,-0.0317851,355.221,-3.05997,-1.75943,0.349435,-0.062301,-0.282825,0.696625,-0.00391096,-0.00224103,0.540497,0.4182660018865696,1.0069677481420398,-0.0039033221562839726,-0.06039997538494202,-0.002238520767041674,-0.2463483346384624
95,160.1,601.143,211.107,-0.0333123,356.253,-3.12705,-1.7981,0.353123,-0.0629603,-0.285841,0.704048,-0.00398822,-0.00228495,0.546315,0.4235062239314742,1.021920899697514,-0.00398027761278652,-0.0610192495150218,-0.0022823414888994975,-0.24861792380033998
96,162.2,602.928,211.686,-0.0349083,357.27,-3.19569,-1.83768,0.35679,-0.0636164,-0.28884,0.711428,-0.00406674,-0.00232958,0.552099,0.42873580382924303,1.0368978729928142,-0.004058482011043529,-0.06163511272939515,-0.002326868634368151,-0.25086794305659865
97,164.4,604.695,212.255,-0.0365765,358.272,-3.2659,-1.87817,0.360438,-0.0642693,-0.291822,0.718764,-0.00414656,-0.00237496,0.557851,0.43395735035181726,1.0518954998238894,-0.0041379748904064595,-0.06224757120546809,-0.0023721420138088645,-0.2530985273962305
98,166.6,606.443,212.812,-0.0383201,359.259,-3.33774,-1.9196,0.364065,-0.0649192,-0.294787,0.726057,-0.00422772,-0.0024211,0.563569,0.43916775702207667,1.0669146745550213,-0.00421879577260853,-0.06285681851258518,-0.002418171501267885,-0.25530981041543443
99,168.7,608.174,213.358,-0.0401425,360.232,-3.41122,-1.96199,0.367672,-0.0655661,-0.297735,0.733308,-0.00431023,-0.00246801,0.569256,0.4443682084975418,1.0819563405164132,-0.004300954290273107,-0.0634628603913091,-0.002464966967246518,-0.2575019243308342
100,170.9,609.887,213.894,-0.0420476,361.19,-3.4864,-2.00537,0.37126,-0.0662101,-0.300666,0.740517,-0.00439414,-0.00251573,0.57491,0.4495599099723584,1.0970193933138908,-0.004384499891993854,-0.06406579614306673,-0.0025125682032483,-0.25967499999254073
101,173.0,611.583,214.419,-0.044039,362.134,-3.56332,-2.04976,0.374828,-0.0668514,-0.303582,0.747684,-0.00447948,-0.00256426,0.580533,0.45474117761588606,1.1121027178352176,-0.004469462093384391,-0.06466581833032181,-0.0025609750937106712,-0.26183064323724903
102,175.2,613.263,214.932,-0.046121,363.064,-3.642,-2.09517,0.378377,-0.0674899,-0.306481,0.754809,-0.00456628,-0.00261362,0.586124,0.45991322642719257,1.1272051883605645,-0.004555870393900152,-0.06526283858631832,-0.002610207468915049,-0.2639674973359424
103,177.3,614.928,215.435,-0.0482977,363.98,-3.7225,-2.14164,0.381908,-0.0681259,-0.309364,0.761894,-0.00465458,-0.00266384,0.591685,0.465077291821715,1.1423299533316262,-0.0046437642299743676,-0.06585714241232798,-0.002660295126584389,-0.2660864231419193
104,179.5,616.578,215.927,-0.0505739,364.883,-3.80486,-2.1892,0.385421,-0.0687594,-0.312232,0.768938,-0.00474441,-0.00271494,0.597214,0.47023315932670573,1.1574737995320645,-0.00473317306477572,-0.06644873450602906,-0.0027112578833938805,-0.26818827178867277
105,181.6,618.213,216.408,-0.0529535,365.772,-3.88912,-2.23786,0.388915,-0.0693904,-0.315084,0.775942,-0.00483581,-0.00276694,0.602714,0.4753791387763009,1.1726377883223753,-0.004824136295674575,-0.06703761954178777,-0.002763115549672901,-0.2702724254217588
106,183.8,619.834,216.878,-0.0554423,366.647,-3.97534,-2.28766,0.392391,-0.0700191,-0.31792,0.782906,-0.00492882,-0.00281985,0.608184,0.4805164801893711,1.187820843918459,-0.004916693298327557,-0.06762398864593977,-0.0028158779573873582,-0.2723390010339404
107,186.0,621.442,217.338,-0.0580453,367.51,-4.06355,-2.33862,0.39585,-0.0706455,-0.320741,0.789831,-0.00502348,-0.00287371,0.613624,0.4856464538689509,1.2030240837237294,-0.005010883426050938,-0.06820784609620756,-0.0028695848478610397,-0.2743888400546931
108,188.1,623.037,217.786,-0.0607679,368.359,-4.15381,-2.39078,0.399291,-0.0712699,-0.323548,0.796716,-0.00511982,-0.00292853,0.619034,0.4907673687980092,1.2182442398038136,-0.005106736060246142,-0.068789475513504,-0.0029242460389427016,-0.27642277461801035
109,190.3,624.62,218.223,-0.0636161,369.196,-4.24617,-2.44416,0.402715,-0.0718921,-0.326339,0.803562,-0.00521789,-0.00298434,0.624416,0.4958805049624495,1.2334824407163079,-0.005204300458492184,-0.06936869448813032,-0.0029798912839763547,-0.2784394630562229
110,192.4,626.191,218.649,-0.0665958,370.019,-4.34069,-2.4988,0.406123,-0.0725125,-0.329115,0.81037,-0.00531772,-0.00304115,0.629769,0.5009871625252587,1.2487398665198226,-0.005303605956261115,-0.06994587908889371,-0.003036530387503511,-0.2804397374413935
111,194.6,627.751,219.064,-0.0697136,370.83,-4.43742,-2.55473,0.409514,-0.0731309,-0.331877,0.817139,-0.00541936,-0.003099,0.635093,0.5060856495926307,1.2640132210267225,-0.005404701759975872,-0.07052084675893833,-0.003094203056022593,-0.2824244207771902
112,196.7,629.299,219.468,-0.0729762,371.628,-4.53642,-2.61199,0.412889,-0.0737477,-0.334625,0.82387,-0.00552285,-0.00315791,0.64039,0.5111772759464117,1.2793036963826578,-0.005507627101427048,-0.07109397273043772,-0.00315292904672948,-0.28439361156156096
113,198.9,630.838,219.86,-0.0763908,372.414,-4.63775,-2.67061,0.416247,-0.0743627,-0.337358,0.830564,-0.00562823,-0.00321791,0.645658,0.5162603389253277,1.2946125368500332,-0.005612421185985816,-0.07166507430547375,-0.003212738076697863,-0.2863466937187177
114,201.1,632.366,220.241,-0.079965,373.186,-4.74148,-2.73063,0.41959,-0.0749763,-0.340078,0.83722,-0.00573556,-0.00327901,0.650899,0.5213376792842181,1.3099364192021676,-0.005719143077487221,-0.07223452589026691,-0.0032736399178311393,-0.28828519315741674
115,203.2,633.886,220.61,-0.0837067,373.947,-4.84767,-2.79209,0.422918,-0.0755884,-0.342783,0.843838,-0.00584488,-0.00334126,0.656113,0.5264091252862555,1.3252742754101594,-0.005827831919725579,-0.07280223737114555,-0.0033356842025978883,-0.2902077802385973
116,205.4,635.396,220.968,-0.0876244,374.694,-4.95639,-2.85503,0.42623,-0.0761991,-0.345475,0.85042,-0.00595623,-0.00340466,0.6613,0.5314729734127777,1.3406297099895452,-0.005938526827587998,-0.07336830417869022,-0.003398870717185809,-0.29211597131663736
117,207.5,636.898,221.313,-0.091727,375.43,-5.0677,-2.91949,0.429527,-0.0768087,-0.348153,0.856965,-0.00606966,-0.00346926,0.66646,0.5365305726770775,1.3559993738003975,-0.006051276825752905,-0.07393300672164027,-0.0034632490706941743,-0.2940091486495636
118,209.7,638.392,221.647,-0.0960238,376.152,-5.18169,-2.98551,0.43281,-0.0774171,-0.350817,0.863473,-0.00618524,-0.00353509,0.671594,0.5415832920478025,1.3713822192102576,-0.006166150780483659,-0.0744962545229958,-0.0035288489257649935,-0.2958874053288484
119,211.8,639.879,221.968,-0.100525,376.863,-5.29844,-3.05315,0.436078,-0.0780245,-0.353468,0.869946,-0.006303,-0.00360216,0.676701,0.5466294271399701,1.38678196381824,-0.006283177763883763,-0.07505823480730833,-0.0035956800046622606,-0.29775153582062674
120,214.0,641.358,222.277,-0.105241,377.561,-5.41801,-3.12245,0.439332,-0.078631,-0.356106,0.876382,-0.006423,-0.00367052,0.681782,0.5516703564398584,1.4021928315137848,-0.006402416628077168,-0.07561904190595437,-0.003663791875886835,-0.2996016259273764
121,215.6,642.472,222.503,-0.109034,378.079,-5.51043,-3.17601,0.441781,-0.0790885,-0.358091,0.881221,-0.00651465,-0.00372285,0.685605,0.5554750540934683,1.4138452128244667,-0.006493475673748694,-0.07604184946967751,-0.0037159287854838796,-0.30099053774887563
