,Time,S11,S22,S33,S12,S13,S23,LE11,LE22,LE33,LE12,LE13,LE23,SDV_EPBAR,E11,E12,E13,E22,E23,E33
0,0.000292,0.0207746,-1.30104e-18,0.0,0.0,0.0,2.64375e-19,1e-07,-3e-08,-3e-08,0.0,0.0,0.0,0.0,1.0000000494336803e-07,0.0,0.0,-2.9999999595631266e-08,0.0,-2.9999999595631266e-08
1,0.000584,0.0415492,2.60209e-18,1.73472e-18,-2.64375e-19,0.0,2.64375e-19,2e-07,-6e-08,-6e-08,0.0,0.0,0.0,0.0,2.0000002010078788e-07,0.0,0.0,-5.999999819206181e-08,0.0,-5.999999819206181e-08
2,0.001022,0.0727111,8.67362e-19,1.73472e-18,3.43687e-26,0.0,1.32187e-19,3.5e-07,-1.05e-07,-1.05e-07,0.0,0.0,0.0,0.0,3.5000006115559756e-07,0.0,0.0,-1.0499999447688424e-07,0.0,-1.0499999447688424e-07
3,0.001679,0.119454,-1.99493e-17,-1.9082e-17,3.43687e-26,0.0,-3.96562e-19,5.75e-07,-1.725e-07,-1.725e-07,0.0,0.0,0.0,0.0,5.750001652593539e-07,0.0,0.0,-1.7249998507384845e-07,0.0,-1.7249998507384845e-07
4,0.0026645,0.189568,1.30104e-17,1.21431e-17,-2.64374e-19,0.0,-1.32187e-19,9.125e-07,-2.7375e-07,-2.7375e-07,0.0,0.0,0.0,0.0,9.125004163390571e-07,0.0,0.0,-2.737499624760886e-07,0.0,-2.737499624760886e-07
5,0.0041428,0.294739,1.64799e-17,1.9082e-17,2.64375e-19,0.0,3.96562e-19,1.41875e-06,-4.25625e-07,-4.25625e-07,0.0,0.0,0.0,0.0,1.4187510064544995e-06,0.0,0.0,-4.256249094281017e-07,0.0,-4.256249094281017e-07
6,0.0063601,0.452496,4.0766e-17,1.9082e-17,-7.93123e-19,0.0,-1.32187e-19,2.17812e-06,-6.53437e-07,-6.53437e-07,0.0,0.0,0.0,0.0,2.178122372020752e-06,0.0,0.0,-6.53436786457462e-07,0.0,-6.53436786457462e-07
7,0.0096862,0.689131,-2.1684e-17,-2.25514e-17,-7.93122e-19,0.0,-1.32187e-19,3.31718e-06,-9.95155e-07,-9.95155e-07,0.0,0.0,0.0,0.0,3.317185501838793e-06,0.0,0.0,-9.951545048014765e-07,0.0,-9.951545048014765e-07
8,0.014675,1.04408,1.51788e-16,1.43982e-16,-7.9312e-19,0.0,-1.32187e-19,5.02577e-06,-1.50773e-06,-1.50773e-06,0.0,0.0,0.0,0.0,5.025782629175524e-06,0.0,0.0,-1.5077288634257613e-06,0.0,-1.5077288634257613e-06
9,0.022159,1.57651,1.65666e-16,1.71738e-16,-7.93117e-19,0.0,-1.32187e-19,7.58864e-06,-2.27659e-06,-2.27659e-06,0.0,0.0,0.0,0.0,7.5886687938009345e-06,0.0,0.0,-2.276587408589492e-06,0.0,-2.276587408589492e-06
10,0.033384,2.37515,2.68882e-17,5.20417e-18,-7.93113e-19,0.0,-1.32187e-19,1.14329e-05,-3.42988e-06,-3.42988e-06,0.0,0.0,0.0,0.0,1.1432965355773206e-05,0.0,0.0,-3.429874117943932e-06,0.0,-3.429874117943932e-06
11,0.050223,3.5731,1.10155e-16,6.07153e-17,-7.93107e-19,0.0,-1.32187e-19,1.71994e-05,-5.15981e-06,-5.15981e-06,0.0,0.0,0.0,0.0,1.7199547910573543e-05,0.0,0.0,-5.159796688247731e-06,0.0,-5.159796688247731e-06
12,0.07548,5.37001,6.09755e-16,6.15827e-16,-7.93099e-19,0.0,-1.32187e-19,2.58489e-05,-7.75468e-06,-7.75468e-06,0.0,0.0,0.0,0.0,2.5849234085661976e-05,0.0,0.0,-7.754649932523172e-06,0.0,-7.754649932523172e-06
13,0.1134,8.06535,-8.89046e-16,-9.38485e-16,-7.93085e-19,0.0,-1.32187e-19,3.88231e-05,-1.16469e-05,-1.16469e-05,0.0,0.0,0.0,0.0,3.882385362641294e-05,0.0,0.0,-1.16468321751384e-05,0.0,-1.16468321751384e-05
14,0.1702,12.1083,-3.77563e-15,-3.60302e-15,-7.93065e-19,0.0,-1.32187e-19,5.82842e-05,-1.74852e-05,-1.74852e-05,0.0,0.0,0.0,0.0,5.828589855694233e-05,0.0,0.0,-1.748504713483534e-05,0.0,-1.748504713483534e-05
15,0.2554,18.1726,-1.73203e-14,-1.73698e-14,-7.93035e-19,0.0,-1.32187e-19,8.7475e-05,-2.62425e-05,-2.62425e-05,0.0,0.0,0.0,0.0,8.747882604942525e-05,0.0,0.0,-2.6242155668598777e-05,0.0,-2.6242155668598777e-05
16,0.3833,27.2686,-9.19273e-14,-9.19768e-14,-7.9299e-19,0.0,-1.32187e-19,0.00013126,-3.93779e-05,-3.93779e-05,0.0,0.0,0.0,0.0,0.0001312686149708142,0.0,0.0,-3.9377124700701316e-05,0.0,-3.9377124700701316e-05
17,0.5751,40.912,-4.52528e-13,-4.52577e-13,-7.92922e-19,0.0,-1.32187e-19,0.000196933,-5.90799e-05,-5.90799e-05,0.0,0.0,0.0,0.0,0.00019695239257622177,0.0,0.0,-5.9078154817093775e-05,0.0,-5.9078154817093775e-05
18,0.8628,61.3754,-2.25908e-12,-2.25913e-12,-7.92821e-19,0.0,-1.32187e-19,0.000295435,-8.86304e-05,-8.86304e-05,0.0,0.0,0.0,0.0,0.00029547864521761724,0.0,0.0,-8.862647244212152e-05,0.0,-8.862647244212152e-05
19,1.294,92.0667,-1.14349e-11,-1.14358e-11,-7.92668e-19,0.0,-1.32187e-19,0.000443169,-0.000132951,-0.000132951,0.0,0.0,0.0,0.0,0.0004432672138892091,0.0,0.0,-0.0001329421624074456,0.0,-0.0001329421624074456
20,1.942,138.095,-5.79026e-11,-5.79053e-11,-7.9244e-19,0.0,-1.32187e-19,0.00066473,-0.000199419,-0.000199419,0.0,0.0,0.0,0.0,0.0006649509819482979,0.0,0.0,-0.00019939911735278315,0.0,-0.00019939911735278315
21,2.913,207.119,-2.92884e-10,-2.92885e-10,-7.92097e-19,0.0,-1.32187e-19,0.00099698,-0.000299094,-0.000299094,0.0,0.0,0.0,0.0,0.0009974771497625046,0.0,0.0,-0.0002990492758485619,0.0,-0.0002990492758485619
22,4.369,310.611,-1.48101e-09,-1.48101e-09,-7.91584e-19,0.0,-1.32187e-19,0.00149515,-0.000448544,-0.000448544,0.0,0.0,0.0,0.0,0.0014962682940309335,0.0,0.0,-0.00044844341917871233,0.0,-0.00044844341917871233
23,6.554,465.753,-7.48297e-09,-7.48296e-09,-7.90814e-19,0.0,-1.32187e-19,0.00224193,-0.00067258,-0.00067258,0.0,0.0,0.0,0.0,0.0022444450041991804,0.0,0.0,-0.0006723538687718467,0.0,-0.0006723538687718467
24,9.474,497.072,-0.170075,0.209051,-2.35321e-15,-1.52623e-15,3.01488e-15,0.0032392,-0.00110138,-0.00118067,0.0,0.0,0.0,0.000846562,0.003244451877416177,0.0,0.0,-0.0011007737036555776,0.0,-0.0011799732834000265
25,12.39,516.302,-0.00152362,0.00229717,2.20133e-15,1.96163e-15,5.87396e-16,0.00423547,-0.00153522,-0.00170614,0.0,0.0,0.0,0.00175021,0.004244452279975608,0.0,0.0,-0.0015340421526044423,0.0,-0.0017046853705350307
26,15.31,532.69,3.54754e-05,-2.35545e-05,8.07865e-16,-1.4364e-16,-1.09401e-15,0.00523074,-0.00197179,-0.0022333,0.0,0.0,0.0,0.0026666,0.0052444442044314865,0.0,0.0,-0.0019698472991738214,0.0,-0.0022308080409974007
27,18.23,546.983,-1.15732e-05,1.38878e-05,5.85882e-16,1.4276e-15,-3.02759e-15,0.00622503,-0.00240945,-0.00276241,0.0,0.0,0.0,0.00359209,0.006244445766251383,0.0,0.0,-0.0024065496052684265,0.0,-0.0027585980563542556
28,21.15,559.681,-5.32734e-06,6.65862e-06,1.21549e-15,1.01182e-15,-2.87929e-15,0.00721833,-0.00284781,-0.0032929,0.0,0.0,0.0,0.00452427,0.007244444941601369,0.0,0.0,-0.002843758835663124,0.0,-0.0032874843508229334
29,24.07,571.119,-2.27578e-06,3.02799e-06,1.68047e-15,7.19508e-16,-5.00715e-16,0.00821065,-0.00328665,-0.00382435,0.0,0.0,0.0,0.00546153,0.008244449829572176,0.0,0.0,-0.003281254878132911,0.0,-0.003817046486901843
30,26.99,581.538,-8.37423e-07,1.28139e-06,1.23233e-15,5.12996e-16,-3.52341e-16,0.00920198,-0.00372577,-0.0043565,0.0,0.0,0.0,0.0064027,0.009244448382409898,0.0,0.0,-0.0037188379307246944,0.0,-0.004347024219282125
31,29.91,591.115,-1.63882e-07,4.28124e-07,-6.89911e-16,3.66429e-16,-1.01679e-15,0.0101923,-0.00416507,-0.00488911,0.0,0.0,0.0,0.00734695,0.010244418407964417,0.0,0.0,-0.00415640812589102,0.0,-0.00487717775564267
32,32.83,599.983,1.28811e-07,2.33303e-08,1.08909e-15,2.61963e-16,4.8644e-17,0.0111817,-0.00460444,-0.00542203,0.0,0.0,0.0,0.00829364,0.011244448869027979,0.0,0.0,-0.004593855817119463,0.0,-0.005407357325877049
33,35.75,608.246,2.26713e-07,-1.48433e-07,8.05202e-16,1.87206e-16,-1.51076e-15,0.0121701,-0.00504381,-0.00595515,0.0,0.0,0.0,0.00924226,0.012244457004898734,0.0,0.0,-0.005031111349173445,0.0,-0.005937453240617119
34,38.67,615.986,2.24264e-07,-1.96893e-07,5.96103e-16,1.33507e-16,-4.18547e-15,0.0131575,-0.00548312,-0.00648835,0.0,0.0,0.0,0.0101924,0.013244440792496093,0.0,0.0,-0.00546811513455181,0.0,-0.006467346108556482
35,41.59,623.269,1.71073e-07,-1.80127e-07,4.41585e-16,9.47979e-17,-1.44983e-15,0.0141439,-0.00592232,-0.00702157,0.0,0.0,0.0,0.0111438,0.014244398206812336,0.0,0.0,-0.005904817631496528,0.0,-0.006996976372990904
36,44.51,630.149,9.38199e-08,-1.29758e-07,3.27049e-16,6.67991e-17,2.079e-15,0.0151294,-0.00636137,-0.00755474,0.0,0.0,0.0,0.0120962,0.015244428745356142,0.0,0.0,-0.006341179322005619,0.0,-0.007526274679570455
37,47.43,636.671,7.02775e-09,-6.33333e-08,1.86445e-15,1.62907e-15,-2.40835e-15,0.0161139,-0.00680025,-0.00808781,0.0,0.0,0.0,0.0130493,0.016244429054838472,0.0,0.0,-0.006777180622101198,0.0,-0.008055191660914396
38,50.35,642.874,-8.14038e-08,9.32673e-09,5.83073e-16,-1.98258e-15,-9.58407e-16,0.0170975,-0.00723892,-0.00862073,0.0,0.0,0.0,0.0140029,0.017244498828943522,0.0,0.0,-0.007212782126636452,0.0,-0.00858367805518212
39,53.27,648.788,-1.67262e-07,8.2744e-08,1.24962e-15,4.90265e-15,-4.62613e-15,0.01808,-0.00767736,-0.00915346,0.0,0.0,0.0,0.014957,0.01824443268611331,0.0,0.0,-0.007647964346823244,0.0,-0.009111694614753363
40,56.19,654.442,-2.48413e-07,1.53926e-07,1.75436e-15,4.16065e-16,-3.36498e-15,0.0190616,-0.00811556,-0.00968597,0.0,0.0,0.0,0.0159114,0.019244432140675505,0.0,0.0,-0.008082717747419643,0.0,-0.009639212079625814
41,59.11,659.858,-3.23901e-07,2.2132e-07,5.02244e-16,-1.29458e-15,-8.72833e-16,0.0200423,-0.0085535,-0.0102182,0.0,0.0,0.0,0.016866,0.02024449545617002,0.0,0.0,-0.008517022895269677,0.0,-0.010166171557519976
42,62.03,665.057,-3.93439e-07,2.8421e-07,-4.44796e-16,6.39828e-16,-6.36057e-16,0.0210219,-0.00899116,-0.0107503,0.0,0.0,0.0,0.0178206,0.02124441664535559,0.0,0.0,-0.008950860391445103,0.0,-0.010692722036455882
43,64.95,670.057,-4.57108e-07,3.42368e-07,4.78744e-16,4.69545e-16,-2.84347e-15,0.0220006,-0.00942853,-0.011282,0.0,0.0,0.0,0.0187753,0.022244397816892914,0.0,0.0,-0.009384220777311603,0.0,-0.011218596899927658
44,67.87,674.873,-5.15184e-07,3.95839e-07,1.18098e-15,3.43936e-16,-5.26349e-15,0.0229784,-0.00986561,-0.0118134,0.0,0.0,0.0,0.0197299,0.02324443722866909,0.0,0.0,-0.009817104512791164,0.0,-0.011743895753268285
45,70.79,679.52,-5.68041e-07,4.4482e-07,8.9291e-16,2.51084e-16,-3.86778e-15,0.0239552,-0.0103024,-0.0123445,0.0,0.0,0.0,0.0206843,0.024244430712260456,0.0,0.0,-0.010249512057190602,0.0,-0.01226861921758371
46,73.71,684.009,-6.04169e-07,4.80578e-07,-1.50825e-16,1.79435e-15,1.14143e-15,0.0249311,-0.0107388,-0.0128752,0.0,0.0,0.0,0.0216385,0.02524447874626201,0.0,0.0,-0.010681344937340964,0.0,-0.012792669192404627
47,76.63,688.352,-6.48475e-07,5.22063e-07,7.05473e-16,1.33254e-15,-3.94966e-15,0.025906,-0.011175,-0.0134056,0.0,0.0,0.0,0.0225925,0.026244476958517948,0.0,0.0,-0.011112791629315,0.0,-0.013316145122576062
48,79.55,692.558,-6.88357e-07,5.59499e-07,5.33077e-16,2.60668e-15,1.08503e-15,0.0268799,-0.0116108,-0.0139357,0.0,0.0,0.0,0.0235462,0.02724442329946286,0.0,0.0,-0.011543654782822488,0.0,-0.013839047626493128
49,82.47,696.637,-7.24618e-07,5.93659e-07,-4.2737e-16,-1.29692e-15,8.05078e-16,0.0278529,-0.0120462,-0.0144654,0.0,0.0,0.0,0.0244996,0.028244418542125116,0.0,0.0,-0.01197393499672983,0.0,-0.014361278757839324
50,85.39,700.596,-7.57601e-07,6.2483e-07,1.32649e-15,3.8892e-15,-1.00695e-15,0.028825,-0.0124814,-0.0149947,0.0,0.0,0.0,0.0254526,0.02924446093324229,0.0,0.0,-0.012403830388197146,0.0,-0.014882839289821481
51,88.31,704.442,-7.87613e-07,6.5328e-07,1.01163e-15,1.2851e-15,-7.45803e-16,0.0297961,-0.0129161,-0.0155236,0.0,0.0,0.0,0.0264052,0.030244445693269784,0.0,0.0,-0.012833045146540822,0.0,-0.015403729994431625
52,91.23,708.183,-8.14935e-07,6.79254e-07,7.70594e-16,-6.69927e-16,-6.99484e-15,0.0307663,-0.0133506,-0.0160521,0.0,0.0,0.0,0.0273574,0.03124447388971663,0.0,0.0,-0.013261876018171193,0.0,-0.015923951642450196
53,94.15,711.824,-8.3982e-07,7.02976e-07,5.85798e-16,1.11724e-15,1.2447e-15,0.0317355,-0.0137847,-0.0165803,0.0,0.0,0.0,0.0283091,0.032244440539372476,0.0,0.0,-0.013690126079390796,0.0,-0.016443603359092895
54,97.07,715.371,-8.62495e-07,7.2465e-07,1.2785e-15,2.46466e-15,-2.30022e-15,0.0327038,-0.0142184,-0.017108,0.0,0.0,0.0,0.0292603,0.03324444690609507,0.0,0.0,-0.014117795924800669,0.0,-0.016962489149543236
55,99.99,718.828,-8.83165e-07,7.4446e-07,9.78572e-16,2.16022e-16,-1.71589e-15,0.0336712,-0.0146518,-0.0176353,0.0,0.0,0.0,0.030211,0.03424449122747819,0.0,0.0,-0.01454498469355392,0.0,-0.017480708188557847
56,102.9,722.201,-9.02014e-07,7.62573e-07,7.47699e-16,1.53616e-16,1.14902e-15,0.0346376,-0.0150848,-0.0181623,0.0,0.0,0.0,0.0311612,0.03524446821485494,0.0,0.0,-0.01497159434752604,0.0,-0.017998359442256584
57,105.8,725.494,-9.19205e-07,7.79139e-07,-2.67822e-16,1.06553e-16,2.48441e-15,0.0356031,-0.0155174,-0.0186887,0.0,0.0,0.0,0.0321109,0.03624447942664566,0.0,0.0,-0.015397625478633659,0.0,-0.0185151490748815
58,108.8,728.71,-9.34888e-07,7.94293e-07,2.29967e-15,7.1005e-17,-1.38215e-15,0.0365676,-0.0159497,-0.0192148,0.0,0.0,0.0,0.0330599,0.037244419370573656,0.0,0.0,-0.01582317709552994,0.0,-0.01903137245048747
59,111.7,731.854,-9.49195e-07,8.08157e-07,9.34019e-16,1.68585e-15,-2.21908e-16,0.0375313,-0.0163816,-0.0197405,0.0,0.0,0.0,0.0340084,0.038244493625901876,0.0,0.0,-0.016248151285559786,0.0,-0.01954693213125469
60,114.6,734.928,-9.62245e-07,8.20842e-07,-1.25067e-16,1.2691e-15,-5.8608e-15,0.038494,-0.0168132,-0.0202657,0.0,0.0,0.0,0.0349563,0.03924449287232035,0.0,0.0,-0.016672646970706473,0.0,-0.020061730884513573
61,117.5,737.936,-9.74146e-07,8.32447e-07,7.34555e-16,9.5343e-16,2.1113e-15,0.0394557,-0.0172444,-0.0207905,0.0,0.0,0.0,0.0359036,0.04024441503662213,0.0,0.0,-0.017096566321752493,0.0,-0.020575867566879902
62,120.4,740.881,-9.84995e-07,8.43062e-07,-2.80639e-16,2.36137e-15,7.7684e-16,0.0404166,-0.0176752,-0.0213149,0.0,0.0,0.0,0.0368503,0.041244466292708726,0.0,0.0,-0.01751990992622121,0.0,-0.021089342936918887
63,123.4,743.766,-9.94879e-07,8.52768e-07,-2.28152e-16,1.36919e-16,5.87371e-16,0.0413765,-0.0181056,-0.0218388,0.0,0.0,0.0,0.0377963,0.042244436714925504,0.0,0.0,-0.01794267837069352,0.0,-0.0216020599122152
64,126.3,746.593,-1.00388e-06,8.61638e-07,-1.87413e-16,9.22678e-17,4.44973e-16,0.0423355,-0.0185357,-0.0223623,0.0,0.0,0.0,0.0387417,0.043244428549180425,0.0,0.0,-0.018364970404314507,0.0,-0.022114117191164295
65,129.2,749.365,-1.01206e-06,8.6974e-07,1.53343e-15,1.71085e-15,-6.2095e-15,0.0432936,-0.0189654,-0.0228854,0.0,0.0,0.0,0.0396865,0.044244440015168696,0.0,0.0,-0.018786688363939374,0.0,-0.022625515528565177
66,132.1,752.083,-1.0195e-06,8.77133e-07,3.41666e-16,1.29403e-15,-2.23836e-15,0.0442508,-0.0193947,-0.023408,0.0,0.0,0.0,0.0406306,0.04524446933082715,0.0,0.0,-0.01920783283349614,0.0,-0.023136157991652362
67,135.0,754.751,-1.02624e-06,8.83873e-07,2.56792e-16,1.80413e-15,-5.36856e-17,0.045207,-0.0198237,-0.0239302,0.0,0.0,0.0,0.041574,0.046244410087888266,0.0,0.0,-0.019628502433129635,0.0,-0.02364614312124258
68,138.0,757.369,-1.03235e-06,8.9001e-07,1.9056e-16,1.36689e-15,4.06607e-15,0.0461624,-0.0202522,-0.0244519,0.0,0.0,0.0,0.0425167,0.04724446964966855,0.0,0.0,-0.020048501628583293,0.0,-0.02415537408392987
69,140.9,759.94,-1.03786e-06,8.95589e-07,9.86525e-16,1.03276e-15,2.26549e-15,0.0471168,-0.0206804,-0.0249732,0.0,0.0,0.0,0.0434588,0.048244436879960606,0.0,0.0,-0.020468027033386682,0.0,-0.024663949315768652
70,143.8,762.466,-1.04284e-06,9.00652e-07,-1.78306e-15,7.77153e-16,-4.03543e-15,0.0480703,-0.0211082,-0.025494,0.0,0.0,0.0,0.0444001,0.04924441461414841,0.0,0.0,-0.02088698119073784,0.0,-0.02517177208243826
71,146.7,764.948,-1.0473e-06,9.05236e-07,2.89962e-16,1.41254e-15,1.87369e-15,0.0490229,-0.0215357,-0.0260144,0.0,0.0,0.0,0.0453408,0.05024440106143513,0.0,0.0,-0.021305462549515042,0.0,-0.025678940715522458
72,149.6,767.388,-1.0513e-06,9.09377e-07,1.06723e-15,1.06957e-15,-2.20599e-16,0.0499747,-0.0219627,-0.0265344,0.0,0.0,0.0,0.0462808,0.05124449955373711,0.0,0.0,-0.021723275907506223,0.0,-0.026185455960972992
73,152.6,769.787,-1.05487e-06,9.13106e-07,8.2773e-16,1.63907e-15,-1.81601e-15,0.0509255,-0.0223894,-0.0270539,0.0,0.0,0.0,0.04722,0.052244498147909324,0.0,0.0,-0.022140617539507024,0.0,-0.026691221232697515
74,155.5,772.147,-1.05804e-06,9.16452e-07,-2.11416e-16,4.11495e-16,2.68659e-16,0.0518753,-0.0228157,-0.0275729,0.0,0.0,0.0,0.0481586,0.05324439474797682,0.0,0.0,-0.022557390152855517,0.0,-0.02719623742583943
75,158.4,774.469,-1.06082e-06,9.19441e-07,6.74856e-16,3.00254e-16,-4.75148e-15,0.0528243,-0.0232416,-0.0280915,0.0,0.0,0.0,0.0490964,0.05424439810513504,0.0,0.0,-0.022973594323420055,0.0,-0.027700602663900398
76,161.3,776.754,-1.06327e-06,9.221e-07,5.2038e-16,1.04943e-15,-3.62771e-15,0.0537724,-0.0236672,-0.0286097,0.0,0.0,0.0,0.0500335,0.05524440119553553,0.0,0.0,-0.023389328287213296,0.0,-0.028204317687765212
77,164.2,779.004,-1.06538e-06,9.24449e-07,-1.30773e-15,7.92484e-16,5.39878e-16,0.0547196,-0.0240923,-0.0291274,0.0,0.0,0.0,0.0509699,0.05624440221806659,0.0,0.0,-0.023804397254598708,0.0,-0.028707286107889307
78,167.2,781.219,-1.0672e-06,9.26511e-07,-1.88111e-16,5.94452e-16,-2.07093e-15,0.0556659,-0.0245171,-0.0296446,0.0,0.0,0.0,0.0519055,0.057244399369914545,0.0,0.0,-0.024218997079407445,0.0,-0.02920950881352713
79,170.1,783.402,-1.06873e-06,9.28303e-07,-1.5921e-16,1.27854e-15,3.39131e-15,0.0566114,-0.0249415,-0.0301614,0.0,0.0,0.0,0.0528404,0.05824449667101317,0.0,0.0,-0.0246330306729039,0.0,-0.029711083721252973
80,173.0,785.551,-1.07e-06,9.29844e-07,7.18779e-16,9.70691e-16,-2.37788e-15,0.0575559,-0.0253656,-0.0306778,0.0,0.0,0.0,0.0537746,0.05924448076626909,0.0,0.0,-0.025046596101847785,0.0,-0.03021201156691755
81,175.9,787.67,-1.07102e-06,9.31151e-07,-2.98709e-16,7.3284e-16,-9.90693e-16,0.0584995,-0.0257892,-0.0311937,0.0,0.0,0.0,0.054708,0.06024445557223701,0.0,0.0,-0.025459498904750966,0.0,-0.030712196156441718
82,178.8,789.759,-1.07181e-06,9.32238e-07,-2.47124e-16,5.48909e-16,-7.58196e-16,0.0594422,-0.0262125,-0.0317091,0.0,0.0,0.0,0.0556407,0.06124441927934421,0.0,0.0,-0.02587193460069126,0.0,-0.03121163837322749
83,181.8,791.818,-1.07239e-06,9.33119e-07,-2.06404e-16,-4.32919e-16,-5.80489e-16,0.0603841,-0.0266354,-0.0322241,0.0,0.0,0.0,0.0565726,0.062244476300782114,0.0,0.0,-0.02628380626314708,0.0,-0.031710435928070435
84,184.7,793.848,-1.07276e-06,9.33807e-07,6.83443e-16,1.32549e-15,2.0533e-15,0.061325,-0.0270579,-0.0327386,0.0,0.0,0.0,0.0575038,0.06324441247473667,0.0,0.0,-0.026695114460025926,0.0,-0.03220849277267546
85,187.6,795.851,-1.07295e-06,9.34315e-07,5.30721e-16,1.00977e-15,-2.58399e-15,0.0622651,-0.02748,-0.0332527,0.0,0.0,0.0,0.0584342,0.06424443853550321,0.0,0.0,-0.027105859758318585,0.0,-0.032705906515382965
86,190.5,797.826,-1.07296e-06,9.34654e-07,4.09798e-16,7.64872e-16,-2.82149e-15,0.0632043,-0.0279018,-0.0337664,0.0,0.0,0.0,0.0593639,0.06524444644238003,0.0,0.0,-0.02751613997249247,0.0,-0.033202677884555554
87,193.4,799.776,-1.0728e-06,9.34834e-07,3.13982e-16,-2.67195e-16,-1.33823e-15,0.0641426,-0.0283232,-0.0342795,0.0,0.0,0.0,0.0602928,0.06624443437745042,0.0,0.0,-0.02792585833738548,0.0,-0.03369861434715293
88,196.4,801.7,-1.07249e-06,9.34864e-07,2.38e-16,-2.27775e-16,-4.37045e-15,0.06508,-0.0287442,-0.0347923,0.0,0.0,0.0,0.061221,0.06724440052114344,0.0,0.0,-0.02833501541741701,0.0,-0.03419400666826866
89,199.3,803.599,-1.07203e-06,9.34755e-07,1.03827e-15,6.45964e-16,3.31482e-15,0.0660166,-0.0291648,-0.0353045,0.0,0.0,0.0,0.0621484,0.06824444987667944,0.0,0.0,-0.028743611776094524,0.0,-0.034688565830639506
90,202.2,805.475,-1.07144e-06,9.34514e-07,8.13902e-16,-3.60486e-16,-7.83022e-16,0.0669523,-0.029585,-0.0358164,0.0,0.0,0.0,0.0630751,0.0692444739967506,0.0,0.0,-0.02915164797601677,0.0,-0.03518258229948801
91,205.1,807.326,-1.07072e-06,9.34149e-07,2.35899e-15,5.4327e-16,-2.27598e-15,0.0678871,-0.0300049,-0.0363277,0.0,0.0,0.0,0.0640009,0.07024447105684795,0.0,0.0,-0.029559221622955878,0.0,-0.03567576735165512
92,208.0,809.155,-1.06987e-06,9.33667e-07,-7.20995e-16,2.09346e-15,-2.59511e-15,0.068821,-0.0304244,-0.0368386,0.0,0.0,0.0,0.0649261,0.07124443923082846,0.0,0.0,-0.029966236152218717,0.0,-0.03616831477016347
93,211.0,810.961,-1.06891e-06,9.33075e-07,1.1386e-15,7.68142e-16,-3.68146e-15,0.0697541,-0.0308435,-0.0373491,0.0,0.0,0.0,0.0658504,0.07224448391536265,0.0,0.0,-0.030372692123849188,0.0,-0.03666022527463397
94,213.9,812.746,-1.06784e-06,9.32381e-07,1.75818e-15,1.42499e-15,2.18349e-15,0.0706863,-0.0312622,-0.0378591,0.0,0.0,0.0,0.066774,0.07324449625660368,0.0,0.0,-0.03077859009698647,0.0,-0.03715140329870148
95,216.8,814.51,-1.06668e-06,9.31589e-07,5.25394e-16,-6.00706e-16,-3.3397e-15,0.0716176,-0.0316806,-0.0383687,0.0,0.0,0.0,0.0676969,0.07424447442352577,0.0,0.0,-0.031184027511468093,0.0,-0.03764194594269876
96,219.7,816.253,-1.06541e-06,9.30706e-07,-4.58399e-16,3.55751e-16,-3.42729e-15,0.072548,-0.0320986,-0.0388778,0.0,0.0,0.0,0.0686189,0.07524441658348935,0.0,0.0,-0.031588907962059154,0.0,-0.038131757735848315
97,222.6,817.975,-1.06406e-06,9.29737e-07,1.35022e-15,1.10454e-15,-1.36108e-16,0.0734776,-0.0325162,-0.0393865,0.0,0.0,0.0,0.0695402,0.07624442852668256,0.0,0.0,-0.031993232005358085,0.0,-0.03862093567772962
98,225.6,819.678,-1.06263e-06,9.28686e-07,-2.39605e-15,1.69138e-15,-2.62562e-15,0.0744063,-0.0329334,-0.0398947,0.0,0.0,0.0,0.0704608,0.07724440099279839,0.0,0.0,-0.03239700019706393,0.0,-0.03910938439288725
99,228.5,821.362,-1.06111e-06,9.27558e-07,-1.97205e-16,-3.94293e-16,3.01099e-15,0.0753342,-0.0333503,-0.0404024,0.0,0.0,0.0,0.0713805,0.07824443996881003,0.0,0.0,-0.032800309811951145,0.0,-0.03959710474014455
100,231.4,823.027,-1.05952e-06,9.26358e-07,6.95522e-16,-3.31619e-16,-4.39163e-15,0.0762612,-0.0337668,-0.0409097,0.0,0.0,0.0,0.0722995,0.07924443599120679,0.0,0.0,-0.03320306460340694,0.0,-0.04008419356838255
101,234.3,824.673,-1.05786e-06,9.2509e-07,5.43512e-16,5.67199e-16,-8.86241e-16,0.0771874,-0.0341829,-0.0414166,0.0,0.0,0.0,0.0732177,0.08024449524377042,0.0,0.0,-0.03360526512460427,0.0,-0.040570651587461426
102,237.2,826.302,-1.05613e-06,9.23758e-07,1.28921e-15,4.22833e-16,1.84163e-15,0.0781126,-0.0345987,-0.041923,0.0,0.0,0.0,0.0741352,0.08124439993535426,0.0,0.0,-0.03400700852712368,0.0,-0.04105638361176889
103,240.2,827.913,-1.05434e-06,9.22365e-07,-7.16174e-16,1.16029e-15,-3.62403e-15,0.0790371,-0.035014,-0.042429,0.0,0.0,0.0,0.0750519,0.0822444725954512,0.0,0.0,-0.03440810212363221,0.0,-0.04154148634032062
104,243.1,829.507,-1.0525e-06,9.20914e-07,-5.87797e-16,3.77937e-17,5.5387e-16,0.0799607,-0.035429,-0.0429345,0.0,0.0,0.0,0.0759678,0.08324449532975087,0.0,0.0,-0.03480873962321973,0.0,-0.042025864682035396
105,246.0,831.084,-1.05059e-06,9.1941e-07,-4.84977e-16,8.58398e-16,-4.6329e-15,0.0808834,-0.0358437,-0.0434395,0.0,0.0,0.0,0.0768829,0.08424446629124893,0.0,0.0,-0.03520892145546006,0.0,-0.0425095194872539
106,248.9,832.645,-1.04864e-06,9.17854e-07,-1.27177e-15,6.52202e-16,-3.61302e-15,0.0818053,-0.0362579,-0.0439442,0.0,0.0,0.0,0.0777973,0.0852444921558182,0.0,0.0,-0.0356084551710486,0.0,-0.042992643006293574
107,251.8,834.19,-1.04663e-06,9.1625e-07,-1.64684e-16,1.34274e-15,-4.50882e-15,0.0827263,-0.0366718,-0.0444483,0.0,0.0,0.0,0.0787108,0.08624446274886743,0.0,0.0,-0.036007534236343286,0.0,-0.04347494883955516
108,254.8,835.719,-1.04458e-06,9.14601e-07,-1.45283e-16,1.03394e-15,-1.35167e-16,0.0836465,-0.0370853,-0.044952,0.0,0.0,0.0,0.0796237,0.08724448494313486,0.0,0.0,-0.036406062719494425,0.0,-0.043956629186445384
109,257.7,837.232,-1.04248e-06,9.12909e-07,-1.29728e-16,-6.29611e-17,-1.79611e-15,0.0845658,-0.0374984,-0.0454553,0.0,0.0,0.0,0.0805357,0.08824444836090461,0.0,0.0,-0.036804041166876966,0.0,-0.04443768474718923
110,260.6,838.731,-1.04035e-06,9.11176e-07,1.62475e-15,-7.40508e-17,-3.94352e-15,0.0854843,-0.0379112,-0.0459582,0.0,0.0,0.0,0.081447,0.08924446007179787,0.0,0.0,-0.03720156640382932,0.0,-0.04491811622091024
111,263.5,840.214,-1.03817e-06,9.09406e-07,4.22724e-16,7.71819e-16,3.69626e-15,0.0864019,-0.0383236,-0.0464605,0.0,0.0,0.0,0.0823575,0.09024440949499302,0.0,0.0,-0.037598542615723374,0.0,-0.04539773338519759
112,266.4,841.684,-1.03596e-06,9.07599e-07,3.2689e-16,1.43996e-15,-4.94468e-16,0.0873187,-0.0387357,-0.0469625,0.0,0.0,0.0,0.0832672,0.09124440389700861,0.0,0.0,-0.03799506654694351,0.0,-0.04587682346136812
113,269.4,843.139,-1.03371e-06,9.05758e-07,2.49764e-16,2.57024e-16,3.009e-15,0.0882347,-0.0391473,-0.047464,0.0,0.0,0.0,0.0841762,0.09224444171837654,0.0,0.0,-0.03839094629991069,0.0,-0.04635519627239382
114,272.3,844.58,-1.03143e-06,9.03886e-07,1.87657e-16,-1.5341e-15,5.75716e-15,0.0891498,-0.0395586,-0.047965,0.0,0.0,0.0,0.0850844,0.09324441207364731,0.0,0.0,-0.03878637477825653,0.0,-0.04683285265614623
115,275.2,846.007,-1.02912e-06,9.01983e-07,1.37615e-16,4.74825e-16,-1.42684e-15,0.0900641,-0.0399696,-0.0484656,0.0,0.0,0.0,0.0859918,0.09424442252472098,0.0,0.0,-0.039181352404760506,0.0,-0.04730988871801822
116,278.1,847.422,-1.02679e-06,9.00052e-07,1.84448e-15,3.50812e-16,-1.11612e-15,0.0909776,-0.0403801,-0.0489658,0.0,0.0,0.0,0.0868984,0.0952444715075269,0.0,0.0,-0.0395756875167792,0.0,-0.04778630514999849
117,281.0,848.823,-1.02442e-06,8.98093e-07,1.47451e-15,2.52689e-16,8.26777e-16,0.0918902,-0.0407903,-0.0494655,0.0,0.0,0.0,0.0878043,0.09624444783201991,0.0,0.0,-0.039969572778369544,0.0,-0.04826200746919196
118,284.0,850.211,-1.02203e-06,8.9611e-07,3.01623e-16,1.03283e-15,-1.90003e-15,0.092802,-0.0412002,-0.0499648,0.0,0.0,0.0,0.0887094,0.09724445935552417,0.0,0.0,-0.04036300861030517,0.0,-0.0487370916342309
119,286.9,851.586,-1.01962e-06,8.94103e-07,-6.45891e-16,-9.23436e-16,-1.49115e-15,0.0937129,-0.0416096,-0.0504636,0.0,0.0,0.0,0.0896138,0.09824439468495627,0.0,0.0,-0.04075580358396269,0.0,-0.04921146325480641
120,289.8,852.949,-1.01718e-06,8.92073e-07,-1.41189e-15,9.5988e-16,1.38477e-15,0.0946231,-0.0420187,-0.050962,0.0,0.0,0.0,0.0905173,0.09924447179904927,0.0,0.0,-0.041148150124759586,0.0,-0.049685218191982905
121,292.0,853.971,-5.25456e-07,4.74163e-07,-2.90374e-16,-1.23109e-16,2.53072e-16,0.0953102,-0.0423276,-0.0513383,0.0,0.0,0.0,0.0911995,0.10000002221524285,0.0,0.0,-0.04144429371945302,0.0,-0.05004275436972638
