,Time,S11,S22,S33,S12,S13,S23,LE11,LE22,LE33,LE12,LE13,LE23,SDV_EPBAR,E11,E12,E13,E22,E23,E33
0,0.000292,0.0207746,-1.30104e-18,0.0,0.0,0.0,2.64375e-19,1e-07,-3e-08,-3e-08,0.0,0.0,0.0,0.0,1.0000000494336803e-07,0.0,0.0,-2.9999999595631266e-08,0.0,-2.9999999595631266e-08
1,0.000584,0.0415492,2.60209e-18,1.73472e-18,-2.64375e-19,0.0,2.64375e-19,2e-07,-6e-08,-6e-08,0.0,0.0,0.0,0.0,2.0000002010078788e-07,0.0,0.0,-5.999999819206181e-08,0.0,-5.999999819206181e-08
2,0.001022,0.0727111,8.67362e-19,1.73472e-18,3.43687e-26,0.0,1.32187e-19,3.5e-07,-1.05e-07,-1.05e-07,0.0,0.0,0.0,0.0,3.5000006115559756e-07,0.0,0.0,-1.0499999447688424e-07,0.0,-1.0499999447688424e-07
3,0.001679,0.119454,-1.99493e-17,-1.9082e-17,3.43687e-26,0.0,-3.96562e-19,5.75e-07,-1.725e-07,-1.725e-07,0.0,0.0,0.0,0.0,5.750001652593539e-07,0.0,0.0,-1.7249998507384845e-07,0.0,-1.7249998507384845e-07
4,0.0026645,0.189568,1.30104e-17,1.21431e-17,-2.64374e-19,0.0,-1.32187e-19,9.125e-07,-2.7375e-07,-2.7375e-07,0.0,0.0,0.0,0.0,9.125004163390571e-07,0.0,0.0,-2.737499624760886e-07,0.0,-2.737499624760886e-07
5,0.0041428,0.294739,1.64799e-17,1.9082e-17,2.64375e-19,0.0,3.96562e-19,1.41875e-06,-4.25625e-07,-4.25625e-07,0.0,0.0,0.0,0.0,1.4187510064544995e-06,0.0,0.0,-4.256249094281017e-07,0.0,-4.256249094281017e-07
6,0.0063601,0.452496,4.0766e-17,1.9082e-17,-7.93123e-19,0.0,-1.32187e-19,2.17812e-06,-6.53437e-07,-6.53437e-07,0.0,0.0,0.0,0.0,2.178122372020752e-06,0.0,0.0,-6.53436786457462e-07,0.0,-6.53436786457462e-07
7,0.0096862,0.689131,-2.1684e-17,-2.25514e-17,-7.93122e-19,0.0,-1.32187e-19,3.31718e-06,-9.95155e-07,-9.95155e-07,0.0,0.0,0.0,0.0,3.317185501838793e-06,0.0,0.0,-9.951545048014765e-07,0.0,-9.951545048014765e-07
8,0.014675,1.04408,1.51788e-16,1.43982e-16,-7.9312e-19,0.0,-1.32187e-19,5.02577e-06,-1.50773e-06,-1.50773e-06,0.0,0.0,0.0,0.0,5.025782629175524e-06,0.0,0.0,-1.5077288634257613e-06,0.0,-1.5077288634257613e-06
9,0.022159,1.57651,1.65666e-16,1.71738e-16,-7.93117e-19,0.0,-1.32187e-19,7.58864e-06,-2.27659e-06,-2.27659e-06,0.0,0.0,0.0,0.0,7.5886687938009345e-06,0.0,0.0,-2.276587408589492e-06,0.0,-2.276587408589492e-06
10,0.033384,2.37515,2.68882e-17,5.20417e-18,-7.93113e-19,0.0,-1.32187e-19,1.14329e-05,-3.42988e-06,-3.42988e-06,0.0,0.0,0.0,0.0,1.1432965355773206e-05,0.0,0.0,-3.429874117943932e-06,0.0,-3.429874117943932e-06
11,0.050223,3.5731,1.10155e-16,6.07153e-17,-7.93107e-19,0.0,-1.32187e-19,1.71994e-05,-5.15981e-06,-5.15981e-06,0.0,0.0,0.0,0.0,1.7199547910573543e-05,0.0,0.0,-5.159796688247731e-06,0.0,-5.159796688247731e-06
12,0.07548,5.37001,6.09755e-16,6.15827e-16,-7.93099e-19,0.0,-1.32187e-19,2.58489e-05,-7.75468e-06,-7.75468e-06,0.0,0.0,0.0,0.0,2.5849234085661976e-05,0.0,0.0,-7.754649932523172e-06,0.0,-7.754649932523172e-06
13,0.1134,8.06535,-8.89046e-16,-9.38485e-16,-7.93085e-19,0.0,-1.32187e-19,3.88231e-05,-1.16469e-05,-1.16469e-05,0.0,0.0,0.0,0.0,3.882385362641294e-05,0.0,0.0,-1.16468321751384e-05,0.0,-1.16468321751384e-05
14,0.1702,12.1083,-3.77563e-15,-3.60302e-15,-7.93065e-19,0.0,-1.32187e-19,5.82842e-05,-1.74852e-05,-1.74852e-05,0.0,0.0,0.0,0.0,5.828589855694233e-05,0.0,0.0,-1.748504713483534e-05,0.0,-1.748504713483534e-05
15,0.2554,18.1726,-1.73203e-14,-1.73698e-14,-7.93035e-19,0.0,-1.32187e-19,8.7475e-05,-2.62425e-05,-2.62425e-05,0.0,0.0,0.0,0.0,8.747882604942525e-05,0.0,0.0,-2.6242155668598777e-05,0.0,-2.6242155668598777e-05
16,0.3833,27.2686,-9.19273e-14,-9.19768e-14,-7.9299e-19,0.0,-1.32187e-19,0.00013126,-3.93779e-05,-3.93779e-05,0.0,0.0,0.0,0.0,0.0001312686149708142,0.0,0.0,-3.9377124700701316e-05,0.0,-3.9377124700701316e-05
17,0.5751,40.912,-4.52528e-13,-4.52577e-13,-7.92922e-19,0.0,-1.32187e-19,0.000196933,-5.90799e-05,-5.90799e-05,0.0,0.0,0.0,0.0,0.00019695239257622177,0.0,0.0,-5.9078154817093775e-05,0.0,-5.9078154817093775e-05
18,0.8628,61.3754,-2.25908e-12,-2.25913e-12,-7.92821e-19,0.0,-1.32187e-19,0.000295435,-8.86304e-05,-8.86304e-05,0.0,0.0,0.0,0.0,0.00029547864521761724,0.0,0.0,-8.862647244212152e-05,0.0,-8.862647244212152e-05
19,1.294,92.0667,-1.14349e-11,-1.14358e-11,-7.92668e-19,0.0,-1.32187e-19,0.000443169,-0.000132951,-0.000132951,0.0,0.0,0.0,0.0,0.0004432672138892091,0.0,0.0,-0.0001329421624074456,0.0,-0.0001329421624074456
20,1.942,138.095,-5.79026e-11,-5.79053e-11,-7.9244e-19,0.0,-1.32187e-19,0.00066473,-0.000199419,-0.000199419,0.0,0.0,0.0,0.0,0.0006649509819482979,0.0,0.0,-0.00019939911735278315,0.0,-0.00019939911735278315
21,2.913,207.119,-2.92884e-10,-2.92885e-10,-7.92097e-19,0.0,-1.32187e-19,0.00099698,-0.000299094,-0.000299094,0.0,0.0,0.0,0.0,0.0009974771497625046,0.0,0.0,-0.0002990492758485619,0.0,-0.0002990492758485619
22,4.369,310.611,-1.48101e-09,-1.48101e-09,-7.91584e-19,0.0,-1.32187e-19,0.00149515,-0.000448544,-0.000448544,0.0,0.0,0.0,0.0,0.0014962682940309335,0.0,0.0,-0.00044844341917871233,0.0,-0.00044844341917871233
23,6.554,465.753,-7.48297e-09,-7.48296e-09,-7.90814e-19,0.0,-1.32187e-19,0.00224193,-0.00067258,-0.00067258,0.0,0.0,0.0,0.0,0.0022444450041991804,0.0,0.0,-0.0006723538687718467,0.0,-0.0006723538687718467
24,9.474,497.072,-0.168043,0.206749,2.35206e-15,3.05246e-15,-7.53953e-16,0.0032392,-0.0011013,-0.00118075,0.0,0.0,0.0,0.000846563,0.003244451877416177,0.0,0.0,-0.0011006937917142912,0.0,-0.0011800531889987198
25,12.39,516.301,-0.00147781,0.00222146,-6.45387e-16,-8.95448e-16,2.46849e-15,0.00423547,-0.00153515,-0.00170621,0.0,0.0,0.0,0.00175021,0.004244452279975608,0.0,0.0,-0.0015339722599849726,0.0,-0.0017047552512045039
26,15.31,532.69,3.47259e-05,-2.32784e-05,-2.8132e-15,-6.30124e-16,3.21485e-15,0.00523074,-0.00197172,-0.00223337,0.0,0.0,0.0,0.0026666,0.0052444442044314865,0.0,0.0,-0.001969777437060505,0.0,-0.0022308778848384447
27,18.23,546.983,-1.14576e-05,1.37665e-05,-2.04074e-15,-1.97477e-15,2.99591e-15,0.00622503,-0.00240938,-0.00276248,0.0,0.0,0.0,0.00359209,0.006244445766251383,0.0,0.0,-0.002406479773724546,0.0,-0.002758667863249853
28,21.15,559.681,-5.26144e-06,6.58491e-06,-6.96719e-16,-1.40052e-15,1.33936e-15,0.00721833,-0.00284774,-0.00329297,0.0,0.0,0.0,0.00452427,0.007244444941601369,0.0,0.0,-0.002843689034723873,0.0,-0.0032875541206964787
29,24.07,571.119,-2.24384e-06,2.99135e-06,-1.3004e-15,-4.08235e-15,-5.83195e-16,0.00821065,-0.00328657,-0.00382442,0.0,0.0,0.0,0.00546153,0.008244449829572176,0.0,0.0,-0.003281175140630199,0.0,-0.0038171162197061514
30,26.99,581.538,-8.22715e-07,1.26375e-06,-1.748e-15,-1.36806e-15,-1.17887e-15,0.00920198,-0.0037257,-0.00435657,0.0,0.0,0.0,0.0064027,0.009244448382409898,0.0,0.0,-0.0037187681910407777,0.0,-0.004347093914987998
31,29.91,591.115,-1.58096e-07,4.20493e-07,-2.08317e-15,-2.5334e-15,-8.37417e-16,0.0101923,-0.004165,-0.00488918,0.0,0.0,0.0,0.00734695,0.010244418407964417,0.0,0.0,-0.004156338416837269,0.0,-0.004877247414237673
32,32.83,599.983,1.30073e-07,2.09096e-08,-1.53638e-15,-2.60464e-16,-3.68119e-15,0.0111817,-0.00460437,-0.0054221,0.0,0.0,0.0,0.00829364,0.011244448869027979,0.0,0.0,-0.004593786138686884,0.0,-0.005407426947359517
33,35.75,608.246,2.2587e-07,-1.48305e-07,-2.74079e-15,-4.87885e-15,-1.08353e-15,0.0121701,-0.00504374,-0.00595522,0.0,0.0,0.0,0.00924226,0.012244457004898734,0.0,0.0,-0.005031041701348715,0.0,-0.005937522824992936
34,38.67,615.986,2.2268e-07,-1.95734e-07,-2.8379e-15,-3.52974e-15,-1.26539e-18,0.0131575,-0.00548305,-0.00648842,0.0,0.0,0.0,0.0101924,0.013244440792496093,0.0,0.0,-0.005468045517317388,0.0,-0.00646741565583997
35,41.59,623.269,1.69526e-07,-1.78813e-07,-1.30221e-15,5.90881e-16,-1.55827e-15,0.0141439,-0.00592225,-0.00702164,0.0,0.0,0.0,0.0111438,0.014244398206812336,0.0,0.0,-0.0059047480448312095,0.0,-0.006997045883200159
36,44.51,630.149,9.27515e-08,-1.28797e-07,-3.3946e-15,4.38531e-16,-1.12444e-15,0.0151294,-0.0063613,-0.00755481,0.0,0.0,0.0,0.0120962,0.015244428745356142,0.0,0.0,-0.006341109765885866,0.0,-0.007526344152728792
37,47.43,636.671,6.68243e-09,-6.30126e-08,-1.72397e-15,-2.83703e-15,-1.59626e-15,0.0161139,-0.00680017,-0.00808788,0.0,0.0,0.0,0.0130493,0.016244429054838472,0.0,0.0,-0.006777101164272548,0.0,-0.008055261097048683
38,50.35,642.874,-7.38151e-08,3.49783e-09,3.40311e-16,-4.82825e-16,4.11724e-16,0.0170975,-0.00723885,-0.0086208,0.0,0.0,0.0,0.0140029,0.017244498828943522,0.0,0.0,-0.007212712631528784,0.0,-0.008583747454322221
39,53.27,648.788,-1.58723e-07,7.60606e-08,-1.36517e-15,-3.45381e-16,-3.63418e-15,0.01808,-0.00767729,-0.00915353,0.0,0.0,0.0,0.014957,0.01824443268611331,0.0,0.0,-0.007647894882178319,0.0,-0.009111763976932363
40,56.19,654.442,-2.38737e-07,1.46163e-07,-1.83697e-15,-2.44862e-16,-2.64634e-15,0.0190616,-0.00811549,-0.00968604,0.0,0.0,0.0,0.0159114,0.019244432140675505,0.0,0.0,-0.008082648313207486,0.0,-0.009639281404878575
41,59.11,659.858,-3.13211e-07,2.12563e-07,-1.37825e-15,-1.76817e-15,2.01902e-15,0.0200423,-0.00855343,-0.0102183,0.0,0.0,0.0,0.016866,0.02024449545617002,0.0,0.0,-0.008516953491458867,0.0,-0.010166270540897915
42,62.03,665.057,-3.81844e-07,2.74543e-07,-1.03313e-15,-2.89659e-15,1.47568e-15,0.0210219,-0.00899109,-0.0107503,0.0,0.0,0.0,0.0178206,0.02124441664535559,0.0,0.0,-0.00895079101800289,0.0,-0.010692722036455882
43,64.95,670.057,-4.44702e-07,3.31867e-07,-7.72923e-16,-2.1331e-15,1.08064e-15,0.0220006,-0.00942846,-0.011282,0.0,0.0,0.0,0.0187753,0.022244397816892914,0.0,0.0,-0.009384151434204568,0.0,-0.011218596899927658
44,67.87,674.873,-5.02052e-07,3.84574e-07,-1.39894e-15,-1.56996e-15,7.9281e-16,0.0229784,-0.00986554,-0.0118135,0.0,0.0,0.0,0.0197299,0.02324443722866909,0.0,0.0,-0.009817035199986113,0.0,-0.011743994578873762
45,70.79,679.52,-5.54254e-07,4.32856e-07,-1.05316e-15,4.55521e-16,2.17555e-15,0.0239552,-0.0103023,-0.0123445,0.0,0.0,0.0,0.0206843,0.024244430712260456,0.0,0.0,-0.010249413082136782,0.0,-0.01226861921758371
46,73.71,684.009,-6.01711e-07,4.76982e-07,-7.90967e-16,-4.4844e-15,-2.38568e-15,0.0249311,-0.0107388,-0.0128753,0.0,0.0,0.0,0.0216385,0.02524447874626201,0.0,0.0,-0.010681344937340964,0.0,-0.012792767913132885
47,76.63,688.352,-6.44826e-07,5.17256e-07,-2.24499e-15,-9.95521e-17,-9.61469e-16,0.025906,-0.0111749,-0.0134057,0.0,0.0,0.0,0.0225925,0.026244476958517948,0.0,0.0,-0.011112692740589347,0.0,-0.01331624379095675
48,79.55,692.558,-6.8399e-07,5.53986e-07,7.80047e-16,-1.6772e-15,8.90415e-16,0.0268799,-0.0116107,-0.0139358,0.0,0.0,0.0,0.0235462,0.02724442329946286,0.0,0.0,-0.011543555937183037,0.0,-0.013839146242583422
49,82.47,696.637,-7.19568e-07,5.87474e-07,-1.04837e-15,-1.2393e-15,-1.42258e-16,0.0278529,-0.0120462,-0.0144654,0.0,0.0,0.0,0.0244996,0.028244418542125116,0.0,0.0,-0.01197393499672983,0.0,-0.014361278757839324
50,85.39,700.596,-7.519e-07,6.18007e-07,-7.90862e-16,-9.12667e-16,-9.07961e-16,0.028825,-0.0124813,-0.0149947,0.0,0.0,0.0,0.0254526,0.02924446093324229,0.0,0.0,-0.01240373162857522,0.0,-0.014882839289821481
51,88.31,704.442,-7.81292e-07,6.45849e-07,-1.42534e-15,-2.29336e-15,-2.28257e-15,0.0297961,-0.0129161,-0.0155237,0.0,0.0,0.0,0.0264052,0.030244445693269784,0.0,0.0,-0.012833045146540822,0.0,-0.015403828454053747
52,91.23,708.183,-8.08025e-07,6.71246e-07,5.82877e-16,-3.33304e-15,7.18695e-16,0.0307663,-0.0133505,-0.0160522,0.0,0.0,0.0,0.0273574,0.03124447388971663,0.0,0.0,-0.013261777344353742,0.0,-0.015924050050050154
53,94.15,711.824,-8.32349e-07,6.9442e-07,-2.87199e-15,-8.59934e-16,1.34207e-15,0.0317355,-0.0137846,-0.0165803,0.0,0.0,0.0,0.0283091,0.032244440539372476,0.0,0.0,-0.013690027448398423,0.0,-0.016443603359092895
54,97.07,715.37,-8.54491e-07,7.15573e-07,-2.19901e-15,-2.26075e-15,-1.42187e-15,0.0327038,-0.0142183,-0.0171081,0.0,0.0,0.0,0.0292603,0.03324444690609507,0.0,0.0,-0.014117697336575308,0.0,-0.01696258745328938
55,99.99,718.828,-8.74654e-07,7.34889e-07,-8.46066e-16,-3.31954e-15,-1.87062e-15,0.0336712,-0.0146517,-0.0176354,0.0,0.0,0.0,0.030211,0.03424449122747819,0.0,0.0,-0.014544886148047387,0.0,-0.01748080644048211
56,102.9,722.201,-8.9302e-07,7.52532e-07,-1.47475e-15,-5.758e-15,-5.89314e-16,0.0346376,-0.0150847,-0.0181623,0.0,0.0,0.0,0.0311612,0.03524446821485494,0.0,0.0,-0.014971495844680605,0.0,-0.017998359442256584
57,105.8,725.494,-9.09753e-07,7.68651e-07,-2.79983e-15,2.21972e-15,3.6942e-16,0.0356031,-0.0155174,-0.0186888,0.0,0.0,0.0,0.0321109,0.03624447942664566,0.0,0.0,-0.015397625478633659,0.0,-0.01851524722336151
58,108.8,728.71,-9.24999e-07,7.8338e-07,-1.3126e-15,6.29506e-17,-2.15839e-15,0.0365676,-0.0159496,-0.0192149,0.0,0.0,0.0,0.0330599,0.037244419370573656,0.0,0.0,-0.015823078677842495,0.0,-0.01903147054734533
59,111.7,731.854,-9.38891e-07,7.96841e-07,-1.00018e-15,1.71157e-15,5.90811e-18,0.0375313,-0.0163816,-0.0197406,0.0,0.0,0.0,0.0340084,0.038244493625901876,0.0,0.0,-0.016248151285559786,0.0,-0.01954703017655668
60,114.6,734.928,-9.51545e-07,8.09141e-07,-7.5848e-16,-3.23163e-16,4.21151e-18,0.038494,-0.0168131,-0.0202658,0.0,0.0,0.0,0.0349563,0.03924449287232035,0.0,0.0,-0.01667254863796641,0.0,-0.02006182887833552
61,117.5,737.936,-9.6307e-07,8.20381e-07,-5.71273e-16,-2.23852e-16,-2.44105e-15,0.0394557,-0.0172443,-0.0207906,0.0,0.0,0.0,0.0359036,0.04024441503662213,0.0,0.0,-0.017096468031404077,0.0,-0.020575965509288086
62,120.4,740.881,-9.7356e-07,8.30647e-07,-1.26819e-15,-3.44314e-15,2.23972e-15,0.0404166,-0.0176751,-0.0213149,0.0,0.0,0.0,0.0368503,0.041244466292708726,0.0,0.0,-0.017519811678207264,0.0,-0.021089342936918887
63,123.4,743.766,-9.83102e-07,8.40021e-07,-9.68628e-16,-9.49609e-16,2.5057e-15,0.0413765,-0.0181056,-0.0218389,0.0,0.0,0.0,0.0377963,0.042244436714925504,0.0,0.0,-0.01794267837069352,0.0,-0.02160215775200436
64,126.3,746.593,-9.91774e-07,8.48575e-07,-7.35854e-16,-2.35129e-15,-5.61121e-16,0.0423355,-0.0185356,-0.0223624,0.0,0.0,0.0,0.0387417,0.043244428549180425,0.0,0.0,-0.01836487224080663,0.0,-0.022114214979747637
65,129.2,749.365,-9.99646e-07,8.56375e-07,-2.24397e-15,-1.76986e-15,2.84966e-15,0.0432936,-0.0189653,-0.0228854,0.0,0.0,0.0,0.0396865,0.044244440015168696,0.0,0.0,-0.018786590242603207,0.0,-0.022625515528565177
66,132.1,752.083,-1.00678e-06,8.63481e-07,-1.73198e-15,3.27361e-16,3.79385e-15,0.0442508,-0.0193946,-0.0234081,0.0,0.0,0.0,0.0406306,0.04524446933082715,0.0,0.0,-0.019207734754274397,0.0,-0.02313625567803168
67,135.0,754.751,-1.01324e-06,8.69946e-07,-1.33298e-15,-5.52777e-16,2.05302e-15,0.045207,-0.0198236,-0.0239302,0.0,0.0,0.0,0.041574,0.046244410087888266,0.0,0.0,-0.01962840439597502,0.0,-0.02364614312124258
68,138.0,757.369,-1.01908e-06,8.75821e-07,-1.0217e-15,-1.22672e-15,-8.57742e-17,0.0461624,-0.0202522,-0.024452,0.0,0.0,0.0,0.0425167,0.04724446964966855,0.0,0.0,-0.020048501628583293,0.0,-0.024155471668387718
69,140.9,759.94,-1.02434e-06,8.81149e-07,-7.78622e-16,-2.57333e-15,3.22108e-15,0.0471168,-0.0206803,-0.0249733,0.0,0.0,0.0,0.0434588,0.048244436879960606,0.0,0.0,-0.020467929080184466,0.0,-0.024664046849368848
70,143.8,762.466,-1.02906e-06,8.85972e-07,-2.2855e-15,-1.11638e-15,-2.14654e-17,0.0480703,-0.0211082,-0.0254941,0.0,0.0,0.0,0.0444001,0.04924441461414841,0.0,0.0,-0.02088698119073784,0.0,-0.025171869565256078
71,146.7,764.948,-1.03329e-06,8.90328e-07,-9.20912e-16,-1.66102e-15,1.62972e-15,0.0490229,-0.0215356,-0.0260145,0.0,0.0,0.0,0.0453408,0.05024440106143513,0.0,0.0,-0.021305364680056504,0.0,-0.025679038147623512
72,149.6,767.388,-1.03707e-06,8.94249e-07,-7.00305e-16,-4.16595e-16,-2.05662e-15,0.0499747,-0.0219627,-0.0265344,0.0,0.0,0.0,0.0462808,0.05124449955373711,0.0,0.0,-0.021723275907506223,0.0,-0.026185455960972992
73,152.6,769.787,-1.04041e-06,8.97769e-07,-5.27382e-16,-1.12522e-15,2.55723e-15,0.0509255,-0.0223893,-0.0270539,0.0,0.0,0.0,0.04722,0.052244498147909324,0.0,0.0,-0.022140519753563903,0.0,-0.026691221232697515
74,155.5,772.147,-1.04337e-06,9.00914e-07,-1.243e-15,-1.67115e-15,2.98022e-16,0.0518753,-0.0228156,-0.027573,0.0,0.0,0.0,0.0481586,0.05324439474797682,0.0,0.0,-0.022557292408589724,0.0,-0.027196334706210856
75,158.4,774.469,-1.04596e-06,9.03712e-07,-1.80665e-15,-1.25844e-15,-5.99493e-16,0.0528243,-0.0232416,-0.0280916,0.0,0.0,0.0,0.0490964,0.05424439810513504,0.0,0.0,-0.022973594323420055,0.0,-0.02770069989383528
76,161.3,776.754,-1.04821e-06,9.06186e-07,-1.39869e-15,-1.77569e-15,2.02284e-15,0.0537724,-0.0236671,-0.0286098,0.0,0.0,0.0,0.0500335,0.05524440119553553,0.0,0.0,-0.023389230626141067,0.0,-0.02820441486732861
77,164.2,779.004,-1.05014e-06,9.0836e-07,-1.07789e-15,-1.34016e-15,1.54579e-15,0.0547196,-0.0240923,-0.0291275,0.0,0.0,0.0,0.0509699,0.05624440221806659,0.0,0.0,-0.023804397254598708,0.0,-0.028707383237155715
78,167.2,781.219,-1.05178e-06,9.10252e-07,2.85608e-17,-1.84067e-15,2.83934e-15,0.0556659,-0.0245171,-0.0296447,0.0,0.0,0.0,0.0519055,0.057244399369914545,0.0,0.0,-0.024218997079407445,0.0,-0.0292096058925716
79,170.1,783.402,-1.05315e-06,9.11883e-07,-8.07418e-16,-1.39147e-15,-3.13805e-16,0.0566114,-0.0249415,-0.0301615,0.0,0.0,0.0,0.0528404,0.05824449667101317,0.0,0.0,-0.0246330306729039,0.0,-0.029711180750139676
80,173.0,785.551,-1.05425e-06,9.13269e-07,2.42466e-16,-1.04469e-15,-2.73087e-15,0.0575559,-0.0253655,-0.0306778,0.0,0.0,0.0,0.0537746,0.05924448076626909,0.0,0.0,-0.025046498606502543,0.0,-0.03021201156691755
81,175.9,787.67,-1.05512e-06,9.14427e-07,2.16507e-16,-2.45308e-15,1.22681e-15,0.0584995,-0.0257891,-0.0311937,0.0,0.0,0.0,0.054708,0.06024445557223701,0.0,0.0,-0.02545940145069603,0.0,-0.030712196156441718
82,178.8,789.759,-1.05577e-06,9.15371e-07,-2.37336e-15,-1.86748e-15,3.43484e-15,0.0594422,-0.0262124,-0.0317092,0.0,0.0,0.0,0.0556407,0.06124441927934421,0.0,0.0,-0.025871837187879665,0.0,-0.03121173525205878
83,181.8,791.818,-1.0562e-06,9.16116e-07,-9.95857e-16,-1.41431e-15,1.42132e-16,0.0603841,-0.0266353,-0.0322242,0.0,0.0,0.0,0.0565726,0.062244476300782114,0.0,0.0,-0.026283708891522872,0.0,-0.03171053275702207
84,184.7,793.848,-1.05644e-06,9.16673e-07,-7.62903e-16,-1.06331e-15,1.77364e-15,0.061325,-0.0270578,-0.0327387,0.0,0.0,0.0,0.0575038,0.06324441247473667,0.0,0.0,-0.026695017129532594,0.0,-0.032208589551821265
85,187.6,795.851,-1.05649e-06,9.17055e-07,-1.43684e-15,-7.91234e-16,1.36393e-15,0.0622651,-0.02748,-0.0332528,0.0,0.0,0.0,0.0584342,0.06424443853550321,0.0,0.0,-0.027105859758318585,0.0,-0.03270600324478745
86,190.5,797.826,-1.05638e-06,9.17273e-07,-2.54198e-16,-1.42149e-15,1.88309e-15,0.0632043,-0.0279017,-0.0337664,0.0,0.0,0.0,0.0593639,0.06524444644238003,0.0,0.0,-0.027516042724101686,0.0,-0.033202677884555554
87,193.4,799.776,-1.0561e-06,9.17337e-07,-2.75341e-15,-1.91207e-15,-4.39073e-15,0.0641426,-0.0283231,-0.0342796,0.0,0.0,0.0,0.0602928,0.06624443437745042,0.0,0.0,-0.027925761129966475,0.0,-0.033698710977286606
88,196.4,801.7,-1.05567e-06,9.17256e-07,-4.39262e-16,-6.09391e-16,-2.55142e-15,0.06508,-0.0287441,-0.0347923,0.0,0.0,0.0,0.061221,0.06724440052114344,0.0,0.0,-0.02833491825091361,0.0,-0.03419400666826866
89,199.3,803.599,-1.0551e-06,9.1704e-07,-3.21486e-16,-1.28161e-15,5.37442e-16,0.0660166,-0.0291647,-0.0353046,0.0,0.0,0.0,0.0621484,0.06824444987667944,0.0,0.0,-0.028743514650450885,0.0,-0.034688662361778144
90,202.2,805.475,-1.0544e-06,9.16697e-07,-1.08905e-15,-9.62107e-16,-2.09433e-15,0.0669523,-0.029585,-0.0358164,0.0,0.0,0.0,0.0630751,0.0692444739967506,0.0,0.0,-0.02915164797601677,0.0,-0.03518258229948801
91,205.1,807.326,-1.05357e-06,9.16233e-07,-2.56186e-15,-7.13324e-16,1.72872e-15,0.0678871,-0.0300048,-0.0363278,0.0,0.0,0.0,0.0640009,0.07024447105684795,0.0,0.0,-0.02955912457887322,0.0,-0.0356758637840735
92,208.0,809.155,-1.05263e-06,9.15657e-07,-2.86602e-16,-5.19456e-16,1.33671e-15,0.068821,-0.0304243,-0.0368387,0.0,0.0,0.0,0.0649261,0.07124443923082846,0.0,0.0,-0.0299661391488375,0.0,-0.03616841115332725
93,211.0,810.961,-1.05158e-06,9.14975e-07,-1.06219e-15,-3.68258e-16,1.03425e-15,0.0697541,-0.0308434,-0.0373492,0.0,0.0,0.0,0.0658504,0.07224448391536265,0.0,0.0,-0.03037259516111368,0.0,-0.03666032160860666
94,213.9,812.746,-1.05042e-06,9.14194e-07,4.57143e-17,-2.78825e-15,-2.55373e-15,0.0706863,-0.0312622,-0.0378592,0.0,0.0,0.0,0.066774,0.07324449625660368,0.0,0.0,-0.03077859009698647,0.0,-0.03715149958355635
95,216.8,814.51,-1.04916e-06,9.13319e-07,6.57012e-17,-2.98793e-15,-1.97956e-15,0.0716176,-0.0316805,-0.0383688,0.0,0.0,0.0,0.0676969,0.07424447442352577,0.0,0.0,-0.03118393062986602,0.0,-0.037642042178499535
96,219.7,816.253,-1.04782e-06,9.12356e-07,-7.82622e-16,-2.29799e-15,-3.21558e-15,0.072548,-0.0320985,-0.0388779,0.0,0.0,0.0,0.0686189,0.07524441658348935,0.0,0.0,-0.031588811120945026,0.0,-0.03813185392266771
97,222.6,817.975,-1.04638e-06,9.1131e-07,-1.46036e-15,-6.33718e-17,-2.49562e-15,0.0734776,-0.0325161,-0.0393865,0.0,0.0,0.0,0.0695402,0.07624442852668256,0.0,0.0,-0.03199313520467639,0.0,-0.03862093567772962
98,225.6,819.678,-1.04487e-06,9.10186e-07,-2.00238e-15,-8.57609e-16,-1.0979e-15,0.0744063,-0.0329334,-0.0398947,0.0,0.0,0.0,0.0704608,0.07724440099279839,0.0,0.0,-0.03239700019706393,0.0,-0.03910938439288725
99,228.5,821.362,-1.04328e-06,9.08988e-07,-7.04704e-16,-1.48034e-15,-1.69513e-15,0.0753342,-0.0333502,-0.0404025,0.0,0.0,0.0,0.0713805,0.07824443996881003,0.0,0.0,-0.03280021309197734,0.0,-0.039597200780429276
100,231.4,823.027,-1.04162e-06,9.07721e-07,-5.33065e-16,-1.11991e-15,2.04937e-15,0.0762612,-0.0337667,-0.0409098,0.0,0.0,0.0,0.0722995,0.07924443599120679,0.0,0.0,-0.03320296792370869,0.0,-0.04008428955995835
101,234.3,824.673,-1.03989e-06,9.06388e-07,-1.26263e-15,-1.68713e-15,-5.14535e-15,0.0771874,-0.0341828,-0.0414167,0.0,0.0,0.0,0.0732177,0.08024449524377042,0.0,0.0,-0.03360516848512585,0.0,-0.04057074753039147
102,237.2,826.302,-1.0381e-06,9.04993e-07,-9.80007e-16,-2.13299e-15,4.4238e-15,0.0781126,-0.0345986,-0.0419231,0.0,0.0,0.0,0.0741352,0.08124439993535426,0.0,0.0,-0.03400691192781968,0.0,-0.04105647950612579
103,240.2,827.913,-1.03625e-06,9.03541e-07,-7.53792e-16,-1.6331e-15,-1.61549e-15,0.0790371,-0.035014,-0.042429,0.0,0.0,0.0,0.0750519,0.0822444725954512,0.0,0.0,-0.03440810212363221,0.0,-0.04154148634032062
104,243.1,829.507,-1.03434e-06,9.02033e-07,-5.72612e-16,-2.09184e-15,-1.25953e-15,0.0799607,-0.035429,-0.0429345,0.0,0.0,0.0,0.0759678,0.08324449532975087,0.0,0.0,-0.03480873962321973,0.0,-0.042025864682035396
105,246.0,831.084,-1.03238e-06,9.00475e-07,4.41311e-16,-1.60147e-15,4.08433e-15,0.0808834,-0.0358436,-0.0434396,0.0,0.0,0.0,0.0768829,0.08424446629124893,0.0,0.0,-0.035208824976347364,0.0,-0.04250961523629715
106,248.9,832.645,-1.03037e-06,8.98867e-07,3.86096e-16,-1.21594e-15,-1.88395e-15,0.0818053,-0.0362578,-0.0439442,0.0,0.0,0.0,0.0777973,0.0852444921558182,0.0,0.0,-0.03560835873188917,0.0,-0.042992643006293574
107,251.8,834.19,-1.02831e-06,8.97214e-07,-5.27775e-16,-2.61815e-15,-6.261e-16,0.0827263,-0.0366717,-0.0444484,0.0,0.0,0.0,0.0787108,0.08624446274886743,0.0,0.0,-0.03600743783709193,0.0,-0.04347504449205564
108,254.8,835.719,-1.02621e-06,8.95517e-07,1.3481e-15,-3.10726e-16,3.56946e-16,0.0836465,-0.0370852,-0.0449521,0.0,0.0,0.0,0.0796237,0.08724448494313486,0.0,0.0,-0.03640596636009574,0.0,-0.043956724790777724
109,257.7,837.232,-1.02406e-06,8.9378e-07,-2.36679e-15,-3.61394e-15,2.78501e-16,0.0845658,-0.0374984,-0.0454554,0.0,0.0,0.0,0.0805357,0.08824444836090461,0.0,0.0,-0.036804041166876966,0.0,-0.04443778030341594
110,260.6,838.731,-1.02188e-06,8.92004e-07,-1.87141e-15,-1.94952e-15,2.17304e-16,0.0854843,-0.0379112,-0.0459582,0.0,0.0,0.0,0.081447,0.08924446007179787,0.0,0.0,-0.03720156640382932,0.0,-0.04491811622091024
111,263.5,840.214,-1.01966e-06,8.90192e-07,-1.4732e-15,-6.36345e-16,1.86435e-15,0.0864019,-0.0383236,-0.0464606,0.0,0.0,0.0,0.0823575,0.09024440949499302,0.0,0.0,-0.037598542615723374,0.0,-0.04539782884541943
112,266.4,841.684,-1.0174e-06,8.88346e-07,-1.15293e-15,-1.30974e-15,-1.93233e-15,0.0873187,-0.0387356,-0.0469625,0.0,0.0,0.0,0.0832672,0.09124440389700861,0.0,0.0,-0.03799497034644539,0.0,-0.04587682346136812
113,269.4,843.139,-1.01512e-06,8.86467e-07,-2.28759e-17,-1.84208e-15,1.03057e-15,0.0882347,-0.0391473,-0.047464,0.0,0.0,0.0,0.0841762,0.09224444171837654,0.0,0.0,-0.03839094629991069,0.0,-0.04635519627239382
114,272.3,844.58,-1.0128e-06,8.84559e-07,1.51556e-17,-5.51242e-16,-2.58788e-15,0.0891498,-0.0395586,-0.0479651,0.0,0.0,0.0,0.0850844,0.09324441207364731,0.0,0.0,-0.03878637477825653,0.0,-0.0468329479728562
115,275.2,846.007,-1.01045e-06,8.82622e-07,-1.70052e-15,-1.24335e-15,3.06578e-15,0.0900641,-0.0399695,-0.0484657,0.0,0.0,0.0,0.0859918,0.09424442252472098,0.0,0.0,-0.039181256322891045,0.0,-0.047309983987024684
116,278.1,847.422,-1.00808e-06,8.80658e-07,-1.3378e-15,-1.79132e-15,3.25499e-15,0.0909776,-0.0403801,-0.0489659,0.0,0.0,0.0,0.0868984,0.0952444715075269,0.0,0.0,-0.0395756875167792,0.0,-0.04778640037136328
117,281.0,848.823,-1.00568e-06,8.7867e-07,-1.71297e-16,-1.36817e-15,1.70466e-15,0.0918902,-0.0407903,-0.0494656,0.0,0.0,0.0,0.0878043,0.09624444783201991,0.0,0.0,-0.039969572778369544,0.0,-0.04826210264298647
118,284.0,850.211,-1.00326e-06,8.76657e-07,-9.78235e-16,-1.03324e-15,4.87197e-16,0.092802,-0.0412001,-0.0499649,0.0,0.0,0.0,0.0887094,0.09724445935552417,0.0,0.0,-0.0403629126466013,0.0,-0.04873718676051708
119,286.9,851.586,-1.00082e-06,8.74623e-07,1.19355e-16,-1.62624e-15,2.93578e-15,0.0937129,-0.0416096,-0.0504637,0.0,0.0,0.0,0.0896138,0.09824439468495627,0.0,0.0,-0.04075580358396269,0.0,-0.049211558333655425
120,289.8,852.949,-9.98353e-07,8.72567e-07,1.31287e-16,-1.23811e-15,-1.09845e-15,0.0946231,-0.0420187,-0.0509621,0.0,0.0,0.0,0.0905173,0.09924447179904927,0.0,0.0,-0.041148150124759586,0.0,-0.04968531322345637
121,292.0,853.971,-5.11855e-07,4.6019e-07,1.38959e-16,-9.93238e-16,2.68287e-15,0.0953102,-0.0423275,-0.0513384,0.0,0.0,0.0,0.0911995,0.10000002221524285,0.0,0.0,-0.04144419786387776,0.0,-0.05004284936544623
