,Time,S11,S22,S33,S12,S13,S23,LE11,LE22,LE33,LE12,LE13,LE23,SDV_EPBAR,E11,E12,E13,E22,E23,E33
0,0.000292,0.0207746,-1.30104e-18,0.0,0.0,0.0,2.64375e-19,1e-07,-3e-08,-3e-08,0.0,0.0,0.0,0.0,1.0000000494336803e-07,0.0,0.0,-2.9999999595631266e-08,0.0,-2.9999999595631266e-08
1,0.000584,0.0415492,2.60209e-18,1.73472e-18,-2.64375e-19,0.0,2.64375e-19,2e-07,-6e-08,-6e-08,0.0,0.0,0.0,0.0,2.0000002010078788e-07,0.0,0.0,-5.999999819206181e-08,0.0,-5.999999819206181e-08
2,0.001022,0.0727111,8.67362e-19,1.73472e-18,3.43687e-26,0.0,1.32187e-19,3.5e-07,-1.05e-07,-1.05e-07,0.0,0.0,0.0,0.0,3.5000006115559756e-07,0.0,0.0,-1.0499999447688424e-07,0.0,-1.0499999447688424e-07
3,0.001679,0.119454,-1.99493e-17,-1.9082e-17,3.43687e-26,0.0,-3.96562e-19,5.75e-07,-1.725e-07,-1.725e-07,0.0,0.0,0.0,0.0,5.750001652593539e-07,0.0,0.0,-1.7249998507384845e-07,0.0,-1.7249998507384845e-07
4,0.0026645,0.189568,1.30104e-17,1.21431e-17,-2.64374e-19,0.0,-1.32187e-19,9.125e-07,-2.7375e-07,-2.7375e-07,0.0,0.0,0.0,0.0,9.125004163390571e-07,0.0,0.0,-2.737499624760886e-07,0.0,-2.737499624760886e-07
5,0.0041428,0.294739,1.64799e-17,1.9082e-17,2.64375e-19,0.0,3.96562e-19,1.41875e-06,-4.25625e-07,-4.25625e-07,0.0,0.0,0.0,0.0,1.4187510064544995e-06,0.0,0.0,-4.256249094281017e-07,0.0,-4.256249094281017e-07
6,0.0063601,0.452496,4.0766e-17,1.9082e-17,-7.93123e-19,0.0,-1.32187e-19,2.17812e-06,-6.53437e-07,-6.53437e-07,0.0,0.0,0.0,0.0,2.178122372020752e-06,0.0,0.0,-6.53436786457462e-07,0.0,-6.53436786457462e-07
7,0.0096862,0.689131,-2.1684e-17,-2.25514e-17,-7.93122e-19,0.0,-1.32187e-19,3.31718e-06,-9.95155e-07,-9.95155e-07,0.0,0.0,0.0,0.0,3.317185501838793e-06,0.0,0.0,-9.951545048014765e-07,0.0,-9.951545048014765e-07
8,0.014675,1.04408,1.51788e-16,1.43982e-16,-7.9312e-19,0.0,-1.32187e-19,5.02577e-06,-1.50773e-06,-1.50773e-06,0.0,0.0,0.0,0.0,5.025782629175524e-06,0.0,0.0,-1.5077288634257613e-06,0.0,-1.5077288634257613e-06
9,0.022159,1.57651,1.65666e-16,1.71738e-16,-7.93117e-19,0.0,-1.32187e-19,7.58864e-06,-2.27659e-06,-2.27659e-06,0.0,0.0,0.0,0.0,7.5886687938009345e-06,0.0,0.0,-2.276587408589492e-06,0.0,-2.276587408589492e-06
10,0.033384,2.37515,2.68882e-17,5.20417e-18,-7.93113e-19,0.0,-1.32187e-19,1.14329e-05,-3.42988e-06,-3.42988e-06,0.0,0.0,0.0,0.0,1.1432965355773206e-05,0.0,0.0,-3.429874117943932e-06,0.0,-3.429874117943932e-06
11,0.050223,3.5731,1.10155e-16,6.07153e-17,-7.93107e-19,0.0,-1.32187e-19,1.71994e-05,-5.15981e-06,-5.15981e-06,0.0,0.0,0.0,0.0,1.7199547910573543e-05,0.0,0.0,-5.159796688247731e-06,0.0,-5.159796688247731e-06
12,0.07548,5.37001,6.09755e-16,6.15827e-16,-7.93099e-19,0.0,-1.32187e-19,2.58489e-05,-7.75468e-06,-7.75468e-06,0.0,0.0,0.0,0.0,2.5849234085661976e-05,0.0,0.0,-7.754649932523172e-06,0.0,-7.754649932523172e-06
13,0.1134,8.06535,-8.89046e-16,-9.38485e-16,-7.93085e-19,0.0,-1.32187e-19,3.88231e-05,-1.16469e-05,-1.16469e-05,0.0,0.0,0.0,0.0,3.882385362641294e-05,0.0,0.0,-1.16468321751384e-05,0.0,-1.16468321751384e-05
14,0.1702,12.1083,-3.77563e-15,-3.60302e-15,-7.93065e-19,0.0,-1.32187e-19,5.82842e-05,-1.74852e-05,-1.74852e-05,0.0,0.0,0.0,0.0,5.828589855694233e-05,0.0,0.0,-1.748504713483534e-05,0.0,-1.748504713483534e-05
15,0.2554,18.1726,-1.73203e-14,-1.73698e-14,-7.93035e-19,0.0,-1.32187e-19,8.7475e-05,-2.62425e-05,-2.62425e-05,0.0,0.0,0.0,0.0,8.747882604942525e-05,0.0,0.0,-2.6242155668598777e-05,0.0,-2.6242155668598777e-05
16,0.3833,27.2686,-9.19273e-14,-9.19768e-14,-7.9299e-19,0.0,-1.32187e-19,0.00013126,-3.93779e-05,-3.93779e-05,0.0,0.0,0.0,0.0,0.0001312686149708142,0.0,0.0,-3.9377124700701316e-05,0.0,-3.9377124700701316e-05
17,0.5751,40.912,-4.52528e-13,-4.52577e-13,-7.92922e-19,0.0,-1.32187e-19,0.000196933,-5.90799e-05,-5.90799e-05,0.0,0.0,0.0,0.0,0.00019695239257622177,0.0,0.0,-5.9078154817093775e-05,0.0,-5.9078154817093775e-05
18,0.8628,61.3754,-2.25908e-12,-2.25913e-12,-7.92821e-19,0.0,-1.32187e-19,0.000295435,-8.86304e-05,-8.86304e-05,0.0,0.0,0.0,0.0,0.00029547864521761724,0.0,0.0,-8.862647244212152e-05,0.0,-8.862647244212152e-05
19,1.294,92.0667,-1.14349e-11,-1.14358e-11,-7.92668e-19,0.0,-1.32187e-19,0.000443169,-0.000132951,-0.000132951,0.0,0.0,0.0,0.0,0.0004432672138892091,0.0,0.0,-0.0001329421624074456,0.0,-0.0001329421624074456
20,1.942,138.095,-5.79026e-11,-5.79053e-11,-7.9244e-19,0.0,-1.32187e-19,0.00066473,-0.000199419,-0.000199419,0.0,0.0,0.0,0.0,0.0006649509819482979,0.0,0.0,-0.00019939911735278315,0.0,-0.00019939911735278315
21,2.913,207.119,-2.92884e-10,-2.92885e-10,-7.92097e-19,0.0,-1.32187e-19,0.00099698,-0.000299094,-0.000299094,0.0,0.0,0.0,0.0,0.0009974771497625046,0.0,0.0,-0.0002990492758485619,0.0,-0.0002990492758485619
22,4.369,310.611,-1.48101e-09,-1.48101e-09,-7.91584e-19,0.0,-1.32187e-19,0.00149515,-0.000448544,-0.000448544,0.0,0.0,0.0,0.0,0.0014962682940309335,0.0,0.0,-0.00044844341917871233,0.0,-0.00044844341917871233
23,6.554,465.753,-7.48297e-09,-7.48296e-09,-7.90814e-19,0.0,-1.32187e-19,0.00224193,-0.00067258,-0.00067258,0.0,0.0,0.0,0.0,0.0022444450041991804,0.0,0.0,-0.0006723538687718467,0.0,-0.0006723538687718467
24,9.474,497.072,-0.166058,0.204903,-2.35321e-15,-3.10646e-35,7.53769e-16,0.0032392,-0.00110128,-0.00118077,0.0,0.0,0.0,0.000846564,0.003244451877416177,0.0,0.0,-0.0011006738137281369,0.0,-0.0011800731653975882
25,12.39,516.301,-0.00142624,0.00216344,6.44562e-16,5.52638e-35,-2.46944e-15,0.00423547,-0.00153514,-0.00170622,0.0,0.0,0.0,0.00175021,0.004244452279975608,0.0,0.0,-0.0015339622753246518,0.0,-0.0017047652341570796
26,15.31,532.69,3.45342e-05,-2.34341e-05,4.66217e-16,1.52172e-15,-1.71344e-15,0.00523074,-0.00197171,-0.00223338,0.0,0.0,0.0,0.0026666,0.0052444442044314865,0.0,0.0,-0.0019697674567582535,0.0,-0.0022308878625295625
27,18.23,546.983,-1.13074e-05,1.36315e-05,1.12447e-15,-4.55432e-16,-4.39407e-16,0.00622503,-0.00240937,-0.00276249,0.0,0.0,0.0,0.00359209,0.006244445766251383,0.0,0.0,-0.0024064697977891347,0.0,-0.0027586778356631925
28,21.15,559.681,-5.17505e-06,6.50373e-06,8.19433e-16,1.21266e-15,-2.58444e-15,0.00721833,-0.00284773,-0.00329298,0.0,0.0,0.0,0.00452427,0.007244444941601369,0.0,0.0,-0.0028436790631606312,0.0,-0.003287564087820938
29,24.07,571.119,-2.19867e-06,2.94893e-06,-1.9301e-16,8.62798e-16,1.99261e-15,0.00821065,-0.00328656,-0.00382443,0.0,0.0,0.0,0.00546153,0.008244449829572176,0.0,0.0,-0.0032811651734420133,0.0,-0.0038171261815350688
30,26.99,581.538,-7.98462e-07,1.24098e-06,1.44839e-15,6.15629e-16,-1.65315e-15,0.00920198,-0.00372569,-0.00435658,0.0,0.0,0.0,0.0064027,0.009244448382409898,0.0,0.0,-0.003718758228228425,0.0,-0.004347103871517044
31,29.91,591.115,-1.45018e-07,4.08217e-07,2.6857e-16,-1.11441e-15,3.63842e-16,0.0101923,-0.00416499,-0.00488919,0.0,0.0,0.0,0.00734695,0.010244418407964417,0.0,0.0,-0.004156328458400527,0.0,-0.004877257365465182
32,32.83,599.983,1.37016e-07,1.43943e-08,-6.02805e-16,7.5606e-16,-2.05358e-15,0.0111817,-0.00460436,-0.00542211,0.0,0.0,0.0,0.00829364,0.011244448869027979,0.0,0.0,-0.004593776184624643,0.0,-0.005407436893285267
33,35.75,608.246,2.29406e-07,-1.51623e-07,1.15819e-15,-1.02024e-15,8.53626e-16,0.0121701,-0.00504373,-0.00595523,0.0,0.0,0.0,0.00924226,0.012244457004898734,0.0,0.0,-0.0050310317516591985,0.0,-0.0059375327656178145
34,38.67,615.986,2.2434e-07,-1.97291e-07,-7.5023e-16,8.29172e-16,6.11906e-16,0.0131575,-0.00548304,-0.00648843,0.0,0.0,0.0,0.0101924,0.013244440792496093,0.0,0.0,-0.00546803557199782,0.0,-0.006467425591165754
35,41.59,623.269,1.73798e-07,-1.822e-07,1.05451e-15,-9.73041e-16,-5.78685e-15,0.0141439,-0.00592224,-0.00702165,0.0,0.0,0.0,0.0111438,0.014244398206812336,0.0,0.0,-0.005904738103878704,0.0,-0.0069970558132295135
36,44.51,630.149,9.74171e-08,-1.3241e-07,7.86954e-16,-7.10294e-16,-2.68241e-16,0.0151294,-0.00636129,-0.00755482,0.0,0.0,0.0,0.0120962,0.015244428745356142,0.0,0.0,-0.006341099829296759,0.0,-0.007526354077465269
37,47.43,636.671,1.19352e-08,-6.70613e-08,2.21065e-15,1.06277e-15,-9.76012e-16,0.0161139,-0.00680016,-0.00808789,0.0,0.0,0.0,0.0130493,0.016244429054838472,0.0,0.0,-0.006777091232043397,0.0,-0.008055271016495946
38,50.35,642.874,-7.51393e-08,4.39614e-09,-1.59479e-15,2.36371e-15,-7.06695e-16,0.0170975,-0.00723884,-0.00862081,0.0,0.0,0.0,0.0140029,0.017244498828943522,0.0,0.0,-0.0072127027036558156,0.0,-0.008583757368484823
39,53.27,648.788,-1.59665e-07,7.65791e-08,4.27951e-16,-1.44698e-15,-2.87206e-15,0.01808,-0.00767728,-0.00915354,0.0,0.0,0.0,0.014957,0.01824443268611331,0.0,0.0,-0.007647884958657092,0.0,-0.009111773885814634
40,56.19,654.442,-2.39545e-07,1.46548e-07,3.20836e-16,-1.06635e-15,-2.0901e-15,0.0190616,-0.00811548,-0.00968605,0.0,0.0,0.0,0.0159114,0.019244432140675505,0.0,0.0,-0.008082638394033781,0.0,-0.009639291308485731
41,59.11,659.858,-3.13841e-07,2.12779e-07,1.05858e-15,-7.8751e-16,-1.52422e-15,0.0200423,-0.00855342,-0.0102183,0.0,0.0,0.0,0.016866,0.02024449545617002,0.0,0.0,-0.008516943576628244,0.0,-0.010166270540897915
42,62.03,665.057,-3.82272e-07,2.74571e-07,-2.0745e-17,1.01749e-15,-1.90544e-15,0.0210219,-0.00899108,-0.0107503,0.0,0.0,0.0,0.0178206,0.02124441664535559,0.0,0.0,-0.008950781107510686,0.0,-0.010692722036455882
43,64.95,670.057,-4.44918e-07,3.317e-07,2.44547e-15,7.51983e-16,-2.18799e-15,0.0220006,-0.00942845,-0.011282,0.0,0.0,0.0,0.0187753,0.022244397816892914,0.0,0.0,-0.00938414152804612,0.0,-0.011218596899927658
44,67.87,674.873,-5.02054e-07,3.84213e-07,1.85451e-15,5.56167e-16,-1.60484e-15,0.0229784,-0.00986553,-0.0118135,0.0,0.0,0.0,0.0197299,0.02324443722866909,0.0,0.0,-0.009817025298156423,0.0,-0.011743994578873762
45,70.79,679.52,-5.54048e-07,4.32307e-07,-2.40669e-16,4.1145e-16,-1.17905e-15,0.0239552,-0.0103023,-0.0123446,0.0,0.0,0.0,0.0206843,0.024244430712260456,0.0,0.0,-0.010249413082136782,0.0,-0.012268717990716826
46,73.71,684.009,-6.01304e-07,4.76253e-07,6.38132e-16,3.04285e-16,-2.46298e-15,0.0249311,-0.0107388,-0.0128753,0.0,0.0,0.0,0.0216385,0.02524447874626201,0.0,0.0,-0.010681344937340964,0.0,-0.012792767913132885
47,76.63,688.352,-6.44227e-07,5.16356e-07,4.8313e-16,2.24776e-16,5.80774e-16,0.025906,-0.0111749,-0.0134057,0.0,0.0,0.0,0.0225925,0.026244476958517948,0.0,0.0,-0.011112692740589347,0.0,-0.01331624379095675
48,79.55,692.558,-6.83211e-07,5.52925e-07,-4.62655e-16,1.65677e-16,-3.70135e-16,0.0268799,-0.0116107,-0.0139358,0.0,0.0,0.0,0.0235462,0.02724442329946286,0.0,0.0,-0.011543555937183037,0.0,-0.013839146242583422
49,82.47,696.637,-7.1862e-07,5.86264e-07,-3.58217e-16,1.21668e-16,-1.87623e-15,0.0278529,-0.0120462,-0.0144655,0.0,0.0,0.0,0.0244996,0.028244418542125116,0.0,0.0,-0.01197393499672983,0.0,-0.014361377321706614
50,85.39,700.596,-7.50793e-07,6.16657e-07,-2.78536e-16,1.71119e-15,2.62438e-15,0.028825,-0.0124813,-0.0149948,0.0,0.0,0.0,0.0254526,0.02924446093324229,0.0,0.0,-0.01240373162857522,0.0,-0.014882937801532714
51,88.31,704.442,-7.80038e-07,6.4437e-07,2.27644e-15,-3.43966e-16,-6.09191e-15,0.0297961,-0.0129161,-0.0155237,0.0,0.0,0.0,0.0264052,0.030244445693269784,0.0,0.0,-0.012833045146540822,0.0,-0.015403828454053747
52,91.23,708.183,-8.06633e-07,6.69647e-07,8.0523e-17,1.36582e-15,-2.11418e-15,0.0307663,-0.0133505,-0.0160522,0.0,0.0,0.0,0.0273574,0.03124447388971663,0.0,0.0,-0.013261777344353742,0.0,-0.015924050050050154
53,94.15,711.824,-8.30829e-07,6.9271e-07,5.73848e-17,-6.05145e-16,-1.57361e-15,0.0317355,-0.0137846,-0.0165804,0.0,0.0,0.0,0.0283091,0.032244440539372476,0.0,0.0,-0.013690027448398423,0.0,-0.016443701714727643
54,97.07,715.37,-8.52853e-07,7.13761e-07,8.74192e-16,1.17252e-15,-3.64929e-16,0.0327038,-0.0142183,-0.0171081,0.0,0.0,0.0,0.0292603,0.03324444690609507,0.0,0.0,-0.014117697336575308,0.0,-0.01696258745328938
55,99.99,718.828,-8.72906e-07,7.32982e-07,6.69661e-16,-7.5278e-16,-4.31487e-15,0.0336712,-0.0146517,-0.0176354,0.0,0.0,0.0,0.030211,0.03424449122747819,0.0,0.0,-0.014544886148047387,0.0,-0.01748080644048211
56,102.9,722.201,-8.91171e-07,7.50538e-07,5.12226e-16,-5.71859e-16,1.31273e-17,0.0346376,-0.0150847,-0.0181623,0.0,0.0,0.0,0.0311612,0.03524446821485494,0.0,0.0,-0.014971495844680605,0.0,-0.017998359442256584
57,105.8,725.494,-9.0781e-07,7.66577e-07,3.90883e-16,2.84005e-15,-1.61132e-15,0.0356031,-0.0155174,-0.0186888,0.0,0.0,0.0,0.0321109,0.03624447942664566,0.0,0.0,-0.015397625478633659,0.0,-0.01851524722336151
58,108.8,728.71,-9.22969e-07,7.81232e-07,2.97237e-16,-1.13339e-15,-2.01854e-15,0.0365676,-0.0159496,-0.0192149,0.0,0.0,0.0,0.0330599,0.037244419370573656,0.0,0.0,-0.015823078677842495,0.0,-0.01903147054734533
59,111.7,731.854,-9.3678e-07,7.94624e-07,1.06432e-15,-8.62889e-16,-3.13971e-15,0.0375313,-0.0163816,-0.0197406,0.0,0.0,0.0,0.0340084,0.038244493625901876,0.0,0.0,-0.016248151285559786,0.0,-0.01954703017655668
60,114.6,734.928,-9.4936e-07,8.06862e-07,8.20063e-16,-6.58294e-16,-7.30906e-16,0.038494,-0.0168131,-0.0202658,0.0,0.0,0.0,0.0349563,0.03924449287232035,0.0,0.0,-0.01667254863796641,0.0,-0.02006182887833552
61,117.5,737.936,-9.60816e-07,8.18044e-07,6.30916e-16,-5.03357e-16,-5.49193e-16,0.0394557,-0.0172443,-0.0207906,0.0,0.0,0.0,0.0359036,0.04024441503662213,0.0,0.0,-0.017096468031404077,0.0,-0.020575965509288086
62,120.4,740.881,-9.71242e-07,8.28257e-07,4.84276e-16,-2.03322e-15,-4.12939e-16,0.0404166,-0.0176751,-0.021315,0.0,0.0,0.0,0.0368503,0.041244466292708726,0.0,0.0,-0.017519811678207264,0.0,-0.0210894408279797
63,123.4,743.766,-9.80725e-07,8.37583e-07,1.21341e-15,-1.55051e-15,2.95591e-15,0.0413765,-0.0181056,-0.0218389,0.0,0.0,0.0,0.0377963,0.042244436714925504,0.0,0.0,-0.01794267837069352,0.0,-0.02160215775200436
64,126.3,746.593,-9.89343e-07,8.46092e-07,-7.4897e-16,-1.18365e-15,5.97149e-16,0.0423355,-0.0185356,-0.0223624,0.0,0.0,0.0,0.0387417,0.043244428549180425,0.0,0.0,-0.01836487224080663,0.0,-0.022114214979747637
65,129.2,749.365,-9.97165e-07,8.53851e-07,1.09835e-15,-9.0453e-16,-6.9139e-15,0.0432936,-0.0189653,-0.0228854,0.0,0.0,0.0,0.0396865,0.044244440015168696,0.0,0.0,-0.018786590242603207,0.0,-0.022625515528565177
66,132.1,752.083,-1.00426e-06,8.60919e-07,1.69585e-15,9.62343e-16,-2.77228e-15,0.0442508,-0.0193946,-0.0234081,0.0,0.0,0.0,0.0406306,0.04524446933082715,0.0,0.0,-0.019207734754274397,0.0,-0.02313625567803168
67,135.0,754.751,-1.01067e-06,8.67349e-07,-3.74747e-16,-1.74945e-15,-4.58439e-16,0.045207,-0.0198236,-0.0239302,0.0,0.0,0.0,0.041574,0.046244410087888266,0.0,0.0,-0.01962840439597502,0.0,-0.02364614312124258
68,138.0,757.369,-1.01647e-06,8.73192e-07,1.39335e-15,1.14664e-15,-1.9887e-15,0.0461624,-0.0202521,-0.024452,0.0,0.0,0.0,0.0425167,0.04724446964966855,0.0,0.0,-0.020048403633428413,0.0,-0.024155471668387718
69,140.9,759.94,-1.02169e-06,8.78492e-07,-6.12537e-16,-7.81882e-16,1.34975e-16,0.0471168,-0.0206803,-0.0249733,0.0,0.0,0.0,0.0434588,0.048244436879960606,0.0,0.0,-0.020467929080184466,0.0,-0.024664046849368848
70,143.8,762.466,-1.02638e-06,8.83288e-07,3.60813e-16,1.06028e-15,-1.54155e-15,0.0480703,-0.0211082,-0.0254941,0.0,0.0,0.0,0.0444001,0.04924441461414841,0.0,0.0,-0.02088698119073784,0.0,-0.025171869565256078
71,146.7,764.948,-1.03058e-06,8.87619e-07,1.1243e-15,1.64365e-15,1.29836e-15,0.0490229,-0.0215356,-0.0260145,0.0,0.0,0.0,0.0453408,0.05024440106143513,0.0,0.0,-0.021305364680056504,0.0,-0.025679038147623512
72,149.6,767.388,-1.03433e-06,8.91519e-07,1.72413e-15,4.28977e-16,-3.95647e-15,0.0499747,-0.0219626,-0.0265345,0.0,0.0,0.0,0.0462808,0.05124449955373711,0.0,0.0,-0.02172317807982893,0.0,-0.026185553342422563
73,152.6,769.787,-1.03765e-06,8.95019e-07,4.95015e-16,3.27874e-16,-5.39052e-16,0.0509255,-0.0223893,-0.027054,0.0,0.0,0.0,0.04722,0.052244498147909324,0.0,0.0,-0.022140519753563903,0.0,-0.026691318563570432
74,155.5,772.147,-1.04058e-06,8.98146e-07,3.80303e-16,1.0836e-15,4.14876e-16,0.0518753,-0.0228156,-0.027573,0.0,0.0,0.0,0.0481586,0.05324439474797682,0.0,0.0,-0.022557292408589724,0.0,-0.027196334706210856
75,158.4,774.469,-1.04315e-06,9.00927e-07,1.14222e-15,8.32185e-16,-2.98872e-15,0.0528243,-0.0232415,-0.0280916,0.0,0.0,0.0,0.0490964,0.05424439810513504,0.0,0.0,-0.022973496620774636,0.0,-0.02770069989383528
76,161.3,776.754,-1.04538e-06,9.03387e-07,8.90057e-16,-1.95994e-16,-2.2826e-15,0.0537724,-0.0236671,-0.0286098,0.0,0.0,0.0,0.0500335,0.05524440119553553,0.0,0.0,-0.023389230626141067,0.0,-0.02820441486732861
77,164.2,779.004,-1.0473e-06,9.05548e-07,-1.61533e-16,-1.82486e-15,-8.89373e-17,0.0547196,-0.0240923,-0.0291275,0.0,0.0,0.0,0.0509699,0.05624440221806659,0.0,0.0,-0.023804397254598708,0.0,-0.028707383237155715
78,167.2,781.219,-1.04892e-06,9.07429e-07,7.17025e-16,-5.75011e-16,-6.70523e-17,0.0556659,-0.024517,-0.0296447,0.0,0.0,0.0,0.0519055,0.057244399369914545,0.0,0.0,-0.024218899501302293,0.0,-0.0292096058925716
79,170.1,783.402,-1.05027e-06,9.09049e-07,2.26532e-15,3.90606e-16,-4.19659e-15,0.0566114,-0.0249415,-0.0301615,0.0,0.0,0.0,0.0528404,0.05824449667101317,0.0,0.0,-0.0246330306729039,0.0,-0.029711180750139676
80,173.0,785.551,-1.05136e-06,9.10426e-07,9.23431e-16,-1.37495e-15,-3.21596e-15,0.0575559,-0.0253655,-0.0306779,0.0,0.0,0.0,0.0537746,0.05924448076626909,0.0,0.0,-0.025046498606502543,0.0,-0.030212108545711547
81,175.9,787.67,-1.05222e-06,9.11576e-07,7.19125e-16,6.10554e-16,2.51669e-15,0.0584995,-0.0257891,-0.0311938,0.0,0.0,0.0,0.054708,0.06024445557223701,0.0,0.0,-0.02545940145069603,0.0,-0.03071229308521717
82,178.8,789.759,-1.05285e-06,9.12513e-07,1.41432e-15,-3.67636e-16,2.69081e-16,0.0594422,-0.0262124,-0.0317092,0.0,0.0,0.0,0.0556407,0.06124441927934421,0.0,0.0,-0.025871837187879665,0.0,-0.03121173525205878
83,181.8,791.818,-1.05328e-06,9.13252e-07,1.10807e-15,-2.8664e-16,-3.95294e-15,0.0603841,-0.0266353,-0.0322242,0.0,0.0,0.0,0.0565726,0.062244476300782114,0.0,0.0,-0.026283708891522872,0.0,-0.03171053275702207
84,184.7,793.848,-1.05351e-06,9.13804e-07,8.26707e-18,-2.23925e-16,-2.20724e-15,0.061325,-0.0270578,-0.0327387,0.0,0.0,0.0,0.0575038,0.06324441247473667,0.0,0.0,-0.026695017129532594,0.0,-0.032208589551821265
85,187.6,795.851,-1.05355e-06,9.14182e-07,1.71141e-15,-1.75329e-16,8.00901e-16,0.0622651,-0.0274799,-0.0332528,0.0,0.0,0.0,0.0584342,0.06424443853550321,0.0,0.0,-0.02710576246889984,0.0,-0.03270600324478745
86,190.5,797.826,-1.05343e-06,9.14397e-07,1.34517e-15,-9.78987e-16,-1.05089e-15,0.0632043,-0.0279017,-0.0337664,0.0,0.0,0.0,0.0593639,0.06524444644238003,0.0,0.0,-0.027516042724101686,0.0,-0.033202677884555554
87,193.4,799.776,-1.05315e-06,9.14459e-07,1.9558e-16,7.96703e-17,2.52811e-15,0.0641426,-0.0283231,-0.0342796,0.0,0.0,0.0,0.0602928,0.06624443437745042,0.0,0.0,-0.027925761129966475,0.0,-0.033698710977286606
88,196.4,801.7,-1.05272e-06,9.14377e-07,-7.17333e-16,6.08552e-17,1.1145e-15,0.06508,-0.0287441,-0.0347923,0.0,0.0,0.0,0.061221,0.06724440052114344,0.0,0.0,-0.02833491825091361,0.0,-0.03419400666826866
89,199.3,803.599,-1.05214e-06,9.14159e-07,2.7803e-16,4.62281e-17,3.36614e-15,0.0660166,-0.0291647,-0.0353046,0.0,0.0,0.0,0.0621484,0.06824444987667944,0.0,0.0,-0.028743514650450885,0.0,-0.034688662361778144
90,202.2,805.475,-1.05144e-06,9.13816e-07,2.08533e-16,3.4848e-17,-7.46225e-16,0.0669523,-0.0295849,-0.0358164,0.0,0.0,0.0,0.0630751,0.0692444739967506,0.0,0.0,-0.029151550891176714,0.0,-0.03518258229948801
91,205.1,807.326,-1.05061e-06,9.13352e-07,-7.08364e-16,2.59872e-17,-1.41434e-15,0.0678871,-0.0300048,-0.0363278,0.0,0.0,0.0,0.0640009,0.07024447105684795,0.0,0.0,-0.02955912457887322,0.0,-0.0356758637840735
92,208.0,809.155,-1.04966e-06,9.12777e-07,1.14795e-15,-1.67068e-15,2.25436e-15,0.068821,-0.0304243,-0.0368387,0.0,0.0,0.0,0.0649261,0.07124443923082846,0.0,0.0,-0.0299661391488375,0.0,-0.03616841115332725
93,211.0,810.961,-1.04861e-06,9.12097e-07,3.90672e-17,3.85864e-16,-1.60859e-15,0.0697541,-0.0308434,-0.0373492,0.0,0.0,0.0,0.0658504,0.07224448391536265,0.0,0.0,-0.03037259516111368,0.0,-0.03666032160860666
94,213.9,812.746,-1.04745e-06,9.11318e-07,1.83417e-17,-5.45333e-16,-4.08733e-16,0.0706863,-0.0312622,-0.0378592,0.0,0.0,0.0,0.066774,0.07324449625660368,0.0,0.0,-0.03077859009698647,0.0,-0.03715149958355635
95,216.8,814.51,-1.0462e-06,9.10445e-07,-2.33206e-14,-4.26937e-16,1.2393e-14,0.0716176,-0.0316805,-0.0383688,0.0,0.0,0.0,0.0676969,0.07424447442352577,0.0,0.0,-0.03118393062986602,0.0,-0.037642042178499535
96,219.7,816.253,-1.04485e-06,9.09485e-07,3.94796e-16,5.12641e-16,-2.98795e-15,0.072548,-0.0320985,-0.0388779,0.0,0.0,0.0,0.0686189,0.07524441658348935,0.0,0.0,-0.031588811120945026,0.0,-0.03813185392266771
97,222.6,817.975,-1.04342e-06,9.08442e-07,-5.56098e-16,-1.29465e-15,-1.48044e-15,0.0734776,-0.0325161,-0.0393865,0.0,0.0,0.0,0.0695402,0.07624442852668256,0.0,0.0,-0.03199313520467639,0.0,-0.03862093567772962
98,225.6,819.678,-1.04191e-06,9.07322e-07,1.27985e-15,-1.66112e-16,-1.99261e-15,0.0744063,-0.0329334,-0.0398947,0.0,0.0,0.0,0.0704608,0.07724440099279839,0.0,0.0,-0.03239700019706393,0.0,-0.03910938439288725
99,228.5,821.362,-1.04032e-06,9.06128e-07,1.01653e-15,-9.79084e-16,-1.55046e-15,0.0753342,-0.0333502,-0.0404025,0.0,0.0,0.0,0.0713805,0.07824443996881003,0.0,0.0,-0.03280021309197734,0.0,-0.039597200780429276
100,231.4,823.027,-1.03866e-06,9.04865e-07,-6.01424e-17,8.1516e-17,-2.04968e-15,0.0762612,-0.0337667,-0.0409098,0.0,0.0,0.0,0.0722995,0.07924443599120679,0.0,0.0,-0.03320296792370869,0.0,-0.04008428955995835
101,234.3,824.673,-1.03694e-06,9.03537e-07,8.11614e-16,-7.85689e-16,-2.43912e-15,0.0771874,-0.0341828,-0.0414167,0.0,0.0,0.0,0.0732177,0.08024449524377042,0.0,0.0,-0.03360516848512585,0.0,-0.04057074753039147
102,237.2,826.302,-1.03515e-06,9.02147e-07,6.42756e-16,-6.16577e-16,1.47079e-15,0.0781126,-0.0345986,-0.0419231,0.0,0.0,0.0,0.0741352,0.08124439993535426,0.0,0.0,-0.03400691192781968,0.0,-0.04105647950612579
103,240.2,827.913,-1.0333e-06,9.007e-07,-3.60154e-16,3.66876e-16,2.83105e-15,0.0790371,-0.0350139,-0.042429,0.0,0.0,0.0,0.0750519,0.0822444725954512,0.0,0.0,-0.03440800556443768,0.0,-0.04154148634032062
104,243.1,829.507,-1.03139e-06,8.99198e-07,-2.96139e-16,2.88821e-16,-2.01549e-15,0.0799607,-0.0354289,-0.0429346,0.0,0.0,0.0,0.0759678,0.08324449532975087,0.0,0.0,-0.03480864310408882,0.0,-0.04202596047944418
105,246.0,831.084,-1.02944e-06,8.97645e-07,1.49257e-15,-1.47603e-15,9.59963e-16,0.0808834,-0.0358436,-0.0434396,0.0,0.0,0.0,0.0768829,0.08424446629124893,0.0,0.0,-0.035208824976347364,0.0,-0.04250961523629715
106,248.9,832.645,-1.02743e-06,8.96044e-07,2.05951e-15,-1.16091e-15,-9.77506e-17,0.0818053,-0.0362578,-0.0439442,0.0,0.0,0.0,0.0777973,0.0852444921558182,0.0,0.0,-0.03560835873188917,0.0,-0.042992643006293574
107,251.8,834.19,-1.02538e-06,8.94396e-07,1.64572e-15,-9.13065e-16,-3.46059e-15,0.0827263,-0.0366717,-0.0444484,0.0,0.0,0.0,0.0787108,0.08624446274886743,0.0,0.0,-0.03600743783709193,0.0,-0.04347504449205564
108,254.8,835.719,-1.02328e-06,8.92706e-07,4.43554e-16,1.35208e-16,-1.67501e-16,0.0836465,-0.0370852,-0.0449521,0.0,0.0,0.0,0.0796237,0.08724448494313486,0.0,0.0,-0.03640596636009574,0.0,-0.043956724790777724
109,257.7,837.232,-1.02114e-06,8.90976e-07,2.08888e-15,-7.45747e-16,-1.82604e-15,0.0845658,-0.0374984,-0.0454554,0.0,0.0,0.0,0.0805357,0.08824444836090461,0.0,0.0,-0.036804041166876966,0.0,-0.04443778030341594
110,260.6,838.731,-1.01897e-06,8.89207e-07,-9.4221e-16,-5.86658e-16,4.49922e-15,0.0854843,-0.0379111,-0.0459582,0.0,0.0,0.0,0.081447,0.08924446007179787,0.0,0.0,-0.03720147012398112,0.0,-0.04491811622091024
111,263.5,840.214,-1.01675e-06,8.87402e-07,1.0407e-16,-4.61243e-16,1.29419e-16,0.0864019,-0.0383235,-0.0464606,0.0,0.0,0.0,0.0823575,0.09024440949499302,0.0,0.0,-0.03759844637557275,0.0,-0.04539782884541943
112,266.4,841.684,-1.0145e-06,8.85563e-07,-7.97262e-16,-3.62318e-16,-7.53224e-15,0.0873187,-0.0387356,-0.0469626,0.0,0.0,0.0,0.0832672,0.09124440389700861,0.0,0.0,-0.03799497034644539,0.0,-0.04587691887368095
113,269.4,843.139,-1.01222e-06,8.83692e-07,2.2111e-16,5.71336e-16,8.8346e-16,0.0882347,-0.0391473,-0.0474641,0.0,0.0,0.0,0.0841762,0.09224444171837654,0.0,0.0,-0.03839094629991069,0.0,-0.04635529163686947
114,272.3,844.58,-1.00991e-06,8.81791e-07,1.69169e-16,4.53508e-16,4.08599e-15,0.0891498,-0.0395585,-0.0479651,0.0,0.0,0.0,0.0850844,0.09324441207364731,0.0,0.0,-0.03878627865688933,0.0,-0.0468329479728562
115,275.2,846.007,-1.00757e-06,8.79862e-07,1.0005e-15,3.60419e-16,2.35325e-15,0.0900641,-0.0399695,-0.0484657,0.0,0.0,0.0,0.0859918,0.09424442252472098,0.0,0.0,-0.039181256322891045,0.0,-0.047309983987024684
116,278.1,847.422,-1.00521e-06,8.77906e-07,7.97798e-16,-5.70105e-16,-7.04591e-16,0.0909776,-0.04038,-0.0489659,0.0,0.0,0.0,0.0868984,0.0952444715075269,0.0,0.0,-0.039575591474342975,0.0,-0.04778640037136328
117,281.0,848.823,-1.00282e-06,8.75926e-07,-2.39663e-16,4.07784e-16,2.846e-15,0.0918902,-0.0407902,-0.0494656,0.0,0.0,0.0,0.0878043,0.09624444783201991,0.0,0.0,-0.03996947677532203,0.0,-0.04826210264298647
118,284.0,850.211,-1.0004e-06,8.73921e-07,-2.03046e-16,3.24705e-16,4.78617e-15,0.092802,-0.0412001,-0.0499649,0.0,0.0,0.0,0.0887094,0.09724445935552417,0.0,0.0,-0.0403629126466013,0.0,-0.04873718676051708
119,286.9,851.586,-9.97966e-07,8.71895e-07,-1.7351e-16,2.5893e-16,2.05794e-15,0.0937129,-0.0416096,-0.0504637,0.0,0.0,0.0,0.0896138,0.09824439468495627,0.0,0.0,-0.04075580358396269,0.0,-0.049211558333655425
120,289.8,852.949,-9.95509e-07,8.69847e-07,1.60086e-15,-6.51875e-16,-1.7902e-15,0.0946231,-0.0420187,-0.0509621,0.0,0.0,0.0,0.0905173,0.09924447179904927,0.0,0.0,-0.041148150124759586,0.0,-0.04968531322345637
121,292.0,853.971,-5.10575e-07,4.58987e-07,1.35023e-15,1.26629e-15,-5.8887e-16,0.0953102,-0.0423275,-0.0513384,0.0,0.0,0.0,0.0911995,0.10000002221524285,0.0,0.0,-0.04144419786387776,0.0,-0.05004284936544623
