,Time,S11,S22,S33,S12,S13,S23,LE11,LE22,LE33,LE12,LE13,LE23,SDV_EPBAR,E11,E12,E13,E22,E23,E33
0,0.000309,0.0019383,0.000139163,-7.79048e-12,0.000519365,9.3624e-20,3.36396e-20,9.1292e-09,-2.12864e-09,-3.00057e-09,6.49972e-09,9.45271e-25,4.67314e-25,0.0,9.129200062574228e-09,6.499720095476391e-09,0.0,-2.128640042009522e-09,0.0,-3.0005700146773506e-09
1,0.000618,0.00387659,0.000278327,3.25261e-19,0.00103873,3.61973e-20,-7.40724e-21,1.82584e-08,-4.2578e-09,-6.00057e-09,1.29997e-08,9.27189e-26,4.52981e-25,0.0,1.8258400125148455e-08,1.2999699983140545e-08,0.0,-4.257800001461476e-09,0.0,-6.000569929831556e-09
2,0.0010815,0.00678404,0.000487072,3.25261e-19,0.00181778,-8.55315e-21,3.19208e-20,3.19522e-08,-7.45077e-09,-1.05014e-08,2.27493e-08,2.14063e-25,-7.98907e-25,0.0,3.19522004410544e-08,2.2749300221391877e-08,0.0,-7.45077000097183e-09,0.0,-1.0501399971829528e-08
3,0.0017767,0.0111452,0.00080019,7.58942e-19,0.00298635,8.55315e-21,-3.19208e-20,5.24927e-08,-1.22421e-08,-1.72507e-08,3.73747e-08,4.28159e-25,-1.59792e-24,0.0,5.249270129681349e-08,3.737470066766946e-08,0.0,-1.2242099889370195e-08,0.0,-1.725069986857619e-08
4,0.0028196,0.017687,0.00126987,-2.27682e-18,0.00473921,-1.65988e-27,-4.44764e-28,8.33037e-08,-1.94275e-08,-2.73762e-08,5.93119e-08,1.2845e-24,-4.79383e-24,0.0,8.33037034908557e-08,5.931190183439128e-08,0.0,-1.9427499831081718e-08,0.0,-2.7376199640549714e-08
5,0.0043839,0.0274996,0.00197438,-4.01155e-18,0.00736849,1.71063e-20,-6.38416e-20,1.2952e-07,-3.02058e-08,-4.25643e-08,9.22178e-08,-1.48338e-24,-7.24799e-24,0.0,1.295200084960868e-07,9.221780428170234e-08,0.0,-3.0205799528282284e-08,0.0,-4.256429908533477e-08
6,0.0067304,0.0422185,0.00303115,-4.01155e-18,0.0113124,1.74418e-19,1.1516e-19,1.98845e-07,-4.63759e-08,-6.53437e-08,1.41578e-07,3.19598e-24,8.5636e-25,0.0,1.9884501978317815e-07,1.4157800998226833e-07,0.0,-4.637589889888716e-08,0.0,-6.534369789701344e-08
7,0.01025,0.0642969,0.00461631,8.13152e-18,0.0172283,2.08631e-19,-1.25227e-20,3.02832e-07,-7.06269e-08,-9.95172e-08,2.15616e-07,2.29126e-25,-1.36391e-23,0.0,3.0283204588421597e-07,2.156160232580362e-07,0.0,-7.062689755255036e-08,0.0,-9.951719504019962e-08
8,0.01553,0.0974145,0.00699405,2.92735e-18,0.0261021,-1.49373e-19,3.02101e-19,4.58812e-07,-1.07003e-07,-1.50778e-07,3.26673e-07,-3.42531e-24,1.27835e-23,0.0,4.5881210519738147e-07,3.266730532747175e-07,0.0,-1.0700299424293291e-07,0.0,-1.5077798865004155e-07
9,0.023449,0.147091,0.0105607,6.39679e-18,0.0394129,6.16725e-19,5.07377e-19,6.92782e-07,-1.61575e-07,-2.2766e-07,4.93263e-07,1.27839e-23,3.42544e-24,0.0,6.927822400193406e-07,4.932631216814087e-07,0.0,-1.6157498694546746e-07,0.0,-2.2765997409468497e-07
10,0.035328,0.221605,0.0159106,-7.48099e-18,0.059379,8.22001e-19,-2.58722e-19,1.04374e-06,-2.43427e-07,-3.4299e-07,7.43145e-07,1.27839e-23,3.42544e-24,0.0,1.0437405446594994e-06,7.43145276205226e-07,0.0,-2.4342697035883987e-07,0.0,-3.429899412266124e-07
11,0.053146,0.333377,0.0239354,-3.52366e-17,0.0893282,1.43291e-18,1.54718e-18,1.57017e-06,-3.66206e-07,-5.15985e-07,1.11797e-06,-4.82329e-29,-1.2924e-29,0.0,1.570171232812001e-06,1.1179706249642152e-06,0.0,-3.662059329112566e-07,0.0,-5.159848668334632e-07
12,0.079874,0.501035,0.0359727,-2.13588e-17,0.134252,1.15921e-18,2.56864e-18,2.35982e-06,-5.50367e-07,-7.75483e-07,1.6802e-06,-4.1105e-23,1.53406e-22,0.0,2.3598227842924757e-06,1.6802014115580022e-06,0.0,-5.503668485395963e-07,0.0,-7.754826992778519e-07
13,0.12,0.752521,0.0540286,-7.48099e-18,0.201637,2.25401e-18,-1.51722e-18,3.54429e-06,-8.26616e-07,-1.16472e-06,2.52354e-06,-1.0888e-28,-2.91744e-29,0.0,3.544296280910686e-06,2.523543184196342e-06,0.0,-8.266156583669471e-07,0.0,-1.1647193217667606e-06
14,0.1801,1.12975,0.0811124,2.02746e-17,0.302715,9.8783e-18,2.71531e-18,5.321e-06,-1.241e-06,-1.74857e-06,3.78857e-06,1.53406e-22,4.11051e-23,0.0,5.321014156622894e-06,3.788577176644381e-06,0.0,-1.2409992299344808e-06,0.0,-1.7485684712381655e-06
15,0.2703,1.69559,0.121738,-7.48099e-18,0.454332,-5.51699e-18,2.96936e-18,7.98605e-06,-1.86256e-06,-2.62435e-06,5.6861e-06,6.26956e-28,1.67992e-28,0.0,7.986081888677887e-06,5.686116165914967e-06,0.0,-1.862558265397496e-06,0.0,-2.6243465564013135e-06
16,0.4056,2.54435,0.182676,4.92119e-16,0.681756,-3.36327e-19,-2.16935e-20,1.19836e-05,-2.79488e-06,-3.93804e-06,8.53236e-06,2.19228e-22,-8.18169e-22,0.0,1.1983671803550422e-05,8.532396400751097e-06,0.0,-2.7948760943363737e-06,0.0,-3.938032245964784e-06
17,0.6086,3.81748,0.274083,3.81097e-16,1.02289,-3.36325e-19,-2.16927e-20,1.79799e-05,-4.19337e-06,-5.90853e-06,1.28018e-05,9.49301e-23,4.63893e-22,0.0,1.79800616393333e-05,1.2801881943413917e-05,0.0,-4.1933612078270954e-06,0.0,-5.908512544672284e-06
18,0.913,5.72716,0.411192,4.92119e-16,1.53459,3.23501e-17,8.73662e-18,2.69743e-05,-6.2911e-06,-8.86425e-06,1.92058e-05,4.09074e-22,1.09611e-22,0.0,2.697466380974234e-05,1.920598443261312e-05,0.0,-6.291080211107136e-06,0.0,-8.864210712666853e-06
19,1.37,8.59165,0.616853,-1.28424e-15,2.30213,-3.36733e-19,-2.18022e-20,4.04657e-05,-9.43765e-06,-1.32978e-05,2.88117e-05,4.38461e-22,-1.63636e-21,0.0,4.0466518747450664e-05,2.8812115061116472e-05,0.0,-9.4376054655676e-06,0.0,-1.3297711584647764e-05
20,2.055,12.8883,0.925338,-5.059e-15,3.45341,6.94144e-17,1.1511e-18,6.07025e-05,-1.41574e-05,-1.99479e-05,4.32204e-05,-7.0378e-26,-1.88577e-26,0.0,6.070434243410361e-05,4.322133401490902e-05,0.0,-1.4157299784489652e-05,0.0,-1.994770104196686e-05
21,3.082,19.3331,1.38805,-2.81516e-14,5.18029,7.817e-17,-3.15365e-17,9.10568e-05,-2.12368e-05,-2.99229e-05,6.48327e-05,8.76832e-22,-3.2728e-21,0.0,9.106094579625079e-05,6.483480168495426e-05,0.0,-2.123657450070482e-05,0.0,-2.992245231447921e-05
22,4.623,116.413,8.35811,-1.03265e-09,31.1929,9.83292e-16,7.71529e-16,0.000548295,-0.000127877,-0.000180179,0.000390388,3.49743e-21,-1.3096e-20,0.0,0.0005484453411794821,0.0003904642113123913,0.0,-0.00012786882408488687,0.0,-0.00018016276873877857
23,6.935,262.609,18.8545,-9.04826e-07,70.3658,1.26247e-15,-2.74743e-16,0.00123686,-0.000288468,-0.000406453,0.000880648,1.40118e-20,-5.23908e-20,0.0,0.0012376252267900512,0.0008810358843047705,0.0,-0.0002884263971069112,0.0,-0.00040637040916957634
24,10.03,446.418,32.0904,0.00262495,119.694,-0.0115892,-0.00310359,0.00215605,-0.000511167,-0.000723545,0.00153872,-1.49536e-07,-4.01011e-08,5.89702e-05,0.0021583759471202058,0.0015399044370472126,-1.4953598881373154e-07,-0.0005110363764068149,-4.0101099219036485e-08,-0.000723283304436495
25,13.12,467.995,33.7884,9.6906e-05,125.749,-0.118892,-0.0318139,0.00307233,-0.000853196,-0.00125299,0.00223556,-2.14868e-06,-5.83253e-07,0.000957036,0.0030770544429246094,0.0022380607274183895,-2.148677691549139e-06,-0.0008528321317836651,-5.832528299221096e-07,-0.0012522053357897356
26,16.21,485.76,35.1852,8.26131e-05,130.736,-0.206545,-0.0552419,0.00398756,-0.00119761,-0.0017869,0.00293297,-4.36593e-06,-1.19016e-06,0.00187396,0.003995520895375471,0.0029372753646499383,-4.365920469373563e-06,-0.00119689315134075,-1.1901592917862303e-06,-0.0017853044447023736
27,19.3,500.905,36.3752,3.34066e-05,134.986,-0.27982,-0.0748103,0.00490174,-0.00154353,-0.00232371,0.00363063,-6.77443e-06,-1.85256e-06,0.00280354,0.004913773180654335,0.0036372287205193032,-6.774407053655729e-06,-0.0015423393702391763,-1.8525582839989951e-06,-0.0023210122758986484
28,22.39,514.132,37.414,1.32864e-05,138.696,-0.342443,-0.0915217,0.00581489,-0.00189042,-0.00286251,0.00432836,-9.35314e-06,-2.56401e-06,0.00374211,0.005831829290309676,0.0043377408798699335,-9.353096259490101e-06,-0.0018886342815416235,-2.5640067129462096e-06,-0.0028584169246710367
29,25.48,525.895,38.3373,3.85959e-06,141.995,-0.39692,-0.10605,0.00672702,-0.00223795,-0.00340268,0.00502603,-1.20829e-05,-3.31878e-06,0.00468731,0.006749697220560513,0.0050386816758005715,-1.208282700204677e-05,-0.002235447656952938,-3.318774492888643e-06,-0.003396897444996272
30,28.57,536.501,39.1693,-1.47786e-06,144.968,-0.444996,-0.118865,0.00763815,-0.00258591,-0.00394383,0.00572355,-1.49469e-05,-4.11189e-06,0.00563754,0.007667395079728134,0.005739960806719457,-1.4946788295611135e-05,-0.0025825694148404743,-4.111881546142726e-06,-0.003936063315980842
31,31.66,546.169,39.9275,-5.15749e-06,147.678,-0.487928,-0.130302,0.00854829,-0.00293414,-0.00448566,0.00642085,-1.79305e-05,-4.93908e-06,0.00659166,0.008584930962403092,0.006441507847339878,-1.7930339249572214e-05,-0.002929839618232344,-4.939067802745001e-06,-0.004475614453097854
32,34.75,555.061,40.6245,-8.1827e-06,150.17,-0.526645,-0.140612,0.00945744,-0.00328253,-0.00502797,0.00711787,-2.10212e-05,-5.7967e-06,0.00754882,0.009502302903549475,0.007143262247154114,-2.1020979056096678e-05,-0.00327714838844384,-5.796683199221775e-06,-0.005015350917154882
33,37.84,563.298,41.27,-1.09993e-05,152.478,-0.561853,-0.149983,0.0103656,-0.00363098,-0.00557058,0.00781457,-2.42083e-05,-6.68165e-06,0.0085084,0.010419508936830635,0.00784518344381846,-2.4208006981440988e-05,-0.003624395963365501,-6.6816276778070005e-06,-0.005555093089600671
34,40.93,570.976,41.8715,-1.38154e-05,154.629,-0.594097,-0.158563,0.0112728,-0.00397944,-0.00611339,0.00851091,-2.74824e-05,-7.59123e-06,0.00946989,0.011336577434712503,0.00854723076230468,-2.7482022362357306e-05,-0.003971532521233168,-7.591201186651908e-06,-0.006094741253060643
35,44.02,578.17,42.4351,-1.67304e-05,156.644,-0.623811,-0.166466,0.0121791,-0.00432784,-0.00665629,0.00920686,-3.08353e-05,-8.52313e-06,0.0104329,0.01225356724600779,0.009249373507335346,-3.083482459698139e-05,-0.004318488396079734,-8.523093678269866e-06,-0.006634185972515749
36,47.11,584.942,42.9655,-1.97914e-05,158.541,-0.651339,-0.173786,0.0130844,-0.00467616,-0.00719919,0.00990239,-3.42602e-05,-9.47531e-06,0.0113971,0.013170375330999962,0.009951580898936108,-3.4259613126086386e-05,-0.004665243785777151,-9.475265109415432e-06,-0.0071733379069161
37,50.2,591.341,43.4667,-2.30216e-05,160.334,-0.676963,-0.180598,0.0139887,-0.00502436,-0.00774204,0.0105975,-3.77507e-05,-1.0446e-05,0.0123623,0.014086999690651414,0.010653852392026764,-3.7749987451318745e-05,-0.005011759016088302,-1.044594544075128e-05,-0.007712147600780539
38,53.29,597.409,43.9418,-2.64239e-05,162.033,-0.700916,-0.186963,0.0148921,-0.00537241,-0.00828478,0.0112921,-4.13015e-05,-1.14337e-05,0.0133282,0.015003539825015455,0.011356096419014472,-4.130064710483605e-05,-0.005358004414511841,-1.1433634635515944e-05,-0.008250555788745118
39,56.38,603.181,44.3938,-3.0001e-05,163.649,-0.723389,-0.192934,0.0157945,-0.00572028,-0.00882737,0.0119863,-4.49077e-05,-1.2437e-05,0.0142947,0.015919892415458436,0.012058423570697752,-4.490669166434813e-05,-0.005703950349921327,-1.2436922660841176e-05,-0.008788523158623995
40,59.47,608.685,44.8248,-3.37496e-05,165.191,-0.744545,-0.198554,0.016696,-0.00606797,-0.00936977,0.01268,-4.85649e-05,-1.34546e-05,0.0152616,0.01683615714274267,0.012760732066666725,-4.8563720744354555e-05,-0.0060495970509913954,-1.345450948730953e-05,-0.009326010483922786
41,62.56,613.947,45.2369,-3.76649e-05,166.665,-0.764521,-0.203859,0.0175966,-0.00641544,-0.00991194,0.0133732,-5.22695e-05,-1.44855e-05,0.0162287,0.01775233227760431,0.013463021191423952,-5.2268133973520925e-05,-0.006394905001952944,-1.4485395085639396e-05,-0.009862978623656926
42,65.65,618.988,45.6317,-4.17411e-05,168.077,-0.783435,-0.208881,0.0184962,-0.0067627,-0.0104539,0.0140658,-5.60179e-05,-1.55287e-05,0.0171961,0.01866831422262627,0.014165188812479412,-5.601633102669812e-05,-0.006739884405001395,-1.552857943032393e-05,-0.010399447898187142
43,68.74,623.829,46.0108,-4.59724e-05,169.433,-0.801389,-0.213647,0.019395,-0.00710972,-0.0109955,0.014758,-5.9807e-05,-1.65834e-05,0.0181634,0.01958430488799001,0.014867436976224946,-5.980521159698604e-05,-0.007084505731610569,-1.6583262496205897e-05,-0.01093527044336251
44,71.83,628.484,46.3755,-5.03527e-05,170.737,-0.818469,-0.21818,0.0202928,-0.0074565,-0.0115369,0.0154496,-6.3634e-05,-1.76487e-05,0.0191308,0.020500098715253268,0.015569562062506481,-6.363197539993592e-05,-0.007428769271407787,-1.7648544262560684e-05,-0.011470605159760616
45,74.92,632.969,46.7269,-5.48763e-05,171.993,-0.834752,-0.222502,0.0211896,-0.00780303,-0.0120779,0.0161407,-6.74964e-05,-1.87239e-05,0.0200981,0.02141569369520613,0.01627166477049391,-6.749412216922046e-05,-0.007772665391389544,-1.8723724708902267e-05,-0.012005254926567122
46,78.01,637.297,47.0659,-5.95379e-05,173.205,-0.850306,-0.226629,0.0220856,-0.0081493,-0.0126186,0.0168313,-7.13919e-05,-1.98083e-05,0.0210652,0.022331292283670034,0.01697374438237098,-7.138935165895699e-05,-0.008116184471936072,-1.9808103816965072e-05,-0.01253931928791685
47,81.1,641.478,47.3936,-6.43324e-05,174.377,-0.86519,-0.230577,0.0229806,-0.00849531,-0.013159,0.0175213,-7.53184e-05,-2.09015e-05,0.0220322,0.023246688368907087,0.017675698412285,-7.531556364048786e-05,-0.00845932682218109,-2.0901281565177676e-05,-0.013072798880604974
48,84.19,645.523,47.7106,-6.92548e-05,175.51,-0.879456,-0.234361,0.0238748,-0.00884104,-0.013699,0.0182108,-7.92738e-05,-2.20027e-05,0.0229988,0.024162084770382508,0.01837762776867735,-7.927065791535348e-05,-0.008802072926899496,-2.2002457942371656e-05,-0.013605595701120743
49,87.28,649.441,48.0177,-7.43008e-05,176.608,-0.893151,-0.237994,0.024768,-0.0091865,-0.0142386,0.0188997,-8.32565e-05,-2.31116e-05,0.0239652,0.02507727500761403,0.01907942982440969,-8.325303427381137e-05,-0.009144433023521747,-2.3111332928982264e-05,-0.014137710544184667
50,90.37,653.24,48.3156,-7.94662e-05,177.673,-0.906317,-0.241485,0.0256603,-0.00953168,-0.0147778,0.0195881,-8.72649e-05,-2.42276e-05,0.0249312,0.02599235966440716,0.019781205627418252,-8.726109252932268e-05,-0.009486397525082069,-2.4227306514079672e-05,-0.014669144203269147
51,93.46,656.928,48.6048,-8.47469e-05,178.706,-0.918991,-0.244846,0.0265518,-0.00987658,-0.0153167,0.0202759,-9.12973e-05,-2.53504e-05,0.0258968,0.02690743968936249,0.0204828524093168,-9.129313252831395e-05,-0.00982796675957498,-2.5350078681318777e-05,-0.015199995950607503
52,96.55,660.512,48.8859,-9.01394e-05,179.711,-0.931206,-0.248084,0.0274423,-0.0102212,-0.0158552,0.0209631,-9.53524e-05,-2.64794e-05,0.026862,0.02782230804908603,0.021184369239067635,-9.534785410436619e-05,-0.010169141054551023,-2.6479049423766554e-05,-0.015730167991154453
53,99.64,663.997,49.1593,-9.56403e-05,180.688,-0.942994,-0.251209,0.0283319,-0.0105655,-0.0163933,0.0216498,-9.9429e-05,-2.76145e-05,0.0278267,0.02873706559815692,0.021885857373809214,-9.942405710072766e-05,-0.01050988115751117,-2.761411872320707e-05,-0.016259661114857105
54,102.7,667.389,49.4255,-0.000101246,181.639,-0.954382,-0.254228,0.0292206,-0.0109095,-0.0169309,0.0223359,-0.000103526,-2.87552e-05,0.028791,0.02965171059065841,0.022587213833374475,-0.00010352064136853745,-0.010850207218954466,-2.8754786573159663e-05,-0.016788377789265896
55,105.8,670.694,49.6849,-0.000106954,182.565,-0.965394,-0.257147,0.0301085,-0.0112532,-0.0174682,0.0230215,-0.000107642,-2.99013e-05,0.0297547,0.03056634433605443,0.02328854001432168,-0.00010763620680775965,-0.011190119585446912,-2.9900852960618174e-05,-0.017316515496978768
56,108.9,673.916,49.9378,-0.000112762,183.469,-0.976054,-0.259972,0.0309954,-0.0115967,-0.018005,0.0237064,-0.000111776,-3.10523e-05,0.030718,0.03148075906411818,0.023989630396372696,-0.00011176975329563188,-0.01152971745009701,-3.1051817882321586e-05,-0.017843878434584126
57,112.0,677.059,50.1846,-0.000118666,184.35,-0.986383,-0.26271,0.0318815,-0.0119398,-0.0185415,0.0243908,-0.000115927,-3.22082e-05,0.0316807,0.032395159229888115,0.024690688774228198,-0.00011592028072493488,-0.011868803430513442,-3.220768132150553e-05,-0.01837066387097508
58,115.1,680.127,50.4256,-0.000124665,185.211,-0.9964,-0.265364,0.0327667,-0.0122826,-0.0190774,0.0250746,-0.000120094,-3.33686e-05,0.0326428,0.03330944002581737,0.0253916118855122,-0.00012008678900421454,-0.01220747675277356,-3.336804327447318e-05,-0.018896578100902395
59,118.2,683.124,50.6611,-0.000130755,186.051,-1.00612,-0.26794,0.033651,-0.0126251,-0.019613,0.0257579,-0.000124277,-3.45332e-05,0.0336044,0.03422359969976041,0.026092501405547752,-0.00012426927793351972,-0.01254573776148138,-3.453260373587064e-05,-0.019421916395517602
60,121.3,686.053,50.8913,-0.000136935,186.873,-1.01557,-0.270442,0.0345344,-0.0129674,-0.0201481,0.0264405,-0.000128474,-3.57019e-05,0.0345653,0.03513763649834667,0.026793151251594427,-0.00012846574756897322,-0.012883685512388277,-3.570126269469842e-05,-0.019946483367644263
61,124.4,688.918,51.1165,-0.000143203,187.677,-1.02475,-0.272874,0.035417,-0.0133093,-0.0206828,0.0271226,-0.000132685,-3.68744e-05,0.0355257,0.03605165227214768,0.027493765777483414,-0.0001326761977346047,-0.013221122892104309,-3.6873720147712064e-05,-0.020470377907300552
62,127.4,691.722,51.3369,-0.000149557,188.464,-1.03368,-0.27524,0.0362986,-0.0136509,-0.021217,0.0278041,-0.000136909,-3.80506e-05,0.0364854,0.03696543814641995,0.028194241438831202,-0.00013689962839047443,-0.013558148989189722,-3.804987608513333e-05,-0.02099350289229862
63,130.5,694.466,51.5528,-0.000155994,189.234,-1.04237,-0.277543,0.0371794,-0.0139922,-0.0217508,0.028485,-0.000141146,-3.92302e-05,0.0374445,0.03787919966583697,0.028894577300113244,-0.0001411360393719363,-0.013894764146295646,-3.9229430505716145e-05,-0.021515957105019634
64,133.6,697.155,51.7643,-0.000162514,189.989,-1.05084,-0.279787,0.0380593,-0.0143332,-0.0222842,0.0291653,-0.000145394,-4.04132e-05,0.0384029,0.03879283146698764,0.029594772425417526,-0.00014538343080461313,-0.0142309687055866,-4.041238339758113e-05,-0.022037741321278004
65,136.7,699.789,51.9716,-0.000169114,190.729,-1.05909,-0.281973,0.0389384,-0.0146738,-0.0228171,0.0298451,-0.000149654,-4.15993e-05,0.0393607,0.039706435761060144,0.03029492890793728,-0.00014964280239870842,-0.014566664465412105,-4.159843476114755e-05,-0.02255875857155143
66,139.8,702.372,52.1749,-0.000175793,191.454,-1.06714,-0.284106,0.0398166,-0.0150142,-0.0233496,0.0305242,-0.000153924,-4.27883e-05,0.0403178,0.040619906999457944,0.03099483982201101,-0.00015391215430882177,-0.014902048887161179,-4.278738459373432e-05,-0.02307910747742048
67,142.9,704.906,52.3744,-0.00018255,192.165,-1.075,-0.286187,0.0406939,-0.0153543,-0.0238816,0.0312028,-0.000158205,-4.39802e-05,0.0412742,0.04153324342030995,0.0316947103595302,-0.00015819248624882043,-0.01523702373463287,-4.3979232885127395e-05,-0.023598691170725217
68,146.0,707.391,52.5702,-0.000189382,192.864,-1.08267,-0.288218,0.0415704,-0.015694,-0.0244131,0.0318808,-0.000162495,-4.51747e-05,0.04223,0.042446547505212484,0.03239443655352936,-0.00016248179840250287,-0.015571490905205043,-4.517367963863261e-05,-0.024117510577897017
69,149.1,709.831,52.7625,-0.000196289,193.549,-1.09016,-0.290203,0.042446,-0.0160334,-0.0249442,0.0325582,-0.000166795,-4.63719e-05,0.043185,0.04335971342790734,0.03309401746615448,-0.00016678109048728906,-0.015905549248284134,-4.63708248400474e-05,-0.024635664160165938
70,152.2,712.228,52.9513,-0.00020327,194.222,-1.09749,-0.292143,0.0433207,-0.0163726,-0.0254749,0.033235,-0.000171103,-4.75714e-05,0.0441394,0.044272739422948515,0.03379345215917717,-0.0001710883627165094,-0.016239297479079262,-4.757026849888657e-05,-0.025153152685470248
71,155.3,714.582,53.1369,-0.000210323,194.884,-1.10465,-0.29404,0.0441946,-0.0167114,-0.026005,0.0339112,-0.00017542,-4.87733e-05,0.045093,0.0451857282422905,0.03449273969399713,-0.0001754046148113586,-0.016572539150766508,-4.877211060194675e-05,-0.02566978205451942
72,158.3,716.895,53.3193,-0.000217447,195.534,-1.11166,-0.295896,0.0450676,-0.0170499,-0.0265348,0.0345868,-0.000179744,-4.99774e-05,0.0460459,0.046098573782148655,0.03519187913164368,-0.00017972784701492106,-0.016905373010955183,-4.997615115054366e-05,-0.026185845486712767
73,161.4,719.168,53.4986,-0.000224641,196.173,-1.11852,-0.297713,0.0459398,-0.017388,-0.027064,0.0352619,-0.000184077,-5.11836e-05,0.0469981,0.04701137897467933,0.035890973121870395,-0.00018406005886850707,-0.01723770112110734,-5.118229014189346e-05,-0.02670105160171954
74,164.5,721.404,53.6751,-0.000231904,196.801,-1.12524,-0.299492,0.0468111,-0.0177259,-0.0275928,0.0359363,-0.000188416,-5.23918e-05,0.0479496,0.04792403753114205,0.036589813616671574,-0.00018839825082017647,-0.017569720404081668,-5.239042757365642e-05,-0.02721559602809609
75,167.6,723.603,53.8487,-0.000239236,197.42,-1.13182,-0.301235,0.0476816,-0.0180635,-0.0281212,0.0366102,-0.000192762,-5.36019e-05,0.0489003,0.04883665256387637,0.037288606924027023,-0.00019274342259933963,-0.017901332887136467,-5.360046344382585e-05,-0.027729479527177636
76,170.7,725.767,54.0195,-0.000246634,198.028,-1.13827,-0.302943,0.0485512,-0.0184007,-0.0286491,0.0372835,-0.000197115,-5.48138e-05,0.0498503,0.04974911759924261,0.03798724851436708,-0.00019709557411473622,-0.018232440729767263,-5.481229775106122e-05,-0.028242605683369892
77,173.8,727.897,54.1877,-0.000254098,198.627,-1.1446,-0.304618,0.04942,-0.0187376,-0.0291765,0.0379562,-0.000201475,-5.60275e-05,0.0507996,0.05066153592974332,0.03868573744685477,-0.0002014547052751059,-0.018563142510642505,-5.602593048892324e-05,-0.02875497540935945
78,176.9,729.993,54.3533,-0.000261628,199.217,-1.1508,-0.306261,0.0502879,-0.0190743,-0.0297034,0.0386283,-0.00020584,-5.72428e-05,0.0517481,0.051573800896896005,0.0393840727802941,-0.00020581881640058253,-0.018893536675580247,-5.7241161662169304e-05,-0.029266589616216976
79,180.0,732.058,54.5165,-0.000269222,199.798,-1.15689,-0.307873,0.051155,-0.0194106,-0.0302299,0.0392999,-0.000210211,-5.84597e-05,0.0526959,0.0524860159733449,0.040082357581362915,-0.0002101889072156915,-0.019223427304977725,-5.8457991265026266e-05,-0.029777546235650765
80,183.1,734.092,54.6772,-0.000276879,200.37,-1.16286,-0.309455,0.0520213,-0.0197466,-0.030756,0.0399708,-0.000214587,-5.9678e-05,0.0536429,0.05339817965563509,0.04078038296149611,-0.00021456397785646342,-0.019552912876727335,-5.96762193035838e-05,-0.030287846022447162
81,186.2,736.095,54.8357,-0.0002846,200.934,-1.16873,-0.311009,0.0528867,-0.0200822,-0.0312815,0.0406412,-0.000218968,-6.08978e-05,0.0545892,0.054310185008106915,0.041478356064676314,-0.00021894402825717307,-0.019881895712758446,-6.089594576663693e-05,-0.03079729588968605
82,189.2,738.069,54.9918,-0.000292383,201.49,-1.17449,-0.312535,0.0537512,-0.0204176,-0.0318067,0.0413109,-0.000223355,-6.2119e-05,0.0555347,0.0552220302513633,0.042176067722404564,-0.00022333005812891216,-0.020210572202807864,-6.211707065484351e-05,-0.03130618750324976
83,192.3,740.016,55.1458,-0.000300227,202.037,-1.18016,-0.314034,0.054615,-0.0207527,-0.0323313,0.0419801,-0.000227746,-6.33414e-05,0.0564794,0.056133924831662796,0.042873725357132964,-0.00022772006784832488,-0.02053884463494482,-6.333939397584754e-05,-0.03181423100582337
84,195.4,741.934,55.2977,-0.000308133,202.578,-1.18572,-0.315508,0.0554779,-0.0210874,-0.0328555,0.0426487,-0.000232141,-6.45651e-05,0.0574234,0.057045656105285225,0.043571223877678866,-0.0002321140573628977,-0.020866615428143498,-6.45630157187771e-05,-0.032321620987397326
85,198.5,743.826,55.4475,-0.000316098,203.11,-1.19119,-0.316957,0.05634,-0.0214218,-0.0333792,0.0433167,-0.000236541,-6.57899e-05,0.0583666,0.05795732808515641,0.04426856234034493,-0.0002365130263832782,-0.02119398289305341,-6.578773589194231e-05,-0.03282826147909401
86,201.6,745.692,55.5953,-0.000324124,203.636,-1.19658,-0.318383,0.0572012,-0.021756,-0.0339024,0.0439842,-0.000240944,-6.70158e-05,0.0593091,0.05886883337394444,0.04496584429767059,-0.00024091497532552353,-0.021521045208813483,-6.70135544914574e-05,-0.033334153379826925
87,204.7,747.534,55.7412,-0.000332208,204.155,-1.20187,-0.319785,0.0580616,-0.0220898,-0.0344252,0.044651,-0.000245352,-6.82429e-05,0.0602507,0.059780276164640656,0.045662859881818285,-0.0002453219036594456,-0.02184760697773147,-6.824057150622842e-05,-0.0338393942029811
88,207.8,749.35,55.8851,-0.000340351,204.667,-1.20708,-0.321165,0.0589212,-0.0224233,-0.0349475,0.0453173,-0.000249763,-6.94709e-05,0.0611916,0.06069165494451245,0.04635981721090676,-0.0002497318118184211,-0.022173766410695794,-6.946848695288388e-05,-0.03434388812733169
89,210.9,751.143,56.0273,-0.000348552,205.172,-1.21221,-0.322523,0.05978,-0.0227564,-0.0354694,0.045983,-0.000254178,-7.06998e-05,0.0621318,0.06160296819967992,0.04705661084325219,-0.00025414569950887866,-0.02249942608747424,-7.069730082798209e-05,-0.03484773256247631
90,214.0,752.913,56.1676,-0.000356811,205.671,-1.21727,-0.323861,0.0606379,-0.0230893,-0.0359908,0.0466481,-0.000258596,-7.19297e-05,0.0630711,0.06251410816370306,0.04775323983341506,-0.0002585625669362379,-0.02282478187005499,-7.192711312109523e-05,-0.03535083178535314
91,217.1,754.66,56.3062,-0.000365126,206.163,-1.22224,-0.325178,0.0614951,-0.0234219,-0.0365117,0.0473126,-0.000263017,-7.31604e-05,0.0640097,0.06342528573213313,0.048449703235622144,-0.0002629824140610859,-0.02314973630468664,-7.315772384319796e-05,-0.03585318668738302
92,220.1,756.385,56.4431,-0.000373498,206.649,-1.22714,-0.326476,0.0623514,-0.0237541,-0.0370322,0.0479765,-0.000267441,-7.4392e-05,0.0649475,0.06433628679374404,0.04914600010377046,-0.00026740524084356565,-0.02347419206720036,-7.438923298375144e-05,-0.03635489452292118
93,223.2,758.089,56.5784,-0.000381927,207.13,-1.23197,-0.327755,0.0632069,-0.0240861,-0.0375522,0.0486399,-0.000271867,-7.56243e-05,0.0658845,0.06524721608154138,0.04984223447564595,-0.00027183004751596407,-0.02379834482309917,-7.562144055472952e-05,-0.03685585971553085
94,226.3,759.773,56.712,-0.000390411,207.605,-1.23673,-0.329016,0.0640615,-0.0244177,-0.0380717,0.0493026,-0.000276297,-7.68573e-05,0.0668207,0.06615796546018449,0.05053819550564986,-0.00027625883349902125,-0.02412199962702366,-7.685434655335666e-05,-0.03735608315212069
95,229.4,761.435,56.8441,-0.00039895,208.074,-1.24143,-0.330259,0.0649154,-0.024749,-0.0385908,0.0499648,-0.000280729,-7.80911e-05,0.0677562,0.0670687465495361,0.051234092284707655,-0.0002806895993012759,-0.024445254458427712,-7.808805096942706e-05,-0.03785566193246592
96,232.5,763.078,56.9747,-0.000407545,208.537,-1.24606,-0.331485,0.0657684,-0.0250801,-0.0391094,0.0506265,-0.000285163,-7.93255e-05,0.0686909,0.06797934450515752,0.05192992407413066,-0.0002851223448961937,-0.02476820716690531,-7.932235381569175e-05,-0.038354500626134325
97,235.6,764.702,57.1037,-0.000416194,208.995,-1.25062,-0.332694,0.0666206,-0.0254108,-0.0396275,0.0512875,-0.0002896,-8.05605e-05,0.0696248,0.06888986441997536,0.05262547960972319,-0.0002895580699677769,-0.025090662999784574,-8.05572550900413e-05,-0.038852600115545366
98,238.7,766.307,57.2313,-0.000424897,209.448,-1.25513,-0.333887,0.0674721,-0.0257412,-0.0401452,0.051948,-0.000294039,-8.17961e-05,0.0705579,0.06980041175003882,0.05332096839889355,-0.00029399577476996175,-0.025412719838009856,-8.179275479014425e-05,-0.039350057346550726
99,241.8,767.894,57.3575,-0.000433654,209.896,-1.25957,-0.335065,0.0683227,-0.0260713,-0.0406625,0.0526078,-0.00029848,-8.30323e-05,0.0714902,0.07071077110121671,0.054016178898566025,-0.000298435459276436,-0.025734378006589953,-8.30288529140022e-05,-0.039846873049424913
100,244.9,769.463,57.4823,-0.000442465,210.339,-1.26396,-0.336227,0.0691725,-0.026401,-0.0411792,0.0532671,-0.000302923,-8.4269e-05,0.0724217,0.07162104783630285,0.05471132089369224,-0.0003028771234605543,-0.026055540435625413,-8.426544946749104e-05,-0.04034285602188448
101,248.0,771.014,57.6057,-0.00045133,210.777,-1.26829,-0.337374,0.0700215,-0.0267305,-0.0416955,0.0539259,-0.000307367,-8.55061e-05,0.0733524,0.07253124042799852,0.05540639364372146,-0.0003073197676030093,-0.026376402270161803,-8.550244445759692e-05,-0.04083819912149589
102,251.0,772.548,57.7278,-0.000460247,211.21,-1.27257,-0.338507,0.0708697,-0.0270597,-0.0422113,0.054584,-0.000311813,-8.67438e-05,0.0742824,0.0734413473479103,0.05610118518745999,-0.0003117643913789214,-0.026696866407243225,-8.674003786535156e-05,-0.04133280720799759
103,254.1,774.065,57.8486,-0.000469217,211.638,-1.27679,-0.339626,0.0717171,-0.0273886,-0.0427267,0.0552416,-0.000316261,-8.79818e-05,0.0752116,0.07435136706655165,0.056795905725917084,-0.0003162109947617564,-0.02701693317001752,-8.797792971493301e-05,-0.04182677697221959
104,257.2,775.566,57.9682,-0.000478239,212.062,-1.28097,-0.340732,0.0725637,-0.0277171,-0.0432416,0.0558986,-0.000320711,-8.92203e-05,0.07614,0.07526129805334891,0.05749044876838494,-0.0003206595777246468,-0.027336505614823148,-8.9216319987373e-05,-0.04232001337014868
105,260.3,777.051,58.0865,-0.000487314,212.482,-1.28509,-0.341824,0.0734095,-0.0280454,-0.0437561,0.056555,-0.000325161,-9.04592e-05,0.0770676,0.07617113877664439,0.058184813364486,-0.00032510814089148354,-0.027655778628496996,-9.045510868987972e-05,-0.04281261299115091
106,263.4,778.52,58.2036,-0.000496441,212.897,-1.28917,-0.342904,0.0742545,-0.0283733,-0.0442701,0.0572109,-0.000329613,-9.16984e-05,0.0779944,0.07708088770370036,0.058879104451442954,-0.00032955868360318163,-0.027974558031945262,-9.169419583021643e-05,-0.043304480887195074
107,266.5,779.974,58.3195,-0.000505619,213.308,-1.2932,-0.343971,0.0750987,-0.028701,-0.0447836,0.0578662,-0.000334066,-9.29379e-05,0.0789204,0.07799054330070332,0.05957321532918014,-0.0003340102061670791,-0.028293038583389718,-9.29335814071619e-05,-0.043795617926032815
108,269.6,781.413,58.4342,-0.000514849,213.714,-1.29718,-0.345026,0.0759421,-0.0290283,-0.0452967,0.0585209,-0.000338521,-9.41778e-05,0.0798456,0.07890010403276793,0.06026714504636277,-0.000338463708231318,-0.028611026230344394,-9.417336541017729e-05,-0.044286120545266594
109,272.7,782.837,58.5479,-0.000524131,214.117,-1.30112,-0.34607,0.0767847,-0.0293554,-0.0458093,0.059175,-0.000342976,-9.54179e-05,0.08077,0.07980956836394038,0.06096089265135696,-0.00034291719045553837,-0.02892871560273491,-9.541334785689859e-05,-0.04477589394022963
110,275.8,784.247,58.6604,-0.000533463,214.516,-1.30502,-0.347102,0.0776265,-0.0296821,-0.0463215,0.0598286,-0.000347433,-9.66583e-05,0.0816937,0.08071893475720415,0.0616545633576866,-0.000347372652144462,-0.029245912774368277,-9.6653628737009e-05,-0.04526503444777563
111,278.9,785.643,58.7718,-0.000542847,214.91,-1.30887,-0.348123,0.0784676,-0.0300085,-0.0468332,0.0604816,-0.00035189,-9.7899e-05,0.0826166,0.08162830983730673,0.062348050186366244,-0.0003518280939757146,-0.029562715203469647,-9.789420804928728e-05,-0.04575344735854847
112,281.9,787.025,58.8821,-0.000552281,215.301,-1.31268,-0.349133,0.0793078,-0.0303346,-0.0473445,0.0611341,-0.000356348,-9.91398e-05,0.0835386,0.0825374758303814,0.06304145848896958,-0.00035628451559266416,-0.029879123208912617,-9.913488581236862e-05,-0.04624122890893412
113,285.0,788.393,58.9914,-0.000561767,215.688,-1.31646,-0.350132,0.0801473,-0.0306605,-0.0478552,0.0617859,-0.000360807,-0.000100381,0.0844599,0.08344664761280085,0.06373457477367128,-0.0003607419169820991,-0.030195234089592904,-0.00010037596199596877,-0.04672818915744692
114,288.1,789.749,59.0997,-0.000571302,216.072,-1.32019,-0.351122,0.080986,-0.030986,-0.0483656,0.0624372,-0.000365267,-0.000101622,0.0853804,0.08435571548047638,0.06442761076489334,-0.00036520029813102983,-0.030510854170941792,-0.000101616836659435,-0.04721461494328072
115,291.2,791.091,59.207,-0.000580888,216.451,-1.32389,-0.352101,0.0818239,-0.0313112,-0.0488755,0.063088,-0.000369727,-0.000102864,0.0863001,0.08526467789109904,0.06512056571706282,-0.0003696586593955331,-0.030826080782540344,-0.00010285870968007593,-0.04770031637101857
116,294.3,792.421,59.3133,-0.000590525,216.828,-1.32755,-0.353071,0.082661,-0.0316362,-0.0493849,0.0637381,-0.000374188,-0.000104105,0.087219,0.0861735333013216,0.06581322572157489,-0.00037411800040176857,-0.031141011127332918,-0.00010409958126245122,-0.04818529429549456
117,297.4,793.738,59.4186,-0.000600211,217.2,-1.33117,-0.354031,0.0834973,-0.0319608,-0.0498939,0.0643877,-0.000378649,-0.000105347,0.0881372,0.08708228016675856,0.06650580291772235,-0.0003785773215145838,-0.03145545171865216,-0.00010534145119955873,-0.048669644703062453
118,300.5,795.043,59.523,-0.000609947,217.57,-1.33476,-0.354982,0.0843329,-0.0322851,-0.0504024,0.0650368,-0.000383111,-0.000106589,0.0890545,0.08799102574109097,0.06719829655889353,-0.0003830376223517007,-0.031769499790012645,-0.00010658331959434442,-0.04915327321576046
119,303.6,796.335,59.6264,-0.000619734,217.936,-1.33831,-0.355924,0.0851677,-0.0326091,-0.0509105,0.0656852,-0.000387573,-0.000107831,0.0899711,0.08889965986049275,0.06789049231999678,-0.00038749790328695966,-0.032083155657086415,-0.00010782518644669725,-0.04963627572046192
120,306.7,797.617,59.7289,-0.00062957,218.299,-1.34184,-0.356857,0.0860017,-0.0329329,-0.0514181,0.0663332,-0.000392035,-0.000109073,0.0908869,0.08980818097746157,0.06858270961320123,-0.0003919581643204717,-0.032396516395443054,-0.00010906705175661724,-0.050118557933325314
121,309.0,798.577,59.8059,-0.000640867,218.57,-1.34447,-0.357556,0.0866313,-0.0331773,-0.0518013,0.0668223,-0.000395406,-0.000110011,0.0915782,0.09049454025143189,0.06910548124985527,-0.000395327837349968,-0.032632969791054234,-0.00011000494901181046,-0.050482482769473425
