,Time,S11,S22,S33,S12,S13,S23,LE11,LE22,LE33,LE12,LE13,LE23,SDV_EPBAR,E11,E12,E13,E22,E23,E33
0,0.000309,0.0019383,0.000139163,-7.79048e-12,0.000519365,9.3624e-20,3.36396e-20,9.1292e-09,-2.12864e-09,-3.00057e-09,6.49972e-09,9.45271e-25,4.67314e-25,0.0,9.129200062574228e-09,6.499720095476391e-09,0.0,-2.128640042009522e-09,0.0,-3.0005700146773506e-09
1,0.000618,0.00387659,0.000278327,3.25261e-19,0.00103873,3.61973e-20,-7.40724e-21,1.82584e-08,-4.2578e-09,-6.00057e-09,1.29997e-08,9.27189e-26,4.52981e-25,0.0,1.8258400125148455e-08,1.2999699983140545e-08,0.0,-4.257800001461476e-09,0.0,-6.000569929831556e-09
2,0.0010815,0.00678404,0.000487072,3.25261e-19,0.00181778,-8.55315e-21,3.19208e-20,3.19522e-08,-7.45077e-09,-1.05014e-08,2.27493e-08,2.14063e-25,-7.98907e-25,0.0,3.19522004410544e-08,2.2749300221391877e-08,0.0,-7.45077000097183e-09,0.0,-1.0501399971829528e-08
3,0.0017767,0.0111452,0.00080019,7.58942e-19,0.00298635,8.55315e-21,-3.19208e-20,5.24927e-08,-1.22421e-08,-1.72507e-08,3.73747e-08,4.28159e-25,-1.59792e-24,0.0,5.249270129681349e-08,3.737470066766946e-08,0.0,-1.2242099889370195e-08,0.0,-1.725069986857619e-08
4,0.0028196,0.017687,0.00126987,-2.27682e-18,0.00473921,-1.65988e-27,-4.44764e-28,8.33037e-08,-1.94275e-08,-2.73762e-08,5.93119e-08,1.2845e-24,-4.79383e-24,0.0,8.33037034908557e-08,5.931190183439128e-08,0.0,-1.9427499831081718e-08,0.0,-2.7376199640549714e-08
5,0.0043839,0.0274996,0.00197438,-4.01155e-18,0.00736849,1.71063e-20,-6.38416e-20,1.2952e-07,-3.02058e-08,-4.25643e-08,9.22178e-08,-1.48338e-24,-7.24799e-24,0.0,1.295200084960868e-07,9.221780428170234e-08,0.0,-3.0205799528282284e-08,0.0,-4.256429908533477e-08
6,0.0067304,0.0422185,0.00303115,-4.01155e-18,0.0113124,1.74418e-19,1.1516e-19,1.98845e-07,-4.63759e-08,-6.53437e-08,1.41578e-07,3.19598e-24,8.5636e-25,0.0,1.9884501978317815e-07,1.4157800998226833e-07,0.0,-4.637589889888716e-08,0.0,-6.534369789701344e-08
7,0.01025,0.0642969,0.00461631,8.13152e-18,0.0172283,2.08631e-19,-1.25227e-20,3.02832e-07,-7.06269e-08,-9.95172e-08,2.15616e-07,2.29126e-25,-1.36391e-23,0.0,3.0283204588421597e-07,2.156160232580362e-07,0.0,-7.062689755255036e-08,0.0,-9.951719504019962e-08
8,0.01553,0.0974145,0.00699405,2.92735e-18,0.0261021,-1.49373e-19,3.02101e-19,4.58812e-07,-1.07003e-07,-1.50778e-07,3.26673e-07,-3.42531e-24,1.27835e-23,0.0,4.5881210519738147e-07,3.266730532747175e-07,0.0,-1.0700299424293291e-07,0.0,-1.5077798865004155e-07
9,0.023449,0.147091,0.0105607,6.39679e-18,0.0394129,6.16725e-19,5.07377e-19,6.92782e-07,-1.61575e-07,-2.2766e-07,4.93263e-07,1.27839e-23,3.42544e-24,0.0,6.927822400193406e-07,4.932631216814087e-07,0.0,-1.6157498694546746e-07,0.0,-2.2765997409468497e-07
10,0.035328,0.221605,0.0159106,-7.48099e-18,0.059379,8.22001e-19,-2.58722e-19,1.04374e-06,-2.43427e-07,-3.4299e-07,7.43145e-07,1.27839e-23,3.42544e-24,0.0,1.0437405446594994e-06,7.43145276205226e-07,0.0,-2.4342697035883987e-07,0.0,-3.429899412266124e-07
11,0.053146,0.333377,0.0239354,-3.52366e-17,0.0893282,1.43291e-18,1.54718e-18,1.57017e-06,-3.66206e-07,-5.15985e-07,1.11797e-06,-4.82329e-29,-1.2924e-29,0.0,1.570171232812001e-06,1.1179706249642152e-06,0.0,-3.662059329112566e-07,0.0,-5.159848668334632e-07
12,0.079874,0.501035,0.0359727,-2.13588e-17,0.134252,1.15921e-18,2.56864e-18,2.35982e-06,-5.50367e-07,-7.75483e-07,1.6802e-06,-4.1105e-23,1.53406e-22,0.0,2.3598227842924757e-06,1.6802014115580022e-06,0.0,-5.503668485395963e-07,0.0,-7.754826992778519e-07
13,0.12,0.752521,0.0540286,-7.48099e-18,0.201637,2.25401e-18,-1.51722e-18,3.54429e-06,-8.26616e-07,-1.16472e-06,2.52354e-06,-1.0888e-28,-2.91744e-29,0.0,3.544296280910686e-06,2.523543184196342e-06,0.0,-8.266156583669471e-07,0.0,-1.1647193217667606e-06
14,0.1801,1.12975,0.0811124,2.02746e-17,0.302715,9.8783e-18,2.71531e-18,5.321e-06,-1.241e-06,-1.74857e-06,3.78857e-06,1.53406e-22,4.11051e-23,0.0,5.321014156622894e-06,3.788577176644381e-06,0.0,-1.2409992299344808e-06,0.0,-1.7485684712381655e-06
15,0.2703,1.69559,0.121738,-7.48099e-18,0.454332,-5.51699e-18,2.96936e-18,7.98605e-06,-1.86256e-06,-2.62435e-06,5.6861e-06,6.26956e-28,1.67992e-28,0.0,7.986081888677887e-06,5.686116165914967e-06,0.0,-1.862558265397496e-06,0.0,-2.6243465564013135e-06
16,0.4056,2.54435,0.182676,4.92119e-16,0.681756,-3.36327e-19,-2.16935e-20,1.19836e-05,-2.79488e-06,-3.93804e-06,8.53236e-06,2.19228e-22,-8.18169e-22,0.0,1.1983671803550422e-05,8.532396400751097e-06,0.0,-2.7948760943363737e-06,0.0,-3.938032245964784e-06
17,0.6086,3.81748,0.274083,3.81097e-16,1.02289,-3.36325e-19,-2.16927e-20,1.79799e-05,-4.19337e-06,-5.90853e-06,1.28018e-05,9.49301e-23,4.63893e-22,0.0,1.79800616393333e-05,1.2801881943413917e-05,0.0,-4.1933612078270954e-06,0.0,-5.908512544672284e-06
18,0.913,5.72716,0.411192,4.92119e-16,1.53459,3.23501e-17,8.73662e-18,2.69743e-05,-6.2911e-06,-8.86425e-06,1.92058e-05,4.09074e-22,1.09611e-22,0.0,2.697466380974234e-05,1.920598443261312e-05,0.0,-6.291080211107136e-06,0.0,-8.864210712666853e-06
19,1.37,8.59165,0.616853,-1.28424e-15,2.30213,-3.36733e-19,-2.18022e-20,4.04657e-05,-9.43765e-06,-1.32978e-05,2.88117e-05,4.38461e-22,-1.63636e-21,0.0,4.0466518747450664e-05,2.8812115061116472e-05,0.0,-9.4376054655676e-06,0.0,-1.3297711584647764e-05
20,2.055,12.8883,0.925338,-5.059e-15,3.45341,6.94144e-17,1.1511e-18,6.07025e-05,-1.41574e-05,-1.99479e-05,4.32204e-05,-7.0378e-26,-1.88577e-26,0.0,6.070434243410361e-05,4.322133401490902e-05,0.0,-1.4157299784489652e-05,0.0,-1.994770104196686e-05
21,3.082,19.3331,1.38805,-2.81516e-14,5.18029,7.817e-17,-3.15365e-17,9.10568e-05,-2.12368e-05,-2.99229e-05,6.48327e-05,8.76832e-22,-3.2728e-21,0.0,9.106094579625079e-05,6.483480168495426e-05,0.0,-2.123657450070482e-05,0.0,-2.992245231447921e-05
22,4.623,116.413,8.35811,-1.03265e-09,31.1929,9.83292e-16,7.71529e-16,0.000548295,-0.000127877,-0.000180179,0.000390388,3.49743e-21,-1.3096e-20,0.0,0.0005484453411794821,0.0003904642113123913,0.0,-0.00012786882408488687,0.0,-0.00018016276873877857
23,6.935,262.609,18.8545,-9.04826e-07,70.3658,1.26247e-15,-2.74743e-16,0.00123686,-0.000288468,-0.000406453,0.000880648,1.40118e-20,-5.23908e-20,0.0,0.0012376252267900512,0.0008810358843047705,0.0,-0.0002884263971069112,0.0,-0.00040637040916957634
24,10.03,446.442,32.093,0.00245632,119.702,-0.0118297,-0.00316799,0.00215605,-0.000511257,-0.000723405,0.00153874,-1.52629e-07,-4.09307e-08,5.88498e-05,0.0021583759471202058,0.0015399244678453439,-1.526289883369003e-07,-0.000511126330409506,-4.093069916333292e-08,-0.000723143405686355
25,13.12,468.018,33.7941,8.4704e-05,125.763,-0.121506,-0.0325135,0.00307237,-0.000855,-0.00125116,0.00223592,-2.19594e-06,-5.96083e-07,0.000956954,0.0030770945660076876,0.0022384215331852086,-2.1959375888780386e-06,-0.0008546345916488063,-5.96082822323929e-07,-0.001250377625653054
26,16.21,485.784,35.1936,7.8224e-05,130.755,-0.211121,-0.0564659,0.00398763,-0.00120117,-0.00178335,0.00293366,-4.46262e-06,-1.21652e-06,0.00187392,0.003995591175064428,0.0029379673916087867,-4.462610042499371e-06,-0.0012004488840718919,-1.2165192599944419e-06,-0.0017817607762432575
27,19.3,500.928,36.3859,3.14621e-05,135.009,-0.286025,-0.0764691,0.00490184,-0.00154886,-0.00231842,0.00363167,-6.92464e-06,-1.89364e-06,0.00280355,0.004913873672036662,0.0036382725037800157,-6.924616024694963e-06,-0.0015476611353877345,-1.8936382070178226e-06,-0.002315734540094039
28,22.39,514.155,37.4266,1.23342e-05,138.723,-0.350028,-0.0935489,0.00581502,-0.00189755,-0.00285544,0.00432976,-9.56047e-06,-2.62085e-06,0.00374217,0.005831960048455986,0.0043391469536913085,-9.560424298893366e-06,-0.0018957507902088722,-2.620846565548618e-06,-0.002851367108757552
29,25.48,525.918,38.3516,3.31019e-06,142.024,-0.405697,-0.108395,0.00672719,-0.00224689,-0.00339383,0.00502781,-1.23505e-05,-3.39229e-06,0.00468742,0.006749868368023382,0.005040470646246131,-1.2350423732931937e-05,-0.002244367632178501,-3.392284246173105e-06,-0.00338807746851022
30,28.57,536.524,39.1851,-1.87717e-06,145.001,-0.454817,-0.121488,0.00763835,-0.00259668,-0.00393319,0.00572571,-1.52776e-05,-4.20288e-06,0.0056377,0.0076675966132271345,0.005742133207381261,-1.5277483298103967e-05,-0.002593311542721577,-4.202871167868771e-06,-0.003925465139312356
31,31.66,546.192,39.9446,-5.52929e-06,147.713,-0.498674,-0.133172,0.00854851,-0.00294673,-0.00447322,0.0064234,-1.83268e-05,-5.04825e-06,0.00659187,0.008585152851112277,0.006444074276457101,-1.832663206524643e-05,-0.002942392652530046,-5.048237257554433e-06,-0.004463230052710765
32,34.75,555.083,40.6428,-8.59295e-06,150.207,-0.538218,-0.143702,0.00945769,-0.00329695,-0.00501371,0.00712081,-2.14853e-05,-5.92469e-06,0.00754909,0.009502555279156777,0.007146223252697759,-2.1485069192639372e-05,-0.0032915210283370744,-5.9246724490868985e-06,-0.00500116233489456
33,37.84,563.32,41.2894,-1.14871e-05,152.517,-0.574172,-0.153272,0.0103659,-0.00364724,-0.00555452,0.00781791,-2.47421e-05,-6.82899e-06,0.00850872,0.010419812062728795,0.007848549652352599,-2.4741793916760457e-05,-0.003640596898973225,-6.828966682470572e-06,-0.005539122176149602
34,40.93,570.998,41.892,-1.44064e-05,154.67,-0.607095,-0.162032,0.0112731,-0.00399754,-0.0060955,0.00851465,-2.80876e-05,-7.75843e-06,0.00947027,0.011336880835731256,0.0085510027360014,-2.808720554703381e-05,-0.003989560473341092,-7.758399903412538e-06,-0.006076960128929998
35,44.02,578.192,42.4565,-1.74428e-05,156.687,-0.637428,-0.170101,0.0121794,-0.0043478,-0.00663657,0.009211,-3.15136e-05,-8.71061e-06,0.0104333,0.0122538709221236,0.009253551808390936,-3.1513103451730196e-05,-0.004338362000712248,-8.710572062753386e-06,-0.006614596605512446
36,47.11,584.964,42.9878,-2.06386e-05,158.586,-0.665526,-0.177572,0.0130847,-0.00469797,-0.00717765,0.00990694,-3.50128e-05,-9.68348e-06,0.0113976,0.013170679282158204,0.009956176189083399,-3.501218705903586e-05,-0.004686951800083494,-9.683433115248441e-06,-0.007151952190291078
37,50.2,591.363,43.4898,-2.4012e-05,160.38,-0.691677,-0.184524,0.0139891,-0.00504801,-0.00771867,0.0106025,-3.8579e-05,-1.06752e-05,0.0123629,0.014087405325532432,0.010658905673921915,-3.8578255839971654e-05,-0.005035290209730148,-1.0675143020222322e-05,-0.0076889575626953865
38,53.29,597.431,43.9658,-2.75689e-05,162.081,-0.716117,-0.191019,0.0148925,-0.00539791,-0.00825958,0.0112975,-4.22065e-05,-1.16843e-05,0.0133288,0.015003945826512766,0.011361557756680796,-4.220560931822437e-05,-0.005383367462019173,-1.1684231738806616e-05,-0.00822556338784819
39,56.38,603.202,44.4184,-3.13086e-05,163.698,-0.739044,-0.19711,0.0157949,-0.00574764,-0.00880033,0.0119921,-4.58905e-05,-1.27092e-05,0.0142954,0.015920298783496545,0.012064293526577341,-4.5889447047087195e-05,-0.005731153917693299,-1.2709119238452082e-05,-0.008761720437919007
40,59.47,608.706,44.8501,-3.52272e-05,165.241,-0.760624,-0.202843,0.0166965,-0.00609718,-0.00934089,0.0126862,-4.96265e-05,-1.37487e-05,0.0152623,0.016836665560948427,0.012767011202670986,-4.9625268625619334e-05,-0.0060786299182344905,-1.3748605487085008e-05,-0.009297399405963525
41,62.56,613.968,45.2629,-3.93191e-05,166.716,-0.780997,-0.208253,0.017597,-0.00644651,-0.00988123,0.0133798,-5.34107e-05,-1.48018e-05,0.0162295,0.017752739378618543,0.01346971006943698,-5.340927367392112e-05,-0.006425775832673786,-1.4801690453869476e-05,-0.009832571048824734
42,65.65,619.01,45.6583,-4.35783e-05,168.129,-0.800284,-0.213374,0.0184967,-0.00679562,-0.0104213,0.0140729,-5.72394e-05,-1.58674e-05,0.0171969,0.018668823556910796,0.014172389410882058,-5.723776185684315e-05,-0.006772581989801685,-1.586727411351241e-05,-0.010367186394328987
43,68.74,623.85,46.038,-4.79982e-05,169.486,-0.818588,-0.218233,0.0193954,-0.0071445,-0.0109611,0.0147655,-6.11096e-05,-1.69447e-05,0.0181643,0.019584712721793407,0.014875048510545552,-6.110773284639937e-05,-0.007119038731968841,-1.6944556439413283e-05,-0.010901246031449263
44,71.83,628.505,46.4033,-5.25728e-05,170.791,-0.835999,-0.222855,0.0202933,-0.00749314,-0.0115006,0.0154576,-6.50184e-05,-1.80327e-05,0.0191318,0.020500608965430267,0.015577686651501166,-6.501628634958401e-05,-0.007465136415051532,-1.8032537411838412e-05,-0.011434720891432382
45,74.92,632.99,46.7552,-5.72959e-05,172.049,-0.852595,-0.227259,0.0211901,-0.00784153,-0.0120398,0.0161491,-6.89631e-05,-1.91308e-05,0.0200991,0.021416204403180705,0.01628020148833209,-6.896072210005322e-05,-0.007810865408416912,-1.9130617007423467e-05,-0.011967611609679074
46,78.01,637.318,47.0947,-6.2162e-05,173.262,-0.868446,-0.231465,0.0220861,-0.00818965,-0.0125787,0.0168401,-7.29414e-05,-2.02384e-05,0.0210663,0.022331803449443965,0.016982693790698722,-7.293873984071109e-05,-0.008156206176449188,-2.0238195204913545e-05,-0.012499918820722433
47,81.1,641.499,47.4229,-6.71656e-05,174.434,-0.883611,-0.235488,0.0229812,-0.00853752,-0.0131172,0.0175306,-7.69512e-05,-2.13547e-05,0.0220333,0.02324730231710448,0.017685162840289648,-7.694823933235284e-05,-0.00850117887070223,-2.1354471990031598e-05,-0.013031544461386768
48,84.19,645.544,47.7404,-7.23019e-05,175.568,-0.898144,-0.239343,0.0238753,-0.00888511,-0.0136554,0.0182205,-8.09905e-05,-2.24793e-05,0.023,0.024162596851552864,0.0183875060795764,-8.098722035798644e-05,-0.008845754057024702,-2.247904734242745e-05,-0.013562587967531625
49,87.28,649.462,48.048,-7.7566e-05,176.667,-0.912093,-0.243043,0.0247686,-0.00923242,-0.0141932,0.0189099,-8.50574e-05,-2.36116e-05,0.0239664,0.0250778900541635,0.019089824487606766,-8.505378272183339e-05,-0.009189932066491213,-2.361132124839571e-05,-0.014092951380218044
50,90.37,653.261,48.3463,-8.29537e-05,177.733,-0.925501,-0.246599,0.0256609,-0.00957945,-0.0147306,0.0195987,-8.91503e-05,-2.47512e-05,0.0249324,0.025992975260007656,0.01979201536548958,-8.914632623002738e-05,-0.009533713229727625,-2.475089369158301e-05,-0.014622635489278446
51,93.46,656.949,48.6359,-8.84608e-05,178.767,-0.938406,-0.250021,0.0265524,-0.0099262,-0.0152676,0.0202869,-9.32677e-05,-2.58976e-05,0.0258981,0.026908055834011124,0.02049407778243273,-9.326335070325431e-05,-0.009877097876911378,-2.5897264660068586e-05,-0.015151641083306466
52,96.55,660.533,48.9174,-9.40836e-05,179.772,-0.950843,-0.253318,0.0274429,-0.0102727,-0.0158043,0.0209746,-9.74081e-05,-2.70505e-05,0.0268634,0.027822924742655797,0.021196112926840094,-9.740335598507066e-05,-0.01022011603116979,-2.7050134138506543e-05,-0.015680067381655505
53,99.64,664.018,49.1912,-9.98185e-05,180.75,-0.962842,-0.256499,0.0283326,-0.0106188,-0.0163405,0.0216617,-0.00010157,-2.82094e-05,0.0278282,0.028737785714354924,0.02189801788786694,-0.00010156484194212556,-0.010562619575354315,-2.820900211863986e-05,-0.0162077182536845
54,102.7,667.41,49.4578,-0.000105662,181.702,-0.974431,-0.259571,0.0292213,-0.0109647,-0.0168763,0.0223483,-0.000105753,-2.9374e-05,0.0287925,0.029652431347108266,0.022599893993442643,-0.00010574740834856655,-0.010904806780554166,-2.9373568588231258e-05,-0.01673469296911101
55,105.8,670.715,49.7175,-0.000111612,182.629,-0.985638,-0.262542,0.0301092,-0.0113103,-0.0174117,0.0230343,-0.000109955,-3.0544e-05,0.0297563,0.0305670657327477,0.023301638191462137,-0.0001099489551704691,-0.011246579017686442,-3.054353353681982e-05,-0.017260992311589063
56,108.9,673.936,49.9708,-0.000117664,183.533,-0.996484,-0.265417,0.0309961,-0.0116556,-0.0179467,0.0237197,-0.000114175,-3.17191e-05,0.0307196,0.0314814811009021,0.02400324954902433,-0.00011416848228273935,-0.011587936635167329,-3.171859695461077e-05,-0.01778661706354423
57,112.0,677.079,50.2179,-0.000123816,184.415,-1.00699,-0.268201,0.0318822,-0.0120005,-0.0184813,0.0244045,-0.000118412,-3.28991e-05,0.0316824,0.032395881906752244,0.02470472713282712,-0.00011840498957582657,-0.01192878117380225,-3.2898558830485314e-05,-0.018311568006172396
58,115.1,680.147,50.4593,-0.000130066,185.276,-1.01718,-0.270901,0.0327674,-0.0123452,-0.0190155,0.0250888,-0.000122666,-3.40836e-05,0.0326446,0.03331016334267867,0.025406172549781614,-0.00012265847683379238,-0.01226931062930825,-3.408301916074663e-05,-0.018835845919445204
59,118.2,683.144,50.6951,-0.00013641,186.117,-1.02707,-0.273521,0.0336517,-0.0126896,-0.0195492,0.0257725,-0.000126936,-3.52724e-05,0.0336062,0.034224323656533606,0.02610748246542971,-0.000126927943966737,-0.01260942650741148,-3.527177793616332e-05,-0.01935935351804907
60,121.3,686.074,50.9256,-0.000142848,186.94,-1.03667,-0.276065,0.0345351,-0.0130336,-0.0200825,0.0264556,-0.00013122,-3.64653e-05,0.0345672,0.035138361094945614,0.026808655945238513,-0.0001312113910323376,-0.012949030449466048,-3.646463514905829e-05,-0.019882189748145596
61,124.4,688.939,51.1511,-0.000149376,187.744,-1.046,-0.278538,0.0354177,-0.0133774,-0.0206153,0.0271381,-0.000135518,-3.76622e-05,0.0355276,0.036052377508558164,0.02750969205428122,-0.00013550881785062696,-0.013288320245539498,-3.766149078821002e-05,-0.02040425742626817
62,127.4,691.742,51.3718,-0.000155992,188.532,-1.05508,-0.280943,0.0362994,-0.0137208,-0.0211477,0.02782,-0.000139829,-3.88626e-05,0.0364874,0.036966267719102275,0.028210589857239787,-0.00013981922438099925,-0.01362709886474911,-3.88618448589062e-05,-0.020925655391160203
63,130.5,694.487,51.588,-0.000162695,189.302,-1.06391,-0.283284,0.0371802,-0.014064,-0.0216797,0.0285014,-0.000144153,-4.00666e-05,0.0374465,0.03788002996952877,0.02891145130954742,-0.00014414261045547772,-0.013965563960486205,-4.0065797344501775e-05,-0.021446384416289987
64,133.6,697.175,51.7998,-0.000169483,190.058,-1.07252,-0.285564,0.0380601,-0.0144068,-0.0222112,0.0291822,-0.000148489,-4.12739e-05,0.038405,0.038793662501585,0.029612172724103658,-0.0001484779760539956,-0.014303518636419543,-4.127304824430578e-05,-0.021966347470550485
65,136.7,699.81,52.0074,-0.000176355,190.798,-1.08091,-0.287785,0.0389392,-0.0147493,-0.0227423,0.0298624,-0.000152836,-4.24844e-05,0.0393629,0.0397072675265413,0.030312753164386752,-0.00015282432117347255,-0.014641061873707506,-4.2483497550649396e-05,-0.022485643232213137
66,139.8,702.393,52.211,-0.000183307,191.524,-1.08908,-0.289952,0.0398174,-0.0150915,-0.0232729,0.030542,-0.000157194,-4.36978e-05,0.04032,0.04062073949571654,0.031013191693491038,-0.00015718164567046777,-0.01497819401573508,-4.369684526506212e-05,-0.02300417477133121
67,142.9,704.926,52.4107,-0.00019034,192.236,-1.09706,-0.292066,0.0406947,-0.0154334,-0.0238031,0.031221,-0.000161563,-4.49141e-05,0.0412765,0.04153407664723807,0.03171348737412938,-0.0001615499494013184,-0.015314915405399532,-4.4913091376885816e-05,-0.02352204065948904
68,146.0,707.412,52.6068,-0.000197451,192.934,-1.10486,-0.294129,0.0415712,-0.015775,-0.0243328,0.0318994,-0.000165941,-4.61331e-05,0.0422323,0.04244738146278415,0.032413639268634054,-0.00016592723255370867,-0.015651226385111183,-4.613203588488268e-05,-0.024039144067623197
69,149.1,709.852,52.7993,-0.000204639,193.62,-1.11246,-0.296145,0.0424468,-0.0161163,-0.0248621,0.0325773,-0.000170328,-4.73547e-05,0.0431874,0.04336054811601198,0.03311374975033088,-0.00017031349500973292,-0.015987127296794745,-4.735357878393742e-05,-0.02455558346092579
70,152.2,712.248,52.9884,-0.000211903,194.294,-1.1199,-0.298114,0.0433215,-0.0164572,-0.0253909,0.0332546,-0.000174724,-4.85787e-05,0.0441418,0.044273574841474206,0.033813714709411746,-0.00017470873665081932,-0.016322520114145478,-4.857752007403349e-05,-0.02507126211094013
71,155.3,714.602,53.1742,-0.000219242,194.956,-1.12717,-0.30004,0.0441954,-0.0167979,-0.0259193,0.0339312,-0.000179128,-4.9805e-05,0.0450955,0.04518656439120772,0.03451342975569105,-0.00017911195753761433,-0.016657601947111078,-4.980375975160989e-05,-0.025586278376760085
72,158.3,716.915,53.3568,-0.000226654,195.606,-1.13429,-0.301924,0.0450685,-0.0171382,-0.0264472,0.0346073,-0.000183541,-5.10336e-05,0.0460485,0.04609951527128886,0.035213100782687023,-0.0001835241573809876,-0.016992176434090678,-5.103229780800689e-05,-0.02610053563026027
73,161.4,719.189,53.5364,-0.000234138,196.246,-1.14125,-0.303768,0.0459407,-0.0174782,-0.0269746,0.0352828,-0.000187961,-5.22643e-05,0.0470007,0.04701232128534438,0.03591262346945401,-0.0001879433364379013,-0.01732634228268981,-5.226293424520634e-05,-0.026614034786138885
74,164.5,721.425,53.713,-0.000241693,196.875,-1.14806,-0.305573,0.046812,-0.0178179,-0.0275016,0.0359578,-0.000192388,-5.34969e-05,0.0479523,0.04792498066320028,0.03661210053724795,-0.00019236949461542974,-0.017660099832287002,-5.3495469066300316e-05,-0.02712687404479286
75,167.6,723.624,53.8868,-0.000249319,197.493,-1.15474,-0.307341,0.0476825,-0.0181573,-0.0280281,0.0366321,-0.000196822,-5.47315e-05,0.0489031,0.04883759651728847,0.037311323793267404,-0.0001968026318207583,-0.01799344942177883,-5.4730002258751576e-05,-0.027638956927960034
76,170.7,725.788,54.0579,-0.000257013,198.102,-1.16128,-0.309074,0.0485521,-0.0184963,-0.0285542,0.0373058,-0.000201263,-5.59679e-05,0.0498531,0.04975006237387358,0.03801039588810151,-0.00020124274796107233,-0.018326293222212908,-5.5966333826318326e-05,-0.02815038153068239
77,173.8,727.917,54.2263,-0.000264775,198.702,-1.1677,-0.310773,0.0494209,-0.0188351,-0.0290798,0.037979,-0.00020571,-5.7206e-05,0.0508025,0.050662481525551195,0.03870941975164577,-0.00020568884314864366,-0.01865882793950746,-5.7204363767993094e-05,-0.0286610514743324
78,176.9,730.014,54.3921,-0.000272605,199.292,-1.17399,-0.312439,0.0502888,-0.0191735,-0.029605,0.0386516,-0.000210163,-5.84457e-05,0.051751,0.051574747313742675,0.039408290711327565,-0.00021014091730364726,-0.018990857609543887,-5.8443992083323515e-05,-0.029171064748888864
79,180.0,732.078,54.5555,-0.000280501,199.873,-1.18016,-0.314073,0.0511559,-0.0195117,-0.0301297,0.0393236,-0.000214621,-5.9687e-05,0.0526989,0.05248696321118551,0.04010700782534182,-0.00021459797056067043,-0.01932257880428445,-5.968521876642541e-05,-0.029680325075085
80,183.1,734.112,54.7164,-0.000288463,200.445,-1.18622,-0.315677,0.0520222,-0.0198495,-0.0306539,0.039995,-0.000219085,-6.09298e-05,0.0536459,0.053399127714423456,0.040805570151527526,-0.00021906100263380246,-0.019653795691482512,-6.092794381740152e-05,-0.0301888333570155
81,186.2,736.115,54.875,-0.00029649,201.01,-1.19216,-0.317252,0.0528876,-0.020187,-0.0311776,0.0406658,-0.000223554,-6.21741e-05,0.0545923,0.05431113388770026,0.04150397674736861,-0.00022352901366640143,-0.019984606707937558,-6.217216723070074e-05,-0.03069659049717466
82,189.2,738.09,55.0314,-0.000304581,201.566,-1.19801,-0.318799,0.0537522,-0.0205242,-0.0317009,0.041336,-0.000228028,-6.34196e-05,0.0555378,0.055223085473921074,0.042202226669997955,-0.0002280020035915209,-0.020315012189060844,-6.341758901962091e-05,-0.031203694276091376
83,192.3,740.036,55.1856,-0.000312735,202.114,-1.20374,-0.320318,0.054616,-0.020861,-0.0322238,0.0420056,-0.000232506,-6.46664e-05,0.0564826,0.05613498096611558,0.04290031897619673,-0.00023247897257461236,-0.020644914534282077,-6.466430917340116e-05,-0.03171014544115758
84,195.4,741.955,55.3376,-0.000320951,202.654,-1.20938,-0.321812,0.0554789,-0.0211976,-0.0327461,0.0426747,-0.000236989,-6.59145e-05,0.0574267,0.05704671315146981,0.04359835708223003,-0.0002369609203251022,-0.020974509982023992,-6.591232768704547e-05,-0.032215751181760566
85,198.5,743.847,55.4876,-0.00032923,203.188,-1.21493,-0.32328,0.056341,-0.0215339,-0.033268,0.0433432,-0.000241476,-6.71637e-05,0.0583699,0.05795838604301351,0.04429623582391895,-0.00024144684701732366,-0.021303700897762123,-6.716144456919704e-05,-0.032720706001796884
86,201.6,745.713,55.6356,-0.00033757,203.714,-1.22038,-0.324724,0.0572022,-0.0218698,-0.0337895,0.0440111,-0.000245967,-6.8414e-05,0.0593125,0.0588698922433073,0.04499395425695951,-0.000245936752597431,-0.021632389778242556,-6.841165981563702e-05,-0.03322501064475214
87,204.7,747.554,55.7816,-0.000345971,204.232,-1.22574,-0.326144,0.0580626,-0.0222054,-0.0343105,0.0446784,-0.000250462,-6.96653e-05,0.0602542,0.05978133594544688,0.04569151143670358,-0.00025043063701168933,-0.021960674858915175,-6.966287342935473e-05,-0.03372856922580514
88,207.8,749.371,55.9257,-0.000354432,204.745,-1.23102,-0.327541,0.0589222,-0.0225407,-0.034831,0.0453451,-0.00025496,-7.09176e-05,0.0611951,0.060692715636697425,0.04638890641816329,-0.0002549275004611884,-0.02228855647221084,-7.09150854064644e-05,-0.03423138263698111
89,210.9,751.164,56.068,-0.000362953,205.25,-1.23621,-0.328917,0.059781,-0.0228757,-0.035351,0.0460112,-0.000259462,-7.21709e-05,0.0621353,0.061604029803178806,0.0470861382560126,-0.0002594283426462507,-0.022616034950085018,-7.216829574319128e-05,-0.03473345176872211
90,214.0,752.933,56.2085,-0.000371532,205.749,-1.24132,-0.330271,0.060639,-0.0232104,-0.0358706,0.0466768,-0.000263967,-7.3425e-05,0.0630747,0.06251527692986492,0.0477833107829142,-0.00026393216377662565,-0.02294311062401977,-7.342230445062103e-05,-0.03523487398640979
91,217.1,754.681,56.3473,-0.000380171,206.242,-1.24636,-0.331604,0.0614961,-0.0235448,-0.0363898,0.0473418,-0.000268475,-7.468e-05,0.0640134,0.06342634915795053,0.04848031841393596,-0.0002684389638121232,-0.02326978382502365,-7.467721151821483e-05,-0.0357356500271262
92,220.1,756.406,56.4843,-0.000388868,206.729,-1.25132,-0.332918,0.0623524,-0.0238788,-0.0369084,0.0480062,-0.000272986,-7.59358e-05,0.0649512,0.06433735113056316,0.04917716020269869,-0.00027294874271222014,-0.023595957243232935,-7.59329169500722e-05,-0.036235587873934105
93,223.2,758.11,56.6197,-0.000397622,207.209,-1.25621,-0.334212,0.0632079,-0.0242126,-0.0374266,0.04867,-0.0002775,-7.71923e-05,0.0658883,0.06524828132929006,0.04987383520249211,-0.00027746150043628237,-0.023921826522096845,-7.718932075106988e-05,-0.036734881214220194
94,226.3,759.793,56.7535,-0.000406434,207.684,-1.26102,-0.335488,0.0640626,-0.024546,-0.0379444,0.0493332,-0.000282016,-7.84496e-05,0.0668246,0.06615913823459163,0.05057034246627823,-0.00028197623722581167,-0.024247196742904764,-7.844652291055798e-05,-0.037233530781213164
95,229.4,761.456,56.8857,-0.000415302,208.154,-1.26577,-0.336745,0.0649164,-0.0248791,-0.0384616,0.0499959,-0.000286535,-7.97075e-05,0.0677601,0.06706981361881614,0.05126678617336489,-0.0002864939527674748,-0.02457216587505595,-7.97043234416206e-05,-0.037731344853277005
96,232.5,763.099,57.0164,-0.000424228,208.617,-1.27045,-0.337985,0.0657695,-0.0252119,-0.0389785,0.0506579,-0.000291056,-8.0966e-05,0.0686949,0.06798051928308246,0.051962955192332405,-0.00029101364731154433,-0.024896734247079944,-8.096272234181523e-05,-0.038228612991100364
97,235.6,764.723,57.1456,-0.000433209,209.076,-1.27507,-0.339208,0.0666217,-0.0255444,-0.0394948,0.0513194,-0.000295579,-8.22252e-05,0.0696288,0.06889104019947312,0.05265905889810951,-0.00029553532083104184,-0.02522090218703621,-8.222181960082509e-05,-0.038725047392644596
98,238.7,766.328,57.2733,-0.000442246,209.529,-1.27963,-0.340415,0.0674732,-0.0258766,-0.0400107,0.0519803,-0.000300104,-8.34849e-05,0.070562,0.06980158853113894,0.05335499121563836,-0.0003000589732989889,-0.025544670022514704,-8.348141523273345e-05,-0.03922084123967551
99,241.8,767.915,57.3996,-0.000451338,209.977,-1.28412,-0.341605,0.0683238,-0.0262085,-0.0405262,0.0526407,-0.000304631,-8.47451e-05,0.0714943,0.07071194888371268,0.054050856601296715,-0.00030458460468818505,-0.025868038080636646,-8.474150923543089e-05,-0.03971599525910274
100,244.9,769.483,57.5246,-0.000460485,210.42,-1.28856,-0.34278,0.0691736,-0.0265401,-0.0410411,0.0533004,-0.00030916,-8.60058e-05,0.0724259,0.07162222662010387,0.05474644336546408,-0.0003091122149717629,-0.026191006688054408,-8.600210160714106e-05,-0.04021031821877641
101,248.0,771.035,57.6481,-0.000469687,210.858,-1.29293,-0.34394,0.0700226,-0.0268714,-0.0415556,0.0539596,-0.000313691,-8.7267e-05,0.0733567,0.07253242021301198,0.05544196143850133,-0.00031364180412252196,-0.026513576170953512,-8.726319234608759e-05,-0.040704002998752986
102,251.0,772.569,57.7703,-0.000478944,211.291,-1.29726,-0.345085,0.0708708,-0.0272023,-0.0420697,0.0546182,-0.000318223,-8.85286e-05,0.0742867,0.07344252813404184,0.0561373044656297,-0.000318172372431591,-0.026835649538621054,-8.85246814591456e-05,-0.04119705032213761
103,254.1,774.086,57.8913,-0.000488254,211.72,-1.30153,-0.346216,0.0717182,-0.027533,-0.0425833,0.0552763,-0.000322757,-8.97906e-05,0.075216,0.07435254885370535,0.056832577180091715,-0.00032270491956276626,-0.027157421781345836,-8.978656894464976e-05,-0.041689365079840224
104,257.2,775.587,58.0109,-0.000497619,212.144,-1.30574,-0.347333,0.0725648,-0.0278634,-0.0430964,0.0559337,-0.000327292,-9.1053e-05,0.0761444,0.07526248084142728,0.05752756733456388,-0.00032723844581628025,-0.02747879587526536,-9.104885480137881e-05,-0.04218094814019857
105,260.3,777.072,58.1293,-0.000507037,212.564,-1.30991,-0.348437,0.0734106,-0.0281934,-0.0436091,0.0565906,-0.000331828,-9.23158e-05,0.077072,0.07617232256554796,0.05822248541440023,-0.00033177295117836625,-0.02779967492467139,-9.231153902766742e-05,-0.042671896102822626
106,263.4,778.541,58.2466,-0.000516508,212.979,-1.31403,-0.349528,0.0742556,-0.0285231,-0.0441213,0.0572469,-0.000336366,-9.35789e-05,0.0779989,0.07708207249332832,0.0589172247853651,-0.00033630943529949775,-0.028120156537551733,-9.357452163127888e-05,-0.04316211400211756
107,266.5,779.995,58.3626,-0.000526033,213.39,-1.3181,-0.350606,0.0750998,-0.0288526,-0.0446331,0.0579027,-0.000340905,-9.48423e-05,0.078925,0.07799172909095309,0.05961189045735682,-0.00034084689849323,-0.028440338193148063,-9.4837802611214e-05,-0.04365169833685323
108,269.6,781.434,58.4774,-0.000535611,213.797,-1.32212,-0.351672,0.0759433,-0.0291817,-0.0451444,0.0585578,-0.000345444,-9.61059e-05,0.0798503,0.07890139871366952,0.06030626962585872,-0.000345384341091326,-0.028760025870356087,-9.610128197590218e-05,-0.04414055423683261
109,272.7,782.858,58.5911,-0.000545241,214.2,-1.3261,-0.352725,0.0767859,-0.0295105,-0.0456552,0.0592124,-0.000349985,-9.73698e-05,0.0807748,0.07981086413619987,0.06100057333076614,-0.0003499237623943996,-0.029079317079498512,-9.736505971480458e-05,-0.044628682563140565
110,275.8,784.268,58.7038,-0.000554923,214.599,-1.33003,-0.353767,0.0776277,-0.029839,-0.0461656,0.0598664,-0.000354527,-9.8634e-05,0.0816985,0.08072023162070385,0.06169469465865807,-0.00035446416272921777,-0.02939821214245608,-9.862913582692201e-05,-0.04511617966371706
111,278.9,785.664,58.8153,-0.000564658,214.994,-1.33392,-0.354798,0.0784688,-0.0301672,-0.0466756,0.0605199,-0.000359069,-9.98984e-05,0.0826214,0.08162960779205752,0.06238873889587215,-0.0003590045424419763,-0.02971671138064702,-9.989341032101695e-05,-0.045603046250556334
112,281.9,787.046,58.9257,-0.000574446,215.385,-1.33777,-0.355818,0.079309,-0.0304951,-0.047185,0.0611728,-0.000363612,-0.000101163,0.0835435,0.08253877487613193,0.06308259898947677,-0.00036354590116849383,-0.030034815115027924,-0.00010115788319620123,-0.046089092252369124
113,285.0,788.415,59.0351,-0.000584285,215.772,-1.34158,-0.356827,0.0801485,-0.0308227,-0.0476941,0.0618251,-0.000368156,-0.000102428,0.0844649,0.08344794774955822,0.06377627398630148,-0.0003680882388957807,-0.0303525236660942,-0.00010242275443150817,-0.04657460469782426
114,288.1,789.77,59.1435,-0.000594176,216.156,-1.34534,-0.357825,0.0809872,-0.03115,-0.0482026,0.0624769,-0.0003727,-0.000103693,0.0853854,0.08435701670811557,0.06446986937986865,-0.0003726305559824672,-0.030669837353880514,-0.00010368762406665066,-0.047059298267551286
115,291.2,791.112,59.2509,-0.000604118,216.535,-1.34907,-0.358814,0.0818251,-0.031477,-0.0487107,0.063128,-0.000377245,-0.000104958,0.0863052,0.08526598020949394,0.06516317139179928,-0.00037717385205193743,-0.03098675649796201,-0.00010495249210173974,-0.04754336445067364
116,294.3,792.442,59.3572,-0.000614112,216.912,-1.35276,-0.359792,0.0826622,-0.0318037,-0.0492184,0.0637787,-0.00038179,-0.000106223,0.0872242,0.08617483671034365,0.06585649861697296,-0.0003817171274721476,-0.03130328141745298,-0.00010621735853688641,-0.04802680395303993
117,297.4,793.759,59.4626,-0.000624157,217.285,-1.35642,-0.360761,0.0834986,-0.0321301,-0.0497256,0.0644287,-0.000386336,-0.000107488,0.0881424,0.08708369337464128,0.06654953055205248,-0.00038626138185704484,-0.03161941243101052,-0.00010748222337186863,-0.04850952233034622
118,300.5,795.064,59.5671,-0.000634254,217.654,-1.36004,-0.36172,0.0843341,-0.0324562,-0.0502324,0.0650782,-0.000390882,-0.000108753,0.0890598,0.08799233133110507,0.06724247948295159,-0.0003908056155836892,-0.031935149856831324,-0.00010874708660679744,-0.04899161553169329
119,303.6,796.357,59.6706,-0.000644402,218.02,-1.36363,-0.36267,0.0851689,-0.032782,-0.0507387,0.0657271,-0.000395428,-0.000110019,0.0899764,0.08890096654086865,0.06793523786903788,-0.00039534982865252477,-0.03225049401265567,-0.00011001294813173246,-0.04947298920672094
120,306.7,797.638,59.7733,-0.000654601,218.383,-1.36718,-0.363612,0.0860029,-0.0331075,-0.0512445,0.0663755,-0.000399974,-0.000111284,0.0908922,0.0898094887480636,0.06862791161783344,-0.00039989402106310745,-0.03256544521576532,-0.00011127780816533317,-0.04995364420088466
121,309.0,798.598,59.8502,-0.000666277,218.655,-1.36984,-0.364317,0.0866326,-0.0333532,-0.0516264,0.066865,-0.000403408,-0.00011224,0.0915837,0.09049595789525577,0.06915113302856324,-0.00040332664193332146,-0.03280311468698571,-0.00011223370132684707,-0.05031639763198781
