,Time,S11,S22,S33,S12,S13,S23,LE11,LE22,LE33,LE12,LE13,LE23,SDV_EPBAR,E11,E12,E13,E22,E23,E33
0,0.000309,0.0019383,0.000139163,-7.79048e-12,0.000519365,9.3624e-20,3.36396e-20,9.1292e-09,-2.12864e-09,-3.00057e-09,6.49972e-09,9.45271e-25,4.67314e-25,0.0,9.129200062574228e-09,6.499720095476391e-09,0.0,-2.128640042009522e-09,0.0,-3.0005700146773506e-09
1,0.000618,0.00387659,0.000278327,3.25261e-19,0.00103873,3.61973e-20,-7.40724e-21,1.82584e-08,-4.2578e-09,-6.00057e-09,1.29997e-08,9.27189e-26,4.52981e-25,0.0,1.8258400125148455e-08,1.2999699983140545e-08,0.0,-4.257800001461476e-09,0.0,-6.000569929831556e-09
2,0.0010815,0.00678404,0.000487072,3.25261e-19,0.00181778,-8.55315e-21,3.19208e-20,3.19522e-08,-7.45077e-09,-1.05014e-08,2.27493e-08,2.14063e-25,-7.98907e-25,0.0,3.19522004410544e-08,2.2749300221391877e-08,0.0,-7.45077000097183e-09,0.0,-1.0501399971829528e-08
3,0.0017767,0.0111452,0.00080019,7.58942e-19,0.00298635,8.55315e-21,-3.19208e-20,5.24927e-08,-1.22421e-08,-1.72507e-08,3.73747e-08,4.28159e-25,-1.59792e-24,0.0,5.249270129681349e-08,3.737470066766946e-08,0.0,-1.2242099889370195e-08,0.0,-1.725069986857619e-08
4,0.0028196,0.017687,0.00126987,-2.27682e-18,0.00473921,-1.65988e-27,-4.44764e-28,8.33037e-08,-1.94275e-08,-2.73762e-08,5.93119e-08,1.2845e-24,-4.79383e-24,0.0,8.33037034908557e-08,5.931190183439128e-08,0.0,-1.9427499831081718e-08,0.0,-2.7376199640549714e-08
5,0.0043839,0.0274996,0.00197438,-4.01155e-18,0.00736849,1.71063e-20,-6.38416e-20,1.2952e-07,-3.02058e-08,-4.25643e-08,9.22178e-08,-1.48338e-24,-7.24799e-24,0.0,1.295200084960868e-07,9.221780428170234e-08,0.0,-3.0205799528282284e-08,0.0,-4.256429908533477e-08
6,0.0067304,0.0422185,0.00303115,-4.01155e-18,0.0113124,1.74418e-19,1.1516e-19,1.98845e-07,-4.63759e-08,-6.53437e-08,1.41578e-07,3.19598e-24,8.5636e-25,0.0,1.9884501978317815e-07,1.4157800998226833e-07,0.0,-4.637589889888716e-08,0.0,-6.534369789701344e-08
7,0.01025,0.0642969,0.00461631,8.13152e-18,0.0172283,2.08631e-19,-1.25227e-20,3.02832e-07,-7.06269e-08,-9.95172e-08,2.15616e-07,2.29126e-25,-1.36391e-23,0.0,3.0283204588421597e-07,2.156160232580362e-07,0.0,-7.062689755255036e-08,0.0,-9.951719504019962e-08
8,0.01553,0.0974145,0.00699405,2.92735e-18,0.0261021,-1.49373e-19,3.02101e-19,4.58812e-07,-1.07003e-07,-1.50778e-07,3.26673e-07,-3.42531e-24,1.27835e-23,0.0,4.5881210519738147e-07,3.266730532747175e-07,0.0,-1.0700299424293291e-07,0.0,-1.5077798865004155e-07
9,0.023449,0.147091,0.0105607,6.39679e-18,0.0394129,6.16725e-19,5.07377e-19,6.92782e-07,-1.61575e-07,-2.2766e-07,4.93263e-07,1.27839e-23,3.42544e-24,0.0,6.927822400193406e-07,4.932631216814087e-07,0.0,-1.6157498694546746e-07,0.0,-2.2765997409468497e-07
10,0.035328,0.221605,0.0159106,-7.48099e-18,0.059379,8.22001e-19,-2.58722e-19,1.04374e-06,-2.43427e-07,-3.4299e-07,7.43145e-07,1.27839e-23,3.42544e-24,0.0,1.0437405446594994e-06,7.43145276205226e-07,0.0,-2.4342697035883987e-07,0.0,-3.429899412266124e-07
11,0.053146,0.333377,0.0239354,-3.52366e-17,0.0893282,1.43291e-18,1.54718e-18,1.57017e-06,-3.66206e-07,-5.15985e-07,1.11797e-06,-4.82329e-29,-1.2924e-29,0.0,1.570171232812001e-06,1.1179706249642152e-06,0.0,-3.662059329112566e-07,0.0,-5.159848668334632e-07
12,0.079874,0.501035,0.0359727,-2.13588e-17,0.134252,1.15921e-18,2.56864e-18,2.35982e-06,-5.50367e-07,-7.75483e-07,1.6802e-06,-4.1105e-23,1.53406e-22,0.0,2.3598227842924757e-06,1.6802014115580022e-06,0.0,-5.503668485395963e-07,0.0,-7.754826992778519e-07
13,0.12,0.752521,0.0540286,-7.48099e-18,0.201637,2.25401e-18,-1.51722e-18,3.54429e-06,-8.26616e-07,-1.16472e-06,2.52354e-06,-1.0888e-28,-2.91744e-29,0.0,3.544296280910686e-06,2.523543184196342e-06,0.0,-8.266156583669471e-07,0.0,-1.1647193217667606e-06
14,0.1801,1.12975,0.0811124,2.02746e-17,0.302715,9.8783e-18,2.71531e-18,5.321e-06,-1.241e-06,-1.74857e-06,3.78857e-06,1.53406e-22,4.11051e-23,0.0,5.321014156622894e-06,3.788577176644381e-06,0.0,-1.2409992299344808e-06,0.0,-1.7485684712381655e-06
15,0.2703,1.69559,0.121738,-7.48099e-18,0.454332,-5.51699e-18,2.96936e-18,7.98605e-06,-1.86256e-06,-2.62435e-06,5.6861e-06,6.26956e-28,1.67992e-28,0.0,7.986081888677887e-06,5.686116165914967e-06,0.0,-1.862558265397496e-06,0.0,-2.6243465564013135e-06
16,0.4056,2.54435,0.182676,4.92119e-16,0.681756,-3.36327e-19,-2.16935e-20,1.19836e-05,-2.79488e-06,-3.93804e-06,8.53236e-06,2.19228e-22,-8.18169e-22,0.0,1.1983671803550422e-05,8.532396400751097e-06,0.0,-2.7948760943363737e-06,0.0,-3.938032245964784e-06
17,0.6086,3.81748,0.274083,3.81097e-16,1.02289,-3.36325e-19,-2.16927e-20,1.79799e-05,-4.19337e-06,-5.90853e-06,1.28018e-05,9.49301e-23,4.63893e-22,0.0,1.79800616393333e-05,1.2801881943413917e-05,0.0,-4.1933612078270954e-06,0.0,-5.908512544672284e-06
18,0.913,5.72716,0.411192,4.92119e-16,1.53459,3.23501e-17,8.73662e-18,2.69743e-05,-6.2911e-06,-8.86425e-06,1.92058e-05,4.09074e-22,1.09611e-22,0.0,2.697466380974234e-05,1.920598443261312e-05,0.0,-6.291080211107136e-06,0.0,-8.864210712666853e-06
19,1.37,8.59165,0.616853,-1.28424e-15,2.30213,-3.36733e-19,-2.18022e-20,4.04657e-05,-9.43765e-06,-1.32978e-05,2.88117e-05,4.38461e-22,-1.63636e-21,0.0,4.0466518747450664e-05,2.8812115061116472e-05,0.0,-9.4376054655676e-06,0.0,-1.3297711584647764e-05
20,2.055,12.8883,0.925338,-5.059e-15,3.45341,6.94144e-17,1.1511e-18,6.07025e-05,-1.41574e-05,-1.99479e-05,4.32204e-05,-7.0378e-26,-1.88577e-26,0.0,6.070434243410361e-05,4.322133401490902e-05,0.0,-1.4157299784489652e-05,0.0,-1.994770104196686e-05
21,3.082,19.3331,1.38805,-2.81516e-14,5.18029,7.817e-17,-3.15365e-17,9.10568e-05,-2.12368e-05,-2.99229e-05,6.48327e-05,8.76832e-22,-3.2728e-21,0.0,9.106094579625079e-05,6.483480168495426e-05,0.0,-2.123657450070482e-05,0.0,-2.992245231447921e-05
22,4.623,116.413,8.35811,-1.03265e-09,31.1929,9.83292e-16,7.71529e-16,0.000548295,-0.000127877,-0.000180179,0.000390388,3.49743e-21,-1.3096e-20,0.0,0.0005484453411794821,0.0003904642113123913,0.0,-0.00012786882408488687,0.0,-0.00018016276873877857
23,6.935,262.609,18.8545,-9.04826e-07,70.3658,1.26247e-15,-2.74743e-16,0.00123686,-0.000288468,-0.000406453,0.000880648,1.40118e-20,-5.23908e-20,0.0,0.0012376252267900512,0.0008810358843047705,0.0,-0.0002884263971069112,0.0,-0.00040637040916957634
24,10.03,446.442,32.093,0.0024551,119.702,-0.011831,-0.00316835,0.00215605,-0.000511257,-0.000723404,0.00153874,-1.52646e-07,-4.09353e-08,5.88495e-05,0.0021583759471202058,0.0015399244678453439,-1.5264598840492027e-07,-0.000511126330409506,-4.093529915039085e-08,-0.0007231424064094716
25,13.12,468.018,33.7942,8.43846e-05,125.763,-0.12152,-0.0325173,0.00307237,-0.000855009,-0.00125116,0.00223592,-2.1962e-06,-5.96153e-07,0.000956954,0.0030770945660076876,0.0022384215331852086,-2.1961975883444396e-06,-0.0008546435839569266,-5.961528223297208e-07,-0.001250377625653054
26,16.21,485.784,35.1936,7.81572e-05,130.755,-0.211146,-0.0564725,0.00398763,-0.00120119,-0.00178333,0.00293366,-4.46314e-06,-1.21666e-06,0.00187392,0.003995591175064428,0.0029379673916087867,-4.4631300402109275e-06,-0.0012004688600627533,-1.2166592598950032e-06,-0.0017817408118782074
27,19.3,500.928,36.3859,3.14315e-05,135.009,-0.286058,-0.0764781,0.00490184,-0.00154889,-0.00231839,0.00363167,-6.92545e-06,-1.89386e-06,0.00280355,0.004913873672036662,0.0036382725037800157,-6.925426019099845e-06,-0.0015476910889575812,-1.8938582067029586e-06,-0.0023157046095655387
28,22.39,514.155,37.4267,1.23189e-05,138.723,-0.350069,-0.09356,0.00581502,-0.00189758,-0.00285541,0.00432977,-9.5616e-06,-2.62116e-06,0.00374217,0.005831960048455986,0.00433915699708276,-9.561554287995655e-06,-0.00189578073333585,-2.6211565647971113e-06,-0.002851337194298198
29,25.48,525.918,38.3516,3.30176e-06,142.025,-0.405745,-0.108408,0.00672719,-0.00224694,-0.00339379,0.00502781,-1.2352e-05,-3.39269e-06,0.00468742,0.006749868368023382,0.005040470646246131,-1.23519237144043e-05,-0.0022444175199589633,-3.3926842448739336e-06,-0.003388037604032612
30,28.57,536.524,39.1852,-1.88234e-06,145.001,-0.454871,-0.121502,0.00763835,-0.00259673,-0.00393314,0.00572572,-1.52794e-05,-4.20337e-06,0.0056377,0.0076675966132271345,0.005742143264802602,-1.5279283270608346e-05,-0.0025933614130546623,-4.20336116579989e-06,-0.003925415335584215
31,31.66,546.192,39.9447,-5.53299e-06,147.713,-0.498733,-0.133188,0.00854851,-0.00294679,-0.00447316,0.00642341,-1.8329e-05,-5.04885e-06,0.00659187,0.008585152851112277,0.006444084340897938,-1.8328832024905317e-05,-0.0029424524759847914,-5.048837254606475e-06,-0.004463170320502807
32,34.75,555.083,40.6429,-8.5961e-06,150.207,-0.538282,-0.143719,0.00945769,-0.00329702,-0.00501365,0.00712082,-2.14879e-05,-5.92539e-06,0.00754909,0.009502555279156777,0.0071462333241600895,-2.1487669136677212e-05,-0.003291590797928179,-5.925372444925969e-06,-0.005001102634962451
33,37.84,563.32,41.2895,-1.14903e-05,152.517,-0.57424,-0.15329,0.0103659,-0.00364732,-0.00555444,0.00781792,-2.4745e-05,-6.8298e-06,0.00850872,0.010419812062728795,0.0078485597308382,-2.4744693845057952e-05,-0.0036406766077221597,-6.8297766769864765e-06,-0.00553904261927618
34,40.93,570.998,41.8921,-1.44099e-05,154.67,-0.607167,-0.162052,0.0112731,-0.00399763,-0.00609542,0.00851466,-2.80909e-05,-7.75935e-06,0.00947027,0.011336880835731256,0.008551012821511605,-2.8090505454381187e-05,-0.003989650114276655,-7.75931989627221e-06,-0.006076880615083713
35,44.02,578.192,42.4567,-1.74468e-05,156.687,-0.637504,-0.170121,0.0121794,-0.00434789,-0.00663648,0.00921102,-3.15173e-05,-8.71164e-06,0.0104333,0.0122538709221236,0.009253571993462106,-3.151680333512985e-05,-0.004338451610255589,-8.71160205373478e-06,-0.006614507200822017
36,47.11,584.964,42.9879,-2.06432e-05,158.586,-0.665605,-0.177593,0.0130847,-0.00469807,-0.00717755,0.00990696,-3.5017e-05,-9.68463e-06,0.0113976,0.013170679282158204,0.009956196388207106,-3.5016386912056774e-05,-0.004687051331383252,-9.68458310413034e-06,-0.007151852905481371
37,50.2,591.363,43.4899,-2.40174e-05,160.38,-0.691759,-0.184546,0.0139891,-0.00504813,-0.00771856,0.0106025,-3.85836e-05,-1.06765e-05,0.0123629,0.014087405325532432,0.010658905673921915,-3.858285566249453e-05,-0.005035409605488095,-1.0676443006341074e-05,-0.007688848408474724
38,53.29,597.431,43.9659,-2.75751e-05,162.081,-0.716202,-0.191042,0.0148925,-0.00539803,-0.00825946,0.0112975,-4.22115e-05,-1.16857e-05,0.0133288,0.015003945826512766,0.011361557756680796,-4.2210609107140584e-05,-0.005383486816007865,-1.1685631722491152e-05,-0.008225444374908575
39,56.38,603.202,44.4185,-3.13157e-05,163.699,-0.739132,-0.197134,0.0157949,-0.00574777,-0.00880021,0.0119921,-4.58959e-05,-1.27107e-05,0.0142954,0.015920298783496545,0.012064293526577341,-4.5894846799288125e-05,-0.005731283172634827,-1.2710619219369335e-05,-0.00876160148931826
40,59.47,608.706,44.8503,-3.52353e-05,165.241,-0.760714,-0.202867,0.0166965,-0.00609732,-0.00934076,0.0126862,-4.96324e-05,-1.37504e-05,0.0152623,0.016836665560948427,0.012767011202670986,-4.963116833278658e-05,-0.006078769067216494,-1.3750305463688939e-05,-0.009297270614617159
41,62.56,613.968,45.263,-3.93283e-05,166.716,-0.78109,-0.208278,0.017597,-0.00644666,-0.00988109,0.0133798,-5.3417e-05,-1.48036e-05,0.0162295,0.017752739378618543,0.01346971006943698,-5.34155733374897e-05,-0.00642592486879634,-1.4803490427262034e-05,-0.009832432425374793
42,65.65,619.01,45.6585,-4.35884e-05,168.13,-0.800379,-0.2134,0.0184967,-0.00679578,-0.0104212,0.0140729,-5.72462e-05,-1.58693e-05,0.0171969,0.018668823556910796,0.014172389410882058,-5.724456146749546e-05,-0.006772740906175745,-1.5869174083360527e-05,-0.010367087431042643
43,68.74,623.85,46.0382,-4.80095e-05,169.486,-0.818685,-0.218259,0.0193954,-0.00714467,-0.010961,0.0147655,-6.11169e-05,-1.69467e-05,0.0181643,0.019584712721793407,0.014875048510545552,-6.111503240024962e-05,-0.007119207521718018,-1.6946556405494917e-05,-0.010901147121568977
44,71.83,628.505,46.4034,-5.25852e-05,170.792,-0.836098,-0.222881,0.0202933,-0.00749331,-0.0115005,0.0154576,-6.50261e-05,-1.80349e-05,0.0191318,0.020500608965430267,0.015577686651501166,-6.502398584895541e-05,-0.007465305145963885,-1.8034737372163434e-05,-0.011434622034899644
45,74.92,632.99,46.7553,-5.73095e-05,172.049,-0.852696,-0.227286,0.0211902,-0.00784171,-0.0120396,0.0161491,-6.89713e-05,-1.91331e-05,0.0200991,0.021416306544806085,0.01628020148833209,-6.896892153451795e-05,-0.007811044002445033,-1.9132916963426894e-05,-0.011967414003181687
46,78.01,637.318,47.0949,-6.21767e-05,173.262,-0.868549,-0.231492,0.0220861,-0.00818984,-0.0125785,0.0168402,-7.29501e-05,-2.02408e-05,0.0210663,0.022331803449443965,0.01698279548897319,-7.294743920616131e-05,-0.008156394626752217,-2.024059515637333e-05,-0.012499721320686219
47,81.1,641.499,47.423,-6.71816e-05,174.434,-0.883715,-0.235516,0.0229812,-0.00853772,-0.013117,0.0175306,-7.69603e-05,-2.13573e-05,0.0220333,0.02324730231710448,0.017685162840289648,-7.695733863211096e-05,-0.008501377170446522,-2.1357071934513527e-05,-0.013031347067675947
48,84.19,645.544,47.7405,-7.23191e-05,175.569,-0.89825,-0.239371,0.0238753,-0.00888531,-0.0136552,0.0182205,-8.10001e-05,-2.2482e-05,0.023,0.024162596851552864,0.0183875060795764,-8.099681958040339e-05,-0.00884595228785412,-2.2481747281699604e-05,-0.013562390680029512
49,87.28,649.462,48.0481,-7.75845e-05,176.667,-0.912201,-0.243072,0.0247686,-0.00923264,-0.0141929,0.0189099,-8.50675e-05,-2.36144e-05,0.0239664,0.0250778900541635,0.019089824487606766,-8.506388186280134e-05,-0.009190150044682266,-2.3614121182236048e-05,-0.014092655608059168
50,90.37,653.261,48.3464,-8.29735e-05,177.733,-0.92561,-0.246628,0.0256609,-0.00957968,-0.0147304,0.0195987,-8.91609e-05,-2.47542e-05,0.0249324,0.025992975260007656,0.01979201536548958,-8.915692528510544e-05,-0.00953394103694738,-2.4753893617335265e-05,-0.014622438413785854
51,93.46,656.949,48.6361,-8.84819e-05,178.767,-0.938517,-0.25005,0.0265524,-0.00992644,-0.0152674,0.020287,-9.32787e-05,-2.59007e-05,0.0258981,0.026908055834011124,0.020494179831845427,-9.327434967731918e-05,-0.00987733550637937,-2.590036457972289e-05,-0.015151444113614798
52,96.55,660.533,48.9176,-9.41061e-05,179.773,-0.950955,-0.253348,0.0274429,-0.0102729,-0.015804,0.0209747,-9.74196e-05,-2.70537e-05,0.0268634,0.027822924742655797,0.021196215046456413,-9.741485486480794e-05,-0.010220313987126861,-2.705333405195187e-05,-0.015679772085631316
53,99.64,664.018,49.1914,-9.98424e-05,180.75,-0.962955,-0.256529,0.0283326,-0.0106191,-0.0163402,0.0216618,-0.000101582,-2.82127e-05,0.0278282,0.028737785714354924,0.021898120077673777,-0.00010157684072331641,-0.010562916406523737,-2.8212302025543146e-05,-0.016207423115955688
54,102.7,667.41,49.458,-0.000105687,181.702,-0.974546,-0.259602,0.0292213,-0.010965,-0.0168761,0.0223483,-0.000105765,-2.93775e-05,0.0287925,0.029652431347108266,0.022599893993442643,-0.00010575940707957532,-0.010905103509067704,-2.9377068485492153e-05,-0.016734496316029857
55,105.8,670.715,49.7177,-0.000111638,182.629,-0.985754,-0.262573,0.0301092,-0.0113105,-0.0174115,0.0230343,-0.000109968,-3.05476e-05,0.0297563,0.0305670657327477,0.023301638191462137,-0.00010996195374113338,-0.011246776768350952,-3.054713342676152e-05,-0.017260795763767822
56,108.9,673.936,49.971,-0.000117692,183.533,-0.996601,-0.265448,0.0309961,-0.0116558,-0.0179465,0.0237197,-0.000114188,-3.17229e-05,0.0307196,0.0314814811009021,0.02400324954902433,-0.00011418148079844759,-0.011588134317560117,-3.1722396834132915e-05,-0.017786420620847787
57,112.0,677.079,50.2181,-0.000123845,184.415,-1.00711,-0.268233,0.0318822,-0.0120008,-0.018481,0.0244046,-0.000118426,-3.2903e-05,0.0316824,0.032395881906752244,0.024704829603305,-0.00011841898791797867,-0.011929077595123405,-3.2902458702244175e-05,-0.018311273499598713
58,115.1,680.147,50.4594,-0.000130097,185.276,-1.0173,-0.270933,0.0327674,-0.0123455,-0.0190152,0.0250888,-0.000122681,-3.40876e-05,0.0326446,0.03331016334267867,0.025406172549781614,-0.00012267347499383963,-0.01226960694847068,-3.408701902440914e-05,-0.018835551570154818
59,118.2,683.144,50.6952,-0.000136443,186.118,-1.02719,-0.273553,0.0336517,-0.0126899,-0.0195489,0.0257725,-0.000126951,-3.52766e-05,0.0336062,0.034224323656533606,0.02610748246542971,-0.00012694294206272438,-0.012609722724539307,-3.527597778807401e-05,-0.019359059325811057
60,121.3,686.074,50.9258,-0.000142882,186.94,-1.03679,-0.276098,0.0345352,-0.0130339,-0.0200822,0.0264556,-0.000131236,-3.64697e-05,0.0345672,0.03513846460878711,0.026808655945238513,-0.0001312273889327864,-0.012949326564712593,-3.646903498855103e-05,-0.019881895712758446
61,124.4,688.939,51.1513,-0.000149411,187.745,-1.04612,-0.278571,0.0354177,-0.0133777,-0.020615,0.0271382,-0.000135534,-3.76666e-05,0.0355276,0.036052377508558164,0.027509794805255394,-0.00013552481568235297,-0.013288616258999242,-3.766589062248471e-05,-0.020403963547501403
62,127.4,691.742,51.372,-0.000156029,188.532,-1.0552,-0.280976,0.0362994,-0.0137212,-0.0211474,0.0278201,-0.000139846,-3.88672e-05,0.0364874,0.036966267719102275,0.028210692678303895,-0.00013983622200386403,-0.013627493413830738,-3.8866444680207834e-05,-0.02092536166881287
63,130.5,694.487,51.5882,-0.000162734,189.303,-1.06404,-0.283317,0.0371802,-0.0140643,-0.0216794,0.0285015,-0.00014417,-4.00714e-05,0.0374465,0.03788002996952877,0.028911554200697687,-0.00014415960800495675,-0.013965859770772693,-4.007059715216421e-05,-0.02144609085016136
64,133.6,697.175,51.8,-0.000169524,190.058,-1.07265,-0.285597,0.0380601,-0.0144071,-0.0222109,0.0291822,-0.000148507,-4.12788e-05,0.038405,0.038793662501585,0.029612172724103658,-0.00014849597338129072,-0.014303814345319688,-4.12779480420955e-05,-0.021966054060410745
65,136.7,699.81,52.0076,-0.000176397,190.798,-1.08103,-0.287819,0.0389392,-0.0147497,-0.022742,0.0298624,-0.000152854,-4.24894e-05,0.0393629,0.0397072675265413,0.030312753164386752,-0.00015284231842249696,-0.014641456017204124,-4.2488497338233344e-05,-0.022485349977862112
66,139.8,702.392,52.2112,-0.000183351,191.524,-1.08921,-0.289986,0.0398174,-0.0150919,-0.0232726,0.030542,-0.000157213,-4.3703e-05,0.04032,0.04062073949571654,0.031013191693491038,-0.00015720064268387457,-0.01497858802437868,-4.370204503778563e-05,-0.02300388167253975
67,142.9,704.926,52.4109,-0.000190385,192.236,-1.09719,-0.2921,0.0406947,-0.0154338,-0.0238027,0.0312211,-0.000161582,-4.49194e-05,0.0412765,0.04153407664723807,0.03171359054548328,-0.0001615689463316805,-0.015315309279354428,-4.4918391138848435e-05,-0.02352165006822715
68,146.0,707.412,52.607,-0.000197498,192.935,-1.10498,-0.294163,0.0415712,-0.0157754,-0.0243325,0.0318995,-0.00016596,-4.61385e-05,0.0422323,0.04244738146278415,0.03241374251000306,-0.00016594622940091508,-0.01565162012454191,-4.6137435635751345e-05,-0.024038851279322593
69,149.1,709.852,52.7995,-0.000204688,193.62,-1.11259,-0.296179,0.0424468,-0.0161167,-0.0248617,0.0325774,-0.000170348,-4.73603e-05,0.0431874,0.04336054811601198,0.033113853061710774,-0.00017033349160322508,-0.01598752090186495,-4.73591785187244e-05,-0.0245551932830812
70,152.2,712.248,52.9886,-0.000211954,194.294,-1.12003,-0.298149,0.0433216,-0.0164576,-0.0253905,0.0332546,-0.000174744,-4.85844e-05,0.0441418,0.04427367926883674,0.033813714709411746,-0.00017472873315649284,-0.016322913585058663,-4.8583219797171395e-05,-0.025070872139366873
71,155.3,714.602,53.1744,-0.000219294,194.956,-1.1273,-0.300075,0.0441955,-0.0167983,-0.0259189,0.0339313,-0.000179149,-4.98109e-05,0.0450955,0.04518666890986944,0.034513533207039204,-0.0001791329537760289,-0.016657995283991478,-4.980965945766691e-05,-0.025585888611193486
72,158.3,716.915,53.357,-0.000226707,195.606,-1.13442,-0.301959,0.0450685,-0.0171386,-0.0264468,0.0346074,-0.000183562,-5.10396e-05,0.0460485,0.04609951527128886,0.03521320430400232,-0.00018354515352680956,-0.016992569637141464,-5.103829750174871e-05,-0.026100146070396568
73,161.4,719.189,53.5366,-0.000234193,196.246,-1.14138,-0.303803,0.0459407,-0.0174786,-0.0269742,0.0352829,-0.000187983,-5.22704e-05,0.0470007,0.04701232128534438,0.03591272706072157,-0.00018796533230291956,-0.017326735352074185,-5.226903392641091e-05,-0.026613645431675104
74,164.5,721.425,53.7132,-0.00024175,196.875,-1.1482,-0.305608,0.046812,-0.0178183,-0.0275012,0.0359578,-0.000192411,-5.35032e-05,0.0479523,0.04792498066320028,0.03661210053724795,-0.00019239249019065152,-0.0176604927681685,-5.350176872931378e-05,-0.02712648489546443
75,167.6,723.624,53.887,-0.000249377,197.494,-1.15487,-0.307377,0.0476825,-0.0181577,-0.0280277,0.0366322,-0.000196845,-5.47379e-05,0.0489031,0.04883759651728847,0.03731142752440508,-0.0001968256272940616,-0.017993842224320322,-5.473640190845064e-05,-0.02763856798346498
76,170.7,725.788,54.0581,-0.000257073,198.103,-1.16142,-0.30911,0.0485521,-0.0184968,-0.0285538,0.0373059,-0.000201287,-5.59744e-05,0.0498531,0.04975006237387358,0.03801049968914594,-0.0002012667431309234,-0.018326784058943613,-5.597283346248094e-05,-0.02814999279075725
77,173.8,727.917,54.2265,-0.000264838,198.702,-1.16783,-0.310809,0.0494209,-0.0188356,-0.0290794,0.0379791,-0.000205734,-5.72127e-05,0.0508025,0.050662481525551195,0.038709523622592945,-0.0002057128382118023,-0.01865931860997072,-5.721106338463233e-05,-0.02866066293867542
78,176.9,730.014,54.3923,-0.000272669,199.292,-1.17412,-0.312475,0.0502888,-0.019174,-0.0296045,0.0386517,-0.000210187,-5.84526e-05,0.051751,0.051574747313742675,0.03940839465216195,-0.00021016491226000245,-0.0189913481139925,-5.845089167999529e-05,-0.029170579334299895
79,180.0,732.078,54.5557,-0.000280567,199.873,-1.1803,-0.314109,0.0511559,-0.0195122,-0.0301292,0.0393237,-0.000214646,-5.9694e-05,0.0526989,0.05248696321118551,0.04010711183604787,-0.00021462296519536572,-0.019323069142872407,-5.9692218348672554e-05,-0.029679839915126238
80,183.1,734.112,54.7166,-0.000288531,200.446,-1.18635,-0.315714,0.0520222,-0.01985,-0.0306534,0.0399951,-0.000219111,-6.0937e-05,0.0536459,0.053399127714423456,0.040805674232089695,-0.00021908699693795608,-0.019654285864462162,-6.0935143378682e-05,-0.03018834845131091
81,186.2,736.115,54.8753,-0.000296559,201.01,-1.1923,-0.317289,0.0528876,-0.0201875,-0.0311771,0.0406659,-0.00022358,-6.21813e-05,0.0545923,0.05431113388770026,0.04150408089777158,-0.0002235550078543147,-0.01998509671551174,-6.217936678298841e-05,-0.030696105845348653
82,189.2,738.09,55.0316,-0.000304652,201.566,-1.19814,-0.318835,0.0537522,-0.0205247,-0.0317004,0.0413361,-0.000228055,-6.3427e-05,0.0555378,0.055223085473921074,0.04220233089022574,-0.00022802899743512572,-0.020315502031432287,-6.342498855038681e-05,-0.03120320987781733
83,192.3,740.036,55.1858,-0.000312808,202.114,-1.20388,-0.320355,0.054616,-0.0208616,-0.0322232,0.0420057,-0.000232534,-6.4674e-05,0.0564826,0.05613498096611558,0.04290042326623378,-0.00023250696606480492,-0.020645502147157102,-6.467190868197914e-05,-0.03170956446707052
84,195.4,741.955,55.3378,-0.000321026,202.655,-1.20952,-0.321849,0.0554789,-0.0211981,-0.0327456,0.0426748,-0.000237017,-6.59222e-05,0.0574267,0.05704671315146981,0.0435984614420708,-0.00023698891368983954,-0.02097499949464665,-6.592002717953349e-05,-0.03221526728951518
85,198.5,743.847,55.4878,-0.000329307,203.188,-1.21507,-0.323317,0.056341,-0.0215344,-0.0332675,0.0433433,-0.000241505,-6.71716e-05,0.05837,0.05795838604301351,0.044296340253547895,-0.00024147584001488198,-0.021304190245789445,-6.716934403860897e-05,-0.03272022236202887
86,201.6,745.713,55.6358,-0.000337649,203.714,-1.22052,-0.324761,0.0572022,-0.0218703,-0.0337889,0.0440112,-0.000245996,-6.8422e-05,0.0593125,0.0588698922433073,0.04499405875635998,-0.00024596574546476013,-0.02163287896192534,-6.841965926829285e-05,-0.03322443057958435
87,204.7,747.554,55.7818,-0.000346051,204.233,-1.22588,-0.326181,0.0580626,-0.022206,-0.0343099,0.0446785,-0.000250491,-6.96735e-05,0.0602542,0.05978133594544688,0.045691616005860025,-0.0002504596297487893,-0.021961261682334365,-6.96710728580463e-05,-0.03372798946277267
88,207.8,749.371,55.9259,-0.000354514,204.745,-1.23116,-0.327579,0.0589222,-0.0225413,-0.0348304,0.0453452,-0.00025499,-7.09259e-05,0.0611952,0.060692715636697425,0.04638901105705928,-0.0002549574928129017,-0.022289143098900843,-7.092338481784477e-05,-0.03423080317563687
89,210.9,751.164,56.0682,-0.000363037,205.25,-1.23635,-0.328954,0.059781,-0.0228763,-0.0353505,0.0460113,-0.000259493,-7.21793e-05,0.0621353,0.061604029803178806,0.04708624296463171,-0.0002594593346034735,-0.022616621380288082,-7.217669513692737e-05,-0.03473296913532753
90,214.0,752.933,56.2087,-0.000371619,205.75,-1.24147,-0.330308,0.060639,-0.023211,-0.0358701,0.0466769,-0.000263998,-7.34336e-05,0.0630748,0.06251527692986492,0.04778341556125043,-0.0002639631555942934,-0.02294369685797748,-7.343090381917161e-05,-0.0352343916037261
91,217.1,754.681,56.3475,-0.000380259,206.242,-1.2465,-0.331642,0.0614961,-0.0235454,-0.0363892,0.0473419,-0.000268507,-7.46887e-05,0.0640134,0.06342634915795053,0.048480423261973105,-0.00026847095522164466,-0.02327036986297759,-7.4685910868455e-05,-0.03573507146834265
92,220.1,756.406,56.4846,-0.000388958,206.729,-1.25146,-0.332956,0.0623524,-0.0238794,-0.0369078,0.0480063,-0.000273018,-7.59447e-05,0.0649512,0.06433735113056316,0.04917726512042009,-0.0002729807339773016,-0.02359654308548298,-7.594181627423868e-05,-0.03623500961511328
93,223.2,758.11,56.62,-0.000397714,207.21,-1.25635,-0.33425,0.0632079,-0.0242132,-0.037426,0.0486701,-0.000277532,-7.72013e-05,0.0658883,0.06524828132929006,0.049873940189881116,-0.00027749349155703484,-0.02392241216882518,-7.719832005625982e-05,-0.03673430325497551
94,226.3,759.793,56.7537,-0.000406528,207.685,-1.26117,-0.335526,0.0640626,-0.0245466,-0.0379438,0.0493333,-0.000282049,-7.84587e-05,0.0668246,0.06615913823459163,0.05057044752331774,-0.0002820092279200992,-0.02424778219441104,-7.845562219666036e-05,-0.03723295312115826
95,229.4,761.456,56.886,-0.000415399,208.154,-1.26592,-0.336784,0.0649164,-0.0248798,-0.038461,0.049996,-0.000286568,-7.97168e-05,0.0677601,0.06706981361881614,0.05126689130004891,-0.0002865269433126594,-0.024572848674300873,-7.971362270031701e-05,-0.037730767491910955
96,232.5,763.099,57.0167,-0.000424326,208.618,-1.2706,-0.338024,0.0657695,-0.0252126,-0.0389778,0.0506581,-0.00029109,-8.09754e-05,0.0686949,0.06798051928308246,0.051963165584944626,-0.0002910476374164972,-0.02489741681912716,-8.097212158075795e-05,-0.03822793975089378
97,235.6,764.723,57.1458,-0.000433309,209.076,-1.27521,-0.339247,0.0666217,-0.0255451,-0.0394942,0.0513195,-0.000295613,-8.22347e-05,0.0696288,0.06889104019947312,0.05265916416402061,-0.0002955693107822288,-0.02522158453216583,-8.223131881968104e-05,-0.03872447062749995
98,238.7,766.328,57.2736,-0.000442348,209.529,-1.27977,-0.340453,0.0674732,-0.0258773,-0.0400101,0.0519805,-0.000300139,-8.34946e-05,0.070562,0.06980158853113894,0.053355201886657655,-0.0003000939627962884,-0.02554535214100695,-8.349111442285118e-05,-0.03922026477200735
99,241.8,767.915,57.3999,-0.000451442,209.977,-1.28427,-0.341644,0.0683238,-0.0262092,-0.0405255,0.0526408,-0.000304667,-8.47549e-05,0.0714943,0.07071194888371268,0.05405096200638759,-0.0003046205937224933,-0.025868719972771292,-8.475130840490674e-05,-0.03971532306006409
100,244.9,769.483,57.5248,-0.000460592,210.42,-1.2887,-0.342819,0.0691736,-0.0265408,-0.0410405,0.0533006,-0.000309196,-8.60158e-05,0.0724259,0.07162222662010387,0.05474665431477388,-0.0003091482038430904,-0.02619168835411123,-8.601210074710153e-05,-0.040209742344794686
101,248.0,771.034,57.6483,-0.000469796,210.859,-1.29308,-0.343979,0.0700226,-0.0268721,-0.041555,0.0539597,-0.000313727,-8.72771e-05,0.0733567,0.07253242021301198,0.05544206698270271,-0.0003136777928307577,-0.02651425761121151,-8.727329146462903e-05,-0.0407034274209821
102,251.0,772.568,57.7706,-0.000479054,211.292,-1.2974,-0.345124,0.0708708,-0.027203,-0.042069,0.0546184,-0.00031826,-8.85389e-05,0.0742867,0.07344252813404184,0.05613751569311165,-0.0003182093606585168,-0.02683633075342795,-8.853498054728348e-05,-0.04119637915983798
103,254.1,774.086,57.8915,-0.000488367,211.721,-1.30167,-0.346255,0.0717182,-0.0275337,-0.0425826,0.0552764,-0.000322794,-8.98011e-05,0.075216,0.07435254885370535,0.056832682863354744,-0.00032274190762204835,-0.02715810277091213,-8.979706800193998e-05,-0.04168869426216093
104,257.2,775.587,58.0112,-0.000497733,212.145,-1.30589,-0.347373,0.0725648,-0.0278641,-0.0430957,0.0559339,-0.00032733,-9.10636e-05,0.0761444,0.07526248084142728,0.05752777884009852,-0.0003272764333804856,-0.027479476639869937,-9.10594538362508e-05,-0.042180277666627686
105,260.3,777.072,58.1296,-0.000507154,212.564,-1.31006,-0.348476,0.0734106,-0.0281941,-0.0436084,0.0565907,-0.000331867,-9.23265e-05,0.0770721,0.07617232256554796,0.0582225912366543,-0.0003318119382385021,-0.027800355464660753,-9.232223803978812e-05,-0.042671225972915394
106,263.4,778.541,58.2468,-0.000516627,212.98,-1.31418,-0.349567,0.0742556,-0.0285239,-0.0441206,0.0572471,-0.000336405,-9.35897e-05,0.0779989,0.07708207249332832,0.058917436568831194,-0.00033634842218266403,-0.028120934041115597,-9.358532062064828e-05,-0.04316144421536294
107,266.5,779.995,58.3628,-0.000526154,213.391,-1.31824,-0.350645,0.0750998,-0.0288533,-0.0446324,0.0579028,-0.000340944,-9.48533e-05,0.078925,0.07799172909095309,0.05961199641855108,-0.00034088588519931573,-0.02844101828467338,-9.484880156795938e-05,-0.04365102889280781
108,269.6,781.434,58.4777,-0.000535734,213.798,-1.32227,-0.351711,0.0759433,-0.0291824,-0.0451436,0.058558,-0.000345484,-9.61171e-05,0.0798503,0.07890139871366952,0.06030648168713393,-0.0003454243272752455,-0.028760705738099968,-9.611248089946844e-05,-0.04413978954897024
109,272.7,782.858,58.5914,-0.000545366,214.2,-1.32624,-0.352765,0.0767859,-0.0295113,-0.0456545,0.0592126,-0.000350026,-9.73811e-05,0.0807748,0.07981086413619987,0.061000785530902046,-0.00034996474804660505,-0.029080093815734176,-9.737635861450933e-05,-0.04462801380298431
110,275.8,784.268,58.704,-0.000555051,214.599,-1.33018,-0.353807,0.0776277,-0.0298398,-0.0461649,0.0598666,-0.000354568,-9.86454e-05,0.0816985,0.08072023162070385,0.06169490699761826,-0.00035450514819534984,-0.029398988623575817,-9.864053470243217e-05,-0.04511551124480895
111,278.9,785.664,58.8155,-0.000564788,214.994,-1.33407,-0.354838,0.0784688,-0.030168,-0.0466748,0.0605201,-0.00035911,-9.99099e-05,0.0826214,0.08162960779205752,0.06238895137364131,-0.000359045527721813,-0.029717487606967352,-9.990490917211048e-05,-0.04560228273268774
112,281.9,787.046,58.926,-0.000574577,215.385,-1.33792,-0.355858,0.079309,-0.0304959,-0.0471843,0.0611729,-0.000363654,-0.000101175,0.0835435,0.08253877487613193,0.06308270529774207,-0.0003635878858987418,-0.030035591086865487,-0.00010116988198227705,-0.046088424514500015
113,285.0,788.414,59.0354,-0.000584418,215.772,-1.34173,-0.356867,0.0801485,-0.0308235,-0.0476933,0.0618253,-0.000368198,-0.00010244,0.0844649,0.08344794774955822,0.06377648674157732,-0.0003681302234351813,-0.030353299383764965,-0.00010243475320237394,-0.04657384195720293
114,288.1,789.77,59.1437,-0.000594311,216.156,-1.34549,-0.357865,0.0809872,-0.0311508,-0.0482018,0.062477,-0.000372743,-0.000103705,0.0853854,0.08435701670811557,0.06446997582686098,-0.0003726735399585124,-0.03067061281770056,-0.00010369962282230638,-0.047058535914684896
115,291.2,791.112,59.2511,-0.000604256,216.536,-1.34922,-0.358854,0.0818251,-0.0314778,-0.04871,0.0631282,-0.000377288,-0.00010497,0.0863052,0.08526598020949394,0.0651633844244548,-0.0003772168358326944,-0.03098753170824675,-0.00010496449084229642,-0.047542697730795336
116,294.3,792.442,59.3575,-0.000614252,216.912,-1.35292,-0.359832,0.0826622,-0.0318046,-0.0492176,0.0637788,-0.000381834,-0.000106235,0.0872242,0.08617483671034365,0.06585660520262815,-0.00038176111067578233,-0.03130415324410751,-0.00010622935726212202,-0.0480260423741784
117,297.4,793.759,59.4629,-0.0006243,217.285,-1.35657,-0.360801,0.0834986,-0.032131,-0.0497248,0.0644289,-0.00038638,-0.0001075,0.0881424,0.08708369337464128,0.06654974386197998,-0.0003863053648606174,-0.03162028397314709,-0.00010749422208200521,-0.04850876113765956
118,300.5,795.064,59.5674,-0.000634399,217.655,-1.36019,-0.361761,0.0843342,-0.0324571,-0.0502316,0.0650784,-0.000390927,-0.000108766,0.0890598,0.0879924401303438,0.06724269293146867,-0.00039085059799659483,-0.031936021114804536,-0.00010876008519300484,-0.048990854724681454
119,303.6,796.357,59.6709,-0.000644549,218.021,-1.36378,-0.362711,0.0851689,-0.0327829,-0.0507379,0.0657273,-0.000395473,-0.000110031,0.0899764,0.08890096654086865,0.06793545145610658,-0.0003953948108608163,-0.03225136498681902,-0.00011002494681144892,-0.04947222878480806
120,306.7,797.638,59.7735,-0.00065475,218.384,-1.36733,-0.363652,0.086003,-0.0331084,-0.0512437,0.0663757,-0.00040002,-0.000111297,0.0908922,0.08980959772901786,0.0686281253434371,-0.0003999400026669653,-0.032566315906472854,-0.00011129080671867797,-0.04995288416349597
121,309.0,798.598,59.8505,-0.000666428,218.656,-1.36999,-0.364357,0.0866326,-0.0333541,-0.0516256,0.0668652,-0.000403455,-0.000112253,0.0915837,0.09049595789525577,0.06915134685881119,-0.0004033736229757112,-0.03280398516379068,-0.00011224669986764635,-0.05031563788480198
