,Time,S11,S22,S33,S12,S13,S23,LE11,LE22,LE33,LE12,LE13,LE23,SDV_EPBAR,E11,E12,E13,E22,E23,E33
0,0.000309,0.0019383,0.000139163,-7.79048e-12,0.000519365,9.3624e-20,3.36396e-20,9.1292e-09,-2.12864e-09,-3.00057e-09,6.49972e-09,9.45271e-25,4.67314e-25,0.0,9.129200062574228e-09,6.499720095476391e-09,0.0,-2.128640042009522e-09,0.0,-3.0005700146773506e-09
1,0.000618,0.00387659,0.000278327,3.25261e-19,0.00103873,3.61973e-20,-7.40724e-21,1.82584e-08,-4.2578e-09,-6.00057e-09,1.29997e-08,9.27189e-26,4.52981e-25,0.0,1.8258400125148455e-08,1.2999699983140545e-08,0.0,-4.257800001461476e-09,0.0,-6.000569929831556e-09
2,0.0010815,0.00678404,0.000487072,3.25261e-19,0.00181778,-8.55315e-21,3.19208e-20,3.19522e-08,-7.45077e-09,-1.05014e-08,2.27493e-08,2.14063e-25,-7.98907e-25,0.0,3.19522004410544e-08,2.2749300221391877e-08,0.0,-7.45077000097183e-09,0.0,-1.0501399971829528e-08
3,0.0017767,0.0111452,0.00080019,7.58942e-19,0.00298635,8.55315e-21,-3.19208e-20,5.24927e-08,-1.22421e-08,-1.72507e-08,3.73747e-08,4.28159e-25,-1.59792e-24,0.0,5.249270129681349e-08,3.737470066766946e-08,0.0,-1.2242099889370195e-08,0.0,-1.725069986857619e-08
4,0.0028196,0.017687,0.00126987,-2.27682e-18,0.00473921,-1.65988e-27,-4.44764e-28,8.33037e-08,-1.94275e-08,-2.73762e-08,5.93119e-08,1.2845e-24,-4.79383e-24,0.0,8.33037034908557e-08,5.931190183439128e-08,0.0,-1.9427499831081718e-08,0.0,-2.7376199640549714e-08
5,0.0043839,0.0274996,0.00197438,-4.01155e-18,0.00736849,1.71063e-20,-6.38416e-20,1.2952e-07,-3.02058e-08,-4.25643e-08,9.22178e-08,-1.48338e-24,-7.24799e-24,0.0,1.295200084960868e-07,9.221780428170234e-08,0.0,-3.0205799528282284e-08,0.0,-4.256429908533477e-08
6,0.0067304,0.0422185,0.00303115,-4.01155e-18,0.0113124,1.74418e-19,1.1516e-19,1.98845e-07,-4.63759e-08,-6.53437e-08,1.41578e-07,3.19598e-24,8.5636e-25,0.0,1.9884501978317815e-07,1.4157800998226833e-07,0.0,-4.637589889888716e-08,0.0,-6.534369789701344e-08
7,0.01025,0.0642969,0.00461631,8.13152e-18,0.0172283,2.08631e-19,-1.25227e-20,3.02832e-07,-7.06269e-08,-9.95172e-08,2.15616e-07,2.29126e-25,-1.36391e-23,0.0,3.0283204588421597e-07,2.156160232580362e-07,0.0,-7.062689755255036e-08,0.0,-9.951719504019962e-08
8,0.01553,0.0974145,0.00699405,2.92735e-18,0.0261021,-1.49373e-19,3.02101e-19,4.58812e-07,-1.07003e-07,-1.50778e-07,3.26673e-07,-3.42531e-24,1.27835e-23,0.0,4.5881210519738147e-07,3.266730532747175e-07,0.0,-1.0700299424293291e-07,0.0,-1.5077798865004155e-07
9,0.023449,0.147091,0.0105607,6.39679e-18,0.0394129,6.16725e-19,5.07377e-19,6.92782e-07,-1.61575e-07,-2.2766e-07,4.93263e-07,1.27839e-23,3.42544e-24,0.0,6.927822400193406e-07,4.932631216814087e-07,0.0,-1.6157498694546746e-07,0.0,-2.2765997409468497e-07
10,0.035328,0.221605,0.0159106,-7.48099e-18,0.059379,8.22001e-19,-2.58722e-19,1.04374e-06,-2.43427e-07,-3.4299e-07,7.43145e-07,1.27839e-23,3.42544e-24,0.0,1.0437405446594994e-06,7.43145276205226e-07,0.0,-2.4342697035883987e-07,0.0,-3.429899412266124e-07
11,0.053146,0.333377,0.0239354,-3.52366e-17,0.0893282,1.43291e-18,1.54718e-18,1.57017e-06,-3.66206e-07,-5.15985e-07,1.11797e-06,-4.82329e-29,-1.2924e-29,0.0,1.570171232812001e-06,1.1179706249642152e-06,0.0,-3.662059329112566e-07,0.0,-5.159848668334632e-07
12,0.079874,0.501035,0.0359727,-2.13588e-17,0.134252,1.15921e-18,2.56864e-18,2.35982e-06,-5.50367e-07,-7.75483e-07,1.6802e-06,-4.1105e-23,1.53406e-22,0.0,2.3598227842924757e-06,1.6802014115580022e-06,0.0,-5.503668485395963e-07,0.0,-7.754826992778519e-07
13,0.12,0.752521,0.0540286,-7.48099e-18,0.201637,2.25401e-18,-1.51722e-18,3.54429e-06,-8.26616e-07,-1.16472e-06,2.52354e-06,-1.0888e-28,-2.91744e-29,0.0,3.544296280910686e-06,2.523543184196342e-06,0.0,-8.266156583669471e-07,0.0,-1.1647193217667606e-06
14,0.1801,1.12975,0.0811124,2.02746e-17,0.302715,9.8783e-18,2.71531e-18,5.321e-06,-1.241e-06,-1.74857e-06,3.78857e-06,1.53406e-22,4.11051e-23,0.0,5.321014156622894e-06,3.788577176644381e-06,0.0,-1.2409992299344808e-06,0.0,-1.7485684712381655e-06
15,0.2703,1.69559,0.121738,-7.48099e-18,0.454332,-5.51699e-18,2.96936e-18,7.98605e-06,-1.86256e-06,-2.62435e-06,5.6861e-06,6.26956e-28,1.67992e-28,0.0,7.986081888677887e-06,5.686116165914967e-06,0.0,-1.862558265397496e-06,0.0,-2.6243465564013135e-06
16,0.4056,2.54435,0.182676,4.92119e-16,0.681756,-3.36327e-19,-2.16935e-20,1.19836e-05,-2.79488e-06,-3.93804e-06,8.53236e-06,2.19228e-22,-8.18169e-22,0.0,1.1983671803550422e-05,8.532396400751097e-06,0.0,-2.7948760943363737e-06,0.0,-3.938032245964784e-06
17,0.6086,3.81748,0.274083,3.81097e-16,1.02289,-3.36325e-19,-2.16927e-20,1.79799e-05,-4.19337e-06,-5.90853e-06,1.28018e-05,9.49301e-23,4.63893e-22,0.0,1.79800616393333e-05,1.2801881943413917e-05,0.0,-4.1933612078270954e-06,0.0,-5.908512544672284e-06
18,0.913,5.72716,0.411192,4.92119e-16,1.53459,3.23501e-17,8.73662e-18,2.69743e-05,-6.2911e-06,-8.86425e-06,1.92058e-05,4.09074e-22,1.09611e-22,0.0,2.697466380974234e-05,1.920598443261312e-05,0.0,-6.291080211107136e-06,0.0,-8.864210712666853e-06
19,1.37,8.59165,0.616853,-1.28424e-15,2.30213,-3.36733e-19,-2.18022e-20,4.04657e-05,-9.43765e-06,-1.32978e-05,2.88117e-05,4.38461e-22,-1.63636e-21,0.0,4.0466518747450664e-05,2.8812115061116472e-05,0.0,-9.4376054655676e-06,0.0,-1.3297711584647764e-05
20,2.055,12.8883,0.925338,-5.059e-15,3.45341,6.94144e-17,1.1511e-18,6.07025e-05,-1.41574e-05,-1.99479e-05,4.32204e-05,-7.0378e-26,-1.88577e-26,0.0,6.070434243410361e-05,4.322133401490902e-05,0.0,-1.4157299784489652e-05,0.0,-1.994770104196686e-05
21,3.082,19.3331,1.38805,-2.81516e-14,5.18029,7.817e-17,-3.15365e-17,9.10568e-05,-2.12368e-05,-2.99229e-05,6.48327e-05,8.76832e-22,-3.2728e-21,0.0,9.106094579625079e-05,6.483480168495426e-05,0.0,-2.123657450070482e-05,0.0,-2.992245231447921e-05
22,4.623,116.413,8.35811,-1.03265e-09,31.1929,9.83292e-16,7.71529e-16,0.000548295,-0.000127877,-0.000180179,0.000390388,3.49743e-21,-1.3096e-20,0.0,0.0005484453411794821,0.0003904642113123913,0.0,-0.00012786882408488687,0.0,-0.00018016276873877857
23,6.935,262.609,18.8545,-9.04826e-07,70.3658,1.26247e-15,-2.74743e-16,0.00123686,-0.000288468,-0.000406453,0.000880648,1.40118e-20,-5.23908e-20,0.0,0.0012376252267900512,0.0008810358843047705,0.0,-0.0002884263971069112,0.0,-0.00040637040916957634
24,10.03,446.44,32.0928,0.0024718,119.702,-0.0118094,-0.00316257,0.00215605,-0.00051125,-0.000723414,0.00153874,-1.52369e-07,-4.08608e-08,5.88559e-05,0.0021583759471202058,0.0015399244678453439,-1.523689884264101e-07,-0.0005111193339873976,-4.086079918863561e-08,-0.0007231523991780842
25,13.12,468.017,33.7937,8.70121e-05,125.762,-0.121291,-0.032456,0.00307237,-0.000854866,-0.0012513,0.00223589,-2.19206e-06,-5.95028e-07,0.000956958,0.0030770945660076876,0.002238391466032885,-2.19205759743879e-06,-0.0008545007061607768,-5.95027823013794e-07,-0.0012505174505903494
26,16.21,485.783,35.193,7.88029e-05,130.754,-0.210744,-0.056365,0.00398762,-0.00120091,-0.00178361,0.00293362,-4.45465e-06,-1.21435e-06,0.00187392,0.003995581135108672,0.0029379272740908124,-4.454640078033201e-06,-0.0012001891961549438,-1.2143492627014751e-06,-0.0017820203129516043
27,19.3,500.927,36.3851,3.17248e-05,135.007,-0.285512,-0.0763321,0.00490183,-0.00154846,-0.00231881,0.00363161,-6.91225e-06,-1.89025e-06,0.00280355,0.004913863622898029,0.0036382122854854426,-6.91222611048925e-06,-0.0015472617543723644,-1.8902482135096932e-06,-0.0023161236368816063
28,22.39,514.154,37.4256,1.24647e-05,138.721,-0.3494,-0.0933813,0.00581501,-0.00189702,-0.00285596,0.00432968,-9.54335e-06,-2.61616e-06,0.00374217,0.005831949990136476,0.0043390666065628025,-9.54330446234497e-06,-0.001895221794816604,-2.616156577817108e-06,-0.0028518856259119874
29,25.48,525.917,38.3505,3.38335e-06,142.022,-0.404969,-0.108201,0.00672717,-0.00224623,-0.00339449,0.0050277,-1.23284e-05,-3.38621e-06,0.00468742,0.006749848233026379,0.005040360091800533,-1.2328324005550506e-05,-0.002243709113243897,-3.386204266764281e-06,-0.003388735232162099
30,28.57,536.523,39.1839,-1.82888e-06,144.998,-0.454002,-0.12127,0.00763833,-0.00259587,-0.00393397,0.00572558,-1.52503e-05,-4.19535e-06,0.00563769,0.00766757645987548,0.005742002460912277,-1.5250183714732302e-05,-0.0025925036429765846,-4.195341199553226e-06,-0.003926242077146314
31,31.66,546.191,39.9433,-5.49011e-06,147.711,-0.497781,-0.132933,0.00854849,-0.00294579,-0.00447414,0.00642324,-1.8294e-05,-5.03921e-06,0.00659186,0.008585132679409302,0.006443913245418154,-1.8293832665827736e-05,-0.0029414554179386654,-5.039197303213783e-06,-0.00446414594611777
32,34.75,555.082,40.6414,-8.55444e-06,150.204,-0.537255,-0.143445,0.00945766,-0.00329587,-0.00501477,0.00712063,-2.14468e-05,-5.91407e-06,0.00754907,0.009502524994080552,0.007146041966394012,-2.1446570019012512e-05,-0.0032904445825984174,-5.914052511934997e-06,-0.005002217033103551
33,37.84,563.319,41.2879,-1.14444e-05,152.514,-0.573146,-0.152998,0.0103659,-0.00364602,-0.00555571,0.0078177,-2.46978e-05,-6.81677e-06,0.0085087,0.010419812062728795,0.00784833800417939,-2.4697495011882786e-05,-0.0036393813397598285,-6.8167467658364345e-06,-0.0055403055838900706
34,40.93,570.997,41.8904,-1.43564e-05,154.667,-0.606011,-0.161743,0.0112731,-0.00399618,-0.00609683,0.00851441,-2.80373e-05,-7.74454e-06,0.00947025,0.011336880835731256,0.008550760683789793,-2.803690695862837e-05,-0.003988205898222352,-7.744510011176153e-06,-0.00607828204569405
35,44.02,578.192,42.4548,-1.73835e-05,156.684,-0.636291,-0.169797,0.0121793,-0.0043463,-0.00663804,0.00921074,-3.14572e-05,-8.69503e-06,0.0104333,0.012253769696741523,0.009253289402501474,-3.145670522741728e-05,-0.004336868507135105,-8.69499219835479e-06,-0.006616056880982102
36,47.11,584.964,42.986,-2.05684e-05,158.582,-0.664341,-0.177256,0.0130847,-0.00469633,-0.00717925,0.00990666,-3.49502e-05,-9.66617e-06,0.0113976,0.013170679282158204,0.00995589340139369,-3.4949589248878254e-05,-0.004685319485345896,-9.666123282681127e-06,-0.007153540745896914
37,50.2,591.363,43.488,-2.39298e-05,160.376,-0.690446,-0.184195,0.013989,-0.00504624,-0.00772041,0.0106021,-3.851e-05,-1.06562e-05,0.0123628,0.014087303916797023,0.010658501410440335,-3.850925849946396e-05,-0.00503352912063515,-1.0656143222931291e-05,-0.007690684182407037
38,53.29,597.43,43.9638,-2.74738e-05,162.077,-0.714844,-0.190679,0.0148924,-0.005396,-0.00826146,0.0112972,-4.21311e-05,-1.16634e-05,0.0133288,0.015003844326123339,0.011361254348259076,-4.213021249765969e-05,-0.005381467742436641,-1.1663331982769698e-05,-0.008227427922036235
39,56.38,603.202,44.4164,-3.11998e-05,163.695,-0.737732,-0.19676,0.0157949,-0.00574559,-0.00880235,0.0119917,-4.58086e-05,-1.26865e-05,0.0142953,0.015920298783496545,0.012063888700940772,-4.580755080207943e-05,-0.005729115664469653,-1.2686419526675152e-05,-0.008763722737221369
40,59.47,608.706,44.8481,-3.5104e-05,165.237,-0.759275,-0.202483,0.0166964,-0.00609498,-0.00934304,0.0126858,-4.9538e-05,-1.37242e-05,0.0152623,0.016836563877286936,0.012766606095947486,-4.9536773013558744e-05,-0.006076443288814959,-1.372410582356487e-05,-0.00929952941426515
41,62.56,613.968,45.2608,-3.91809e-05,166.712,-0.779614,-0.207884,0.017597,-0.00644417,-0.00988352,0.0133794,-5.33155e-05,-1.47754e-05,0.0162295,0.017752739378618543,0.013469304681634098,-5.3314078753974314e-05,-0.006423450866269054,-1.4775290844259992e-05,-0.009834838529640622
42,65.65,619.009,45.6562,-4.34245e-05,168.125,-0.798869,-0.212997,0.0184966,-0.00679315,-0.0104237,0.0140725,-5.71375e-05,-1.58392e-05,0.0171968,0.01866872169003364,0.014171983742007344,-5.713586768407719e-05,-0.0067701287150493394,-1.5839074560486388e-05,-0.010369561510231495
43,68.74,623.85,46.0359,-4.78283e-05,169.482,-0.817142,-0.217848,0.0193954,-0.00714188,-0.0109637,0.014765,-6.10008e-05,-1.69145e-05,0.0181643,0.019584712721793407,0.01487454107314834,-6.09989394889654e-05,-0.007116437380442431,-1.6914356950614717e-05,-0.01090381768486648
44,71.83,628.505,46.401,-5.23862e-05,170.787,-0.834524,-0.222462,0.0202932,-0.00749038,-0.0115033,0.0154571,-6.49027e-05,-1.80006e-05,0.0191317,0.020500506915374306,0.01557717886278498,-6.490059386532465e-05,-0.007462397015047584,-1.8000437990162155e-05,-0.011437390014082727
45,74.92,632.99,46.7529,-5.70923e-05,172.044,-0.851093,-0.226859,0.0211901,-0.00783862,-0.0120427,0.0161486,-6.88405e-05,-1.90968e-05,0.020099,0.021416204403180705,0.016279693348358437,-6.883813054714416e-05,-0.007807978133834159,-1.909661765731041e-05,-0.011970476899450633
46,78.01,637.317,47.0924,-6.19408e-05,173.257,-0.866918,-0.231057,0.0220861,-0.00818661,-0.0125817,0.0168396,-7.28118e-05,-2.02024e-05,0.0210662,0.022331803449443965,0.016982185299478925,-7.280914928520232e-05,-0.008153190966732948,-2.020219593290573e-05,-0.012502881316522219
47,81.1,641.498,47.4205,-6.69266e-05,174.43,-0.882058,-0.235074,0.0229811,-0.00853433,-0.0131203,0.01753,-7.68146e-05,-2.13168e-05,0.0220332,0.02324719999237934,0.01768455222937515,-7.68116498340854e-05,-0.008498015984417906,-2.131657279857979e-05,-0.013034604058856591
48,84.19,645.543,47.7379,-7.20445e-05,175.564,-0.896568,-0.238923,0.0238753,-0.00888178,-0.0136586,0.0182199,-8.08468e-05,-2.24394e-05,0.0229999,0.024162596851552864,0.018386895047256102,-8.084353198556382e-05,-0.00884245350789048,-2.243914823851778e-05,-0.0135657445621995
49,87.28,649.461,48.0455,-7.72899e-05,176.662,-0.910494,-0.242617,0.0247685,-0.00922895,-0.0141966,0.0189092,-8.49066e-05,-2.35698e-05,0.0239663,0.025077787546379682,0.019089111124979352,-8.490299553665093e-05,-0.00918649394959048,-2.3569522234478946e-05,-0.014096303458484782
50,90.37,653.261,48.3438,-8.26584e-05,177.728,-0.923881,-0.246167,0.0256609,-0.00957585,-0.0147341,0.019598,-8.89923e-05,-2.47074e-05,0.0249324,0.025992975260007656,0.019791301511328463,-8.898834030268699e-05,-0.009530147544676959,-2.47070947747563e-05,-0.014626084304018905
51,93.46,656.949,48.6334,-8.81461e-05,178.762,-0.936765,-0.249583,0.0265523,-0.00992245,-0.0152713,0.0202862,-9.31025e-05,-2.58518e-05,0.025898,0.026907953143210595,0.020493363436828282,-9.309816609670563e-05,-0.00987338490906664,-2.5851465845105892e-05,-0.015155285015493125
52,96.55,660.533,48.9148,-9.37491e-05,179.767,-0.949182,-0.252876,0.0274428,-0.0102688,-0.0158081,0.0209739,-9.72357e-05,-2.70026e-05,0.0268633,0.02782282196036867,0.02119539808981119,-9.723097276248538e-05,-0.010216255882095071,-2.700223543306013e-05,-0.01568380779029266
53,99.64,664.018,49.1886,-9.94639e-05,180.745,-0.961162,-0.256052,0.0283325,-0.0106148,-0.0163444,0.021661,-0.000101391,-2.81595e-05,0.0278281,0.028737682840581646,0.02189730255950484,-0.00010138586010621786,-0.010558661817917092,-2.8159103525049467e-05,-0.0162115550361015
54,102.7,667.41,49.4552,-0.000105287,181.697,-0.972734,-0.259119,0.0292212,-0.0109605,-0.0168804,0.0223475,-0.000105566,-2.93221e-05,0.0287924,0.029652328381870374,0.02259907591385457,-0.0001055604281058331,-0.010900652572018776,-2.932167011138187e-05,-0.01673872434860546
55,105.8,670.715,49.7149,-0.000111216,182.624,-0.983923,-0.262085,0.0301091,-0.011306,-0.017416,0.0230334,-0.000109761,-3.04901e-05,0.0297562,0.030566962676046527,0.023300717220402056,-0.00010975497648180177,-0.011242327368835126,-3.048963518159642e-05,-0.017265218080236733
56,108.9,673.936,49.9681,-0.000117247,183.528,-0.994752,-0.264955,0.030996,-0.0116511,-0.0179511,0.0237188,-0.000113973,-3.16632e-05,0.0307195,0.03148137795275918,0.024002327946514468,-0.00011396650532435881,-0.01158348877087445,-3.1662698726120375e-05,-0.017790938792921263
57,112.0,677.079,50.2152,-0.000123378,184.41,-1.00524,-0.267736,0.0318821,-0.0119959,-0.0184858,0.0244036,-0.000118204,-3.28411e-05,0.0316823,0.03239577866716936,0.024703804898987825,-0.00011819701418236406,-0.011924236035741886,-3.284056073693531e-05,-0.018315985594176798
58,115.1,680.147,50.4565,-0.000129606,185.271,-1.01542,-0.270431,0.0327673,-0.0123405,-0.0190201,0.0250879,-0.00012245,-3.40235e-05,0.0326445,0.033310060011667586,0.02540524968464153,-0.0001224425033047316,-0.01226466828415873,-3.402292120724404e-05,-0.01884035926417338
59,118.2,683.144,50.6923,-0.000135928,186.112,-1.02529,-0.273047,0.0336516,-0.0126847,-0.019554,0.0257715,-0.000126712,-3.52103e-05,0.0336061,0.03422422023410654,0.026106456358460317,-0.00012670397237357633,-0.012604588281747708,-3.520968012460379e-05,-0.019364060581855247
60,121.3,686.074,50.9228,-0.000142344,186.935,-1.03488,-0.275588,0.0345351,-0.0130286,-0.0200874,0.0264546,-0.000130989,-3.64012e-05,0.0345671,0.035138361094945614,0.026807629137096,-0.00013098042131542975,-0.012944095182280124,-3.640053748432681e-05,-0.019886992313649543
61,124.4,688.939,51.1483,-0.000148849,187.739,-1.0442,-0.278057,0.0354176,-0.0133722,-0.0206204,0.0271371,-0.00013528,-3.75959e-05,0.0355275,0.03605227390332555,0.027508664545102812,-0.0001352708500733657,-0.01328318933146444,-3.7595193283057604e-05,-0.02040925335181576
62,127.4,691.742,51.369,-0.000155443,188.526,-1.05326,-0.280459,0.0362993,-0.0137155,-0.0211529,0.027819,-0.000139584,-3.87943e-05,0.0364873,0.03696616402248054,0.02820956164716404,-0.00013957425860666728,-0.01362187107451951,-3.879354751090691e-05,-0.020930746564515212
63,130.5,694.487,51.5851,-0.000162123,189.297,-1.06208,-0.282796,0.0371801,-0.0140585,-0.021685,0.0285003,-0.0001439,-3.99962e-05,0.0374464,0.03787992618153102,0.0289103195075735,-0.000143889646891604,-0.013960140756174244,-3.999540016264014e-05,-0.02145157073670878
64,133.6,697.175,51.7969,-0.000168888,190.052,-1.07068,-0.285072,0.03806,-0.0144012,-0.0222167,0.0291811,-0.000148229,-4.12015e-05,0.0384049,0.03879355862222411,0.029611040151336754,-0.00014821801462450157,-0.014297998720668281,-4.1200651229811314e-05,-0.02197172664084679
65,136.7,699.81,52.0045,-0.000175736,190.792,-1.07905,-0.287291,0.0389391,-0.0147436,-0.0227479,0.0298612,-0.000152568,-4.24098e-05,0.0393627,0.039707163555819935,0.03031151678982491,-0.00015255636209454693,-0.014635445311753204,-4.24089007171613e-05,-0.02249111729728348
66,139.8,702.392,52.208,-0.000182665,191.518,-1.08722,-0.289454,0.0398173,-0.0150857,-0.0232787,0.0305408,-0.000156919,-4.36212e-05,0.0403199,0.0406206354336478,0.031011954478403547,-0.0001569066888575943,-0.014972480872692207,-4.362024860926628e-05,-0.02300984133068451
67,142.9,704.926,52.4077,-0.000189674,192.23,-1.09518,-0.291565,0.0406946,-0.0154274,-0.023809,0.0312198,-0.00016128,-4.48354e-05,0.0412764,0.0415339724938355,0.03171224931868721,-0.0001612669950799006,-0.01530900727716733,-4.4834394908432884e-05,-0.023527801862453512
68,146.0,707.412,52.6038,-0.000196761,192.929,-1.10296,-0.293625,0.0415711,-0.0157689,-0.0243389,0.0318982,-0.00016565,-4.60523e-05,0.0422322,0.042447277218051305,0.032412400373010186,-0.00016563628079624415,-0.0156452218392783,-4.6051239609101735e-05,-0.024045097410686833
69,149.1,709.852,52.7962,-0.000203925,193.614,-1.11056,-0.295638,0.0424467,-0.01611,-0.0248683,0.032576,-0.00017003,-4.72718e-05,0.0431873,0.0433604437799624,0.033112406703329045,-0.0001700155457187158,-0.015980927996168903,-4.727068270604651e-05,-0.024561631197560385
70,152.2,712.248,52.9853,-0.000211164,194.288,-1.11799,-0.297605,0.0433214,-0.0164508,-0.0253972,0.0332533,-0.000174418,-4.84937e-05,0.0441417,0.044273470414121885,0.033812370752456467,-0.0001744027900648648,-0.01631622455812831,-4.849252419958372e-05,-0.02507740414264137
71,155.3,714.602,53.1711,-0.000218478,194.95,-1.12525,-0.299528,0.0441953,-0.0167913,-0.0259257,0.0339299,-0.000178815,-4.9718e-05,0.0450954,0.04518645987255643,0.03451208488910651,-0.00017879901355066785,-0.01665111186586654,-4.9716764080720566e-05,-0.02559251460462242
72,158.3,716.915,53.3537,-0.000225865,195.6,-1.13235,-0.301409,0.0450684,-0.0171315,-0.0264538,0.034606,-0.00018322,-5.09445e-05,0.0460484,0.0460994106613426,0.03521175500653073,-0.00018320321624076819,-0.016985590259609107,-5.094320235099481e-05,-0.026106963345513656
73,161.4,719.189,53.5333,-0.000233324,196.24,-1.13931,-0.303251,0.0459405,-0.0174714,-0.0269814,0.0352815,-0.000187633,-5.2173e-05,0.0470006,0.047012111882901,0.03591127678391892,-0.00018761539802947258,-0.01731966007909791,-5.217163901272137e-05,-0.026620653788197668
74,164.5,721.425,53.7099,-0.000240854,196.869,-1.14611,-0.305053,0.0468119,-0.0178109,-0.0275085,0.0359564,-0.000192053,-5.34036e-05,0.0479521,0.04792487587070737,0.03661064928132296,-0.00019203455900307365,-0.017653223428918396,-5.340217405314096e-05,-0.027133586846202595
75,167.6,723.624,53.8837,-0.000248454,197.487,-1.15278,-0.306819,0.0476823,-0.0181502,-0.0280351,0.0366307,-0.000196479,-5.46361e-05,0.0489029,0.04883738674979021,0.037309871558430574,-0.0001964596992652945,-0.017986477150518043,-5.4634607475456676e-05,-0.027645763431438763
76,170.7,725.788,54.0547,-0.000256123,198.096,-1.15932,-0.30855,0.048552,-0.0184891,-0.0285613,0.0373044,-0.000200912,-5.58704e-05,0.049853,0.04974995739887267,0.03800894267456445,-0.0002008918185356645,-0.018319225146079088,-5.586883927821695e-05,-0.028157281638478082
77,173.8,727.917,54.2231,-0.000263859,198.696,-1.16572,-0.310246,0.0494208,-0.0188277,-0.0290871,0.0379775,-0.000205352,-5.71064e-05,0.0508023,0.050662376459308156,0.0387078616886849,-0.000205330916721147,-0.018651565987964913,-5.710476946052534e-05,-0.02866814222277536
78,176.9,730.014,54.3889,-0.000271663,199.286,-1.172,-0.31191,0.0502887,-0.019166,-0.0296124,0.03865,-0.000209797,-5.8344e-05,0.0517509,0.051574642156273054,0.03940662765939296,-0.00020977499414831513,-0.018983500013385002,-5.834229802192947e-05,-0.0291782488564285
79,180.0,732.078,54.5522,-0.000279533,199.867,-1.17817,-0.313542,0.0511558,-0.019504,-0.0301372,0.039322,-0.000214248,-5.95833e-05,0.0526987,0.052486857962494415,0.04010534365546081,-0.00021422505053614316,-0.01931502755906911,-5.958152495044722e-05,-0.029687602445356842
80,183.1,734.112,54.7132,-0.000287468,200.439,-1.18422,-0.315144,0.0520221,-0.0198417,-0.0306616,0.0399934,-0.000218705,-6.0824e-05,0.0536458,0.05339902237451599,0.04080390486394747,-0.00021868108580480605,-0.019646148961266707,-6.082215025804416e-05,-0.030196300874248627
81,186.2,736.115,54.8718,-0.000295468,201.004,-1.19016,-0.316717,0.0528875,-0.020179,-0.0311854,0.0406642,-0.000223166,-6.20661e-05,0.0545921,0.05431102845659219,0.04150231034233909,-0.0002231411003204009,-0.019976766553430725,-6.206417393950225e-05,-0.03070415103428259
82,189.2,738.09,55.0281,-0.000303532,201.56,-1.19599,-0.318262,0.0537521,-0.0205161,-0.0317089,0.0413343,-0.000227632,-6.33095e-05,0.0555377,0.05522297995161751,0.0422004549277184,-0.000227606093801902,-0.020307076708520944,-6.330749599592345e-05,-0.03121144461553571
83,192.3,740.036,55.1823,-0.000311659,202.108,-1.20172,-0.319779,0.0546158,-0.0208528,-0.0322319,0.042004,-0.000232103,-6.45543e-05,0.0564825,0.056134769739140555,0.04289865033702123,-0.0002320760661824739,-0.020636883789655336,-6.455221641599174e-05,-0.03171798855721486
84,195.4,741.955,55.3343,-0.000319849,202.648,-1.20735,-0.321271,0.0554787,-0.0211892,-0.0327544,0.042673,-0.000236579,-6.58002e-05,0.0574265,0.057046501742148426,0.043596582966530795,-0.00023655101739505913,-0.020966286133367817,-6.579803521433725e-05,-0.03222378375769053
85,198.5,743.847,55.4843,-0.0003281,203.181,-1.21289,-0.322737,0.0563408,-0.0215253,-0.0332764,0.0433414,-0.000241058,-6.70473e-05,0.0583698,0.057958174451357536,0.0442943560923863,-0.00024102894785471562,-0.021295284073397647,-6.704505237997704e-05,-0.03272883111374092
86,201.6,745.713,55.6322,-0.000336413,203.707,-1.21833,-0.324179,0.0572021,-0.0218611,-0.033798,0.0440093,-0.000245542,-6.82956e-05,0.0593123,0.05886978635632323,0.04499207326953458,-0.00024551185703025613,-0.02162387794300724,-6.829326790858126e-05,-0.03323322819723695
87,204.7,747.554,55.7782,-0.000344786,204.226,-1.22369,-0.325598,0.0580625,-0.0221966,-0.0343191,0.0446766,-0.000250029,-6.95448e-05,0.060254,0.05978122996731838,0.04568962919367703,-0.0002499977453543911,-0.021952068074984288,-6.954238181644534e-05,-0.03373687912437717
88,207.8,749.371,55.9223,-0.00035322,204.738,-1.22896,-0.326993,0.0589221,-0.0225318,-0.0348398,0.0453433,-0.00025452,-7.0795e-05,0.061195,0.06069260956743139,0.0463870229198271,-0.00025448761253255014,-0.022279854801640964,-7.079249409314148e-05,-0.03423988136341949
89,210.9,751.164,56.0646,-0.000361712,205.244,-1.23415,-0.328367,0.0597809,-0.0228666,-0.0353599,0.0460094,-0.000259014,-7.20462e-05,0.0621352,0.06160392364278122,0.0470842535026601,-0.0002589804587698197,-0.02260714071553427,-7.20436047348949e-05,-0.03474204260277214
90,214.0,752.933,56.2051,-0.000370264,205.743,-1.23926,-0.32972,0.0606388,-0.0232012,-0.0358797,0.0466749,-0.000263512,-7.32983e-05,0.0630746,0.06251506442683086,0.047781319996514915,-0.0002634772837623034,-0.02293412165928821,-7.329561374525007e-05,-0.03524365330911039
91,217.1,754.681,56.3438,-0.000378875,206.236,-1.24428,-0.331052,0.0614959,-0.0235354,-0.0363989,0.0473398,-0.000268012,-7.45511e-05,0.0640132,0.06342613647270201,0.04847822145539604,-0.0002679760879922277,-0.023260602517839457,-7.454832113573673e-05,-0.03574442479278572
92,220.1,756.406,56.4809,-0.000387543,206.722,-1.24924,-0.332364,0.0623522,-0.0238693,-0.0369177,0.0480042,-0.000272516,-7.58048e-05,0.064951,0.06433713826311416,0.04917506185047671,-0.0002724788708876602,-0.02358668136076647,-7.58019268887189e-05,-0.03624455084128875
93,223.2,758.11,56.6163,-0.000396269,207.203,-1.25412,-0.333657,0.0632077,-0.024203,-0.0374361,0.048668,-0.000277022,-7.70593e-05,0.0658881,0.06524806827965524,0.049871735456921584,-0.0002769836329487019,-0.023912456126653603,-7.705633100840714e-05,-0.03674403218938138
94,226.3,759.793,56.75,-0.000405052,207.678,-1.25893,-0.334931,0.0640624,-0.0245363,-0.037954,0.0493312,-0.000281531,-7.83144e-05,0.0668244,0.0661589250027852,0.05056824132769444,-0.00028149137386679346,-0.0242377318948086,-7.831133350744146e-05,-0.03724277329495351
95,229.4,761.456,56.8823,-0.000413892,208.147,-1.26367,-0.336187,0.0649163,-0.0248692,-0.0384714,0.0499938,-0.000286042,-7.95703e-05,0.0677599,0.06706970691184022,0.05126457851543198,-0.00028600109388743356,-0.024562509091696993,-7.956713436763074e-05,-0.03774077503988971
96,232.5,763.099,57.0129,-0.000422788,208.611,-1.26835,-0.337425,0.0657693,-0.0252019,-0.0389883,0.0506558,-0.000290555,-8.08267e-05,0.0686946,0.06798030568700009,0.05196074607244605,-0.0002905127929838658,-0.024886983165667176,-8.082343361026645e-05,-0.03823803830450889
97,235.6,764.723,57.1421,-0.00043174,209.069,-1.27296,-0.338647,0.0666216,-0.0255343,-0.0395048,0.0513173,-0.000295071,-8.20838e-05,0.0696286,0.06889093331037444,0.052656848316406935,-0.00029502747083398617,-0.025211056868429504,-8.208043121704645e-05,-0.03873466009410709
98,238.7,766.328,57.2698,-0.000440748,209.522,-1.27751,-0.339852,0.067473,-0.0258663,-0.0400209,0.0519782,-0.000299589,-8.33414e-05,0.0705617,0.06980137457084279,0.05335277917247949,-0.000299544127696727,-0.02553463308092574,-8.3337927201943e-05,-0.039230641137115274
99,241.8,767.915,57.3961,-0.000449811,209.97,-1.282,-0.341041,0.0683236,-0.0261981,-0.0405364,0.0526385,-0.000304108,-8.45996e-05,0.0714941,0.07071173474134418,0.05404853769196305,-0.00030406176384922823,-0.025857907055551355,-8.459602155475032e-05,-0.039725790105997416
100,244.9,769.484,57.521,-0.000458929,210.413,-1.28643,-0.342215,0.0691734,-0.0265295,-0.0410515,0.0532982,-0.00030863,-8.58582e-05,0.0724257,0.07162201229567988,0.054744122925840966,-0.0003085823786608266,-0.026180684258016673,-8.585451429021784e-05,-0.04022029997956167
101,248.0,771.035,57.6446,-0.000468101,210.852,-1.29081,-0.343373,0.0700224,-0.0268607,-0.0415662,0.0539574,-0.000313153,-8.71173e-05,0.0733565,0.07253220570654917,0.05543963946874042,-0.0003131039727171103,-0.026503159810491117,-8.711350539813978e-05,-0.040714171482428174
102,251.0,772.569,57.7668,-0.000477328,211.285,-1.29513,-0.344517,0.0708706,-0.0271915,-0.0420804,0.054616,-0.000317678,-8.83769e-05,0.0742865,0.07344231344555774,0.05613498096611558,-0.0003176275456870936,-0.026825139306880907,-8.837299487673977e-05,-0.04120730945881268
103,254.1,774.086,57.8877,-0.000486609,211.714,-1.29939,-0.345647,0.071718,-0.027522,-0.0425941,0.055274,-0.000322204,-8.96368e-05,0.0752157,0.07435233398321706,0.056830146467959475,-0.000322152097865791,-0.027146720454128137,-8.963278274209951e-05,-0.04169971477880907
104,257.2,775.587,58.0073,-0.000495944,212.138,-1.3036,-0.346763,0.0725646,-0.0278522,-0.0431074,0.0559314,-0.000326732,-9.08972e-05,0.0761442,0.07526226578895279,0.057525135023956286,-0.0003266786289130019,-0.027467903576782415,-9.089306897469562e-05,-0.04219148409182116
105,260.3,777.072,58.1257,-0.000505332,212.557,-1.30777,-0.347866,0.0734104,-0.0281821,-0.0436202,0.0565882,-0.000331261,-9.21579e-05,0.0770718,0.0761721073311048,0.0582199456834831,-0.0003312061391329557,-0.027788688998927724,-9.21536535911649e-05,-0.04268252238579995
106,263.4,778.541,58.2429,-0.000514773,212.973,-1.31188,-0.348955,0.0742554,-0.0285117,-0.0441325,0.0572445,-0.000335791,-9.34189e-05,0.0779987,0.07708185707693538,0.058914683387075284,-0.00033573462851210767,-0.028109077044183306,-9.341453659039711e-05,-0.04317283052642795
107,266.5,779.995,58.359,-0.000524267,213.384,-1.31594,-0.350032,0.0750997,-0.028841,-0.0446444,0.0579002,-0.000340322,-9.46802e-05,0.0789247,0.07799162129178572,0.05960924143094193,-0.0003402640970370241,-0.02842906803570433,-9.467571797128205e-05,-0.04366250501160418
108,269.6,781.434,58.4738,-0.000533814,213.791,-1.31996,-0.351097,0.0759431,-0.02917,-0.0451559,0.0585554,-0.000344855,-9.59418e-05,0.07985,0.07890118293341142,0.060303724893865374,-0.0003447955443492967,-0.028748662296182004,-9.593719773270948e-05,-0.04415154655725284
109,272.7,782.858,58.5875,-0.000543414,214.193,-1.32393,-0.35215,0.0767857,-0.0294987,-0.0456669,0.0592099,-0.000349388,-9.72037e-05,0.0807745,0.07981064817404859,0.06099792083264832,-0.000349326971120667,-0.029067860147844238,-9.719897587334714e-05,-0.044639860342164495
110,275.8,784.268,58.7001,-0.000553066,214.592,-1.32786,-0.353191,0.0776275,-0.0298271,-0.0461774,0.0598639,-0.000353922,-9.84658e-05,0.0816982,0.08072001547667917,0.061692040425239236,-0.00035385937699716763,-0.02938666191245687,-9.846095240217956e-05,-0.04512744722631834
111,278.9,785.664,58.8116,-0.00056277,214.987,-1.33175,-0.35422,0.0784686,-0.0301551,-0.0466875,0.0605173,-0.000358457,-9.97281e-05,0.0826211,0.08162939146615744,0.06238597668874202,-0.00035839276196547587,-0.029704970881824888,-9.972312731831856e-05,-0.04561440350673007
112,281.9,787.046,58.922,-0.000572526,215.378,-1.33559,-0.355239,0.0793088,-0.0304829,-0.0471971,0.0611702,-0.000362993,-0.000100991,0.0835433,0.08253855836839863,0.0630798349783126,-0.000362927126011936,-0.030022981467587195,-0.00010098590058060797,-0.046100634504522064
113,285.0,788.415,59.0314,-0.000582334,215.765,-1.3394,-0.356247,0.0801483,-0.0308104,-0.0477062,0.0618225,-0.000367529,-0.000102253,0.0844646,0.08344773105999037,0.06377350817158467,-0.0003674614694906264,-0.03034059692878599,-0.00010224777234013604,-0.046586141075312226
114,288.1,789.77,59.1398,-0.000592194,216.149,-1.34316,-0.357245,0.080987,-0.0311375,-0.0482149,0.0624742,-0.000372066,-0.000103516,0.0853852,0.08435679983673405,0.06446699531510136,-0.0003719967920294831,-0.03065772065111838,-0.00010351064240365915,-0.04707101936609759
115,291.2,791.112,59.2472,-0.000602105,216.529,-1.34689,-0.358232,0.0818249,-0.0314644,-0.0487232,0.0631254,-0.000376604,-0.000104779,0.0863049,0.08526576315631962,0.06516040197115402,-0.00037653309361507237,-0.030974546854173224,-0.00010477351087223585,-0.04755527008420757
116,294.3,792.442,59.3535,-0.000612067,216.905,-1.35058,-0.359209,0.082662,-0.031791,-0.049231,0.063776,-0.000381142,-0.000106042,0.0872239,0.08617461947539784,0.06585362080831181,-0.00038106937461501733,-0.031290978891006294,-0.00010603637774586616,-0.048038798739742816
117,297.4,793.759,59.4589,-0.000622081,217.278,-1.35423,-0.360177,0.0834984,-0.0321172,-0.0497383,0.064426,-0.00038568,-0.000107305,0.0881421,0.0870834759579242,0.06654665087220746,-0.000385605635029429,-0.03160692024085632,-0.00010729924302432803,-0.04852160618267998
118,300.5,795.064,59.5634,-0.000632146,217.647,-1.35785,-0.361136,0.0843339,-0.0324432,-0.0502452,0.0650754,-0.000390219,-0.000108569,0.0890595,0.08799211373266069,0.06723949120819239,-0.00039014287446814677,-0.03192256493197754,-0.00010856310659934643,-0.04900378836110819
119,303.6,796.357,59.6669,-0.000642262,218.014,-1.36143,-0.362085,0.0851687,-0.0327688,-0.0507517,0.0657243,-0.000394758,-0.000109832,0.0899761,0.08890074876069698,0.06793224765455808,-0.00039468009331244946,-0.03223771963486577,-0.00010982596868669425,-0.04948534597754206
120,306.7,797.638,59.7695,-0.000652429,218.376,-1.36498,-0.363026,0.0860027,-0.0330942,-0.0512577,0.0663727,-0.000399297,-0.000111095,0.0908919,0.0898092707861875,0.06862491946386995,-0.0003992172915624481,-0.03255257825062163,-0.00011108882917898466,-0.049966184730013574
121,309.0,798.599,59.8465,-0.000664072,218.648,-1.36763,-0.36373,0.0866324,-0.0333398,-0.0516397,0.0668621,-0.000402725,-0.00011205,0.0915834,0.09049573979608594,0.0691480324947733,-0.0004026439171722629,-0.03279015416188713,-0.00011204372263318163,-0.050329028339904824
