,Time,S11,S22,S33,S12,S13,S23,LE11,LE22,LE33,LE12,LE13,LE23,SDV_EPBAR,E11,E12,E13,E22,E23,E33
0,0.000309,0.0019383,0.000139163,-7.79048e-12,0.000519365,9.3624e-20,3.36396e-20,9.1292e-09,-2.12864e-09,-3.00057e-09,6.49972e-09,9.45271e-25,4.67314e-25,0.0,9.129200062574228e-09,6.499720095476391e-09,0.0,-2.128640042009522e-09,0.0,-3.0005700146773506e-09
1,0.000618,0.00387659,0.000278327,3.25261e-19,0.00103873,3.61973e-20,-7.40724e-21,1.82584e-08,-4.2578e-09,-6.00057e-09,1.29997e-08,9.27189e-26,4.52981e-25,0.0,1.8258400125148455e-08,1.2999699983140545e-08,0.0,-4.257800001461476e-09,0.0,-6.000569929831556e-09
2,0.0010815,0.00678404,0.000487072,3.25261e-19,0.00181778,-8.55315e-21,3.19208e-20,3.19522e-08,-7.45077e-09,-1.05014e-08,2.27493e-08,2.14063e-25,-7.98907e-25,0.0,3.19522004410544e-08,2.2749300221391877e-08,0.0,-7.45077000097183e-09,0.0,-1.0501399971829528e-08
3,0.0017767,0.0111452,0.00080019,7.58942e-19,0.00298635,8.55315e-21,-3.19208e-20,5.24927e-08,-1.22421e-08,-1.72507e-08,3.73747e-08,4.28159e-25,-1.59792e-24,0.0,5.249270129681349e-08,3.737470066766946e-08,0.0,-1.2242099889370195e-08,0.0,-1.725069986857619e-08
4,0.0028196,0.017687,0.00126987,-2.27682e-18,0.00473921,-1.65988e-27,-4.44764e-28,8.33037e-08,-1.94275e-08,-2.73762e-08,5.93119e-08,1.2845e-24,-4.79383e-24,0.0,8.33037034908557e-08,5.931190183439128e-08,0.0,-1.9427499831081718e-08,0.0,-2.7376199640549714e-08
5,0.0043839,0.0274996,0.00197438,-4.01155e-18,0.00736849,1.71063e-20,-6.38416e-20,1.2952e-07,-3.02058e-08,-4.25643e-08,9.22178e-08,-1.48338e-24,-7.24799e-24,0.0,1.295200084960868e-07,9.221780428170234e-08,0.0,-3.0205799528282284e-08,0.0,-4.256429908533477e-08
6,0.0067304,0.0422185,0.00303115,-4.01155e-18,0.0113124,1.74418e-19,1.1516e-19,1.98845e-07,-4.63759e-08,-6.53437e-08,1.41578e-07,3.19598e-24,8.5636e-25,0.0,1.9884501978317815e-07,1.4157800998226833e-07,0.0,-4.637589889888716e-08,0.0,-6.534369789701344e-08
7,0.01025,0.0642969,0.00461631,8.13152e-18,0.0172283,2.08631e-19,-1.25227e-20,3.02832e-07,-7.06269e-08,-9.95172e-08,2.15616e-07,2.29126e-25,-1.36391e-23,0.0,3.0283204588421597e-07,2.156160232580362e-07,0.0,-7.062689755255036e-08,0.0,-9.951719504019962e-08
8,0.01553,0.0974145,0.00699405,2.92735e-18,0.0261021,-1.49373e-19,3.02101e-19,4.58812e-07,-1.07003e-07,-1.50778e-07,3.26673e-07,-3.42531e-24,1.27835e-23,0.0,4.5881210519738147e-07,3.266730532747175e-07,0.0,-1.0700299424293291e-07,0.0,-1.5077798865004155e-07
9,0.023449,0.147091,0.0105607,6.39679e-18,0.0394129,6.16725e-19,5.07377e-19,6.92782e-07,-1.61575e-07,-2.2766e-07,4.93263e-07,1.27839e-23,3.42544e-24,0.0,6.927822400193406e-07,4.932631216814087e-07,0.0,-1.6157498694546746e-07,0.0,-2.2765997409468497e-07
10,0.035328,0.221605,0.0159106,-7.48099e-18,0.059379,8.22001e-19,-2.58722e-19,1.04374e-06,-2.43427e-07,-3.4299e-07,7.43145e-07,1.27839e-23,3.42544e-24,0.0,1.0437405446594994e-06,7.43145276205226e-07,0.0,-2.4342697035883987e-07,0.0,-3.429899412266124e-07
11,0.053146,0.333377,0.0239354,-3.52366e-17,0.0893282,1.43291e-18,1.54718e-18,1.57017e-06,-3.66206e-07,-5.15985e-07,1.11797e-06,-4.82329e-29,-1.2924e-29,0.0,1.570171232812001e-06,1.1179706249642152e-06,0.0,-3.662059329112566e-07,0.0,-5.159848668334632e-07
12,0.079874,0.501035,0.0359727,-2.13588e-17,0.134252,1.15921e-18,2.56864e-18,2.35982e-06,-5.50367e-07,-7.75483e-07,1.6802e-06,-4.1105e-23,1.53406e-22,0.0,2.3598227842924757e-06,1.6802014115580022e-06,0.0,-5.503668485395963e-07,0.0,-7.754826992778519e-07
13,0.12,0.752521,0.0540286,-7.48099e-18,0.201637,2.25401e-18,-1.51722e-18,3.54429e-06,-8.26616e-07,-1.16472e-06,2.52354e-06,-1.0888e-28,-2.91744e-29,0.0,3.544296280910686e-06,2.523543184196342e-06,0.0,-8.266156583669471e-07,0.0,-1.1647193217667606e-06
14,0.1801,1.12975,0.0811124,2.02746e-17,0.302715,9.8783e-18,2.71531e-18,5.321e-06,-1.241e-06,-1.74857e-06,3.78857e-06,1.53406e-22,4.11051e-23,0.0,5.321014156622894e-06,3.788577176644381e-06,0.0,-1.2409992299344808e-06,0.0,-1.7485684712381655e-06
15,0.2703,1.69559,0.121738,-7.48099e-18,0.454332,-5.51699e-18,2.96936e-18,7.98605e-06,-1.86256e-06,-2.62435e-06,5.6861e-06,6.26956e-28,1.67992e-28,0.0,7.986081888677887e-06,5.686116165914967e-06,0.0,-1.862558265397496e-06,0.0,-2.6243465564013135e-06
16,0.4056,2.54435,0.182676,4.92119e-16,0.681756,-3.36327e-19,-2.16935e-20,1.19836e-05,-2.79488e-06,-3.93804e-06,8.53236e-06,2.19228e-22,-8.18169e-22,0.0,1.1983671803550422e-05,8.532396400751097e-06,0.0,-2.7948760943363737e-06,0.0,-3.938032245964784e-06
17,0.6086,3.81748,0.274083,3.81097e-16,1.02289,-3.36325e-19,-2.16927e-20,1.79799e-05,-4.19337e-06,-5.90853e-06,1.28018e-05,9.49301e-23,4.63893e-22,0.0,1.79800616393333e-05,1.2801881943413917e-05,0.0,-4.1933612078270954e-06,0.0,-5.908512544672284e-06
18,0.913,5.72716,0.411192,4.92119e-16,1.53459,3.23501e-17,8.73662e-18,2.69743e-05,-6.2911e-06,-8.86425e-06,1.92058e-05,4.09074e-22,1.09611e-22,0.0,2.697466380974234e-05,1.920598443261312e-05,0.0,-6.291080211107136e-06,0.0,-8.864210712666853e-06
19,1.37,8.59165,0.616853,-1.28424e-15,2.30213,-3.36733e-19,-2.18022e-20,4.04657e-05,-9.43765e-06,-1.32978e-05,2.88117e-05,4.38461e-22,-1.63636e-21,0.0,4.0466518747450664e-05,2.8812115061116472e-05,0.0,-9.4376054655676e-06,0.0,-1.3297711584647764e-05
20,2.055,12.8883,0.925338,-5.059e-15,3.45341,6.94144e-17,1.1511e-18,6.07025e-05,-1.41574e-05,-1.99479e-05,4.32204e-05,-7.0378e-26,-1.88577e-26,0.0,6.070434243410361e-05,4.322133401490902e-05,0.0,-1.4157299784489652e-05,0.0,-1.994770104196686e-05
21,3.082,19.3331,1.38805,-2.81516e-14,5.18029,7.817e-17,-3.15365e-17,9.10568e-05,-2.12368e-05,-2.99229e-05,6.48327e-05,8.76832e-22,-3.2728e-21,0.0,9.106094579625079e-05,6.483480168495426e-05,0.0,-2.123657450070482e-05,0.0,-2.992245231447921e-05
22,4.623,116.413,8.35811,-1.03265e-09,31.1929,9.83292e-16,7.71529e-16,0.000548295,-0.000127877,-0.000180179,0.000390388,3.49743e-21,-1.3096e-20,0.0,0.0005484453411794821,0.0003904642113123913,0.0,-0.00012786882408488687,0.0,-0.00018016276873877857
23,6.935,262.609,18.8545,-9.04826e-07,70.3658,1.26247e-15,-2.74743e-16,0.00123686,-0.000288468,-0.000406453,0.000880648,1.40118e-20,-5.23908e-20,0.0,0.0012376252267900512,0.0008810358843047705,0.0,-0.0002884263971069112,0.0,-0.00040637040916957634
24,10.03,446.441,32.0929,0.00246607,119.702,-0.011819,-0.00316514,0.00215605,-0.000511253,-0.000723409,0.00153874,-1.52492e-07,-4.08939e-08,5.8852e-05,0.0021583759471202058,0.0015399244678453439,-1.524919883699738e-07,-0.0005111223324539838,-4.089389915584718e-08,-0.0007231474027937779
25,13.12,468.018,33.7939,8.72671e-05,125.763,-0.121394,-0.0324835,0.00307237,-0.000854934,-0.00125123,0.00223591,-2.19391e-06,-5.95533e-07,0.000956955,0.0030770945660076876,0.002238411510800953,-2.1939075933730123e-06,-0.000854568648052445,-5.95532822722511e-07,-0.0012504475381240887
26,16.21,485.784,35.1933,7.87554e-05,130.754,-0.210924,-0.056413,0.00398762,-0.00120104,-0.00178348,0.00293364,-4.45845e-06,-1.21538e-06,0.00187392,0.003995581135108672,0.0029379473328496886,-4.458440061139157e-06,-0.0012003190401218555,-1.21537926145443e-06,-0.0017818905446057576
27,19.3,500.927,36.3855,3.17064e-05,135.008,-0.285756,-0.0763972,0.00490183,-0.00154866,-0.00231861,0.00363164,-6.91814e-06,-1.89186e-06,0.00280355,0.004913863622898029,0.003638242394632174,-6.9181160696762944e-06,-0.0015474614449000335,-1.8918582104232584e-06,-0.0023159241000864084
28,22.39,514.155,37.4261,1.24564e-05,138.722,-0.349698,-0.0934607,0.00581501,-0.00189728,-0.0028557,0.00432972,-9.55148e-06,-2.61839e-06,0.00374217,0.005831949990136476,0.004339106780126167,-9.551434384746926e-06,-0.0018954813020251038,-2.6183865720064148e-06,-0.002851626367368465
29,25.48,525.918,38.351,3.37738e-06,142.023,-0.405313,-0.108293,0.00672718,-0.00224656,-0.00339416,0.00502776,-1.23389e-05,-3.3891e-06,0.00468742,0.006749858300524769,0.005040420394224032,-1.2338823876079097e-05,-0.0022440383727655444,-3.3890942570113936e-06,-0.003388406350390505
30,28.57,536.524,39.1845,-1.83589e-06,145.0,-0.454387,-0.121373,0.00763833,-0.00259627,-0.00393358,0.00572565,-1.52632e-05,-4.19891e-06,0.0056377,0.00766757645987548,0.005742072862854997,-1.526308351795791e-05,-0.0025929026058953974,-4.198901184637727e-06,-0.003925853608305108
31,31.66,546.192,39.9439,-5.49982e-06,147.712,-0.498202,-0.133046,0.0085485,-0.00294626,-0.00447367,0.00642333,-1.83095e-05,-5.04348e-06,0.00659187,0.00858514276526079,0.006444003825374356,-1.830933238211596e-05,-0.0029419240353445453,-5.0434672816956905e-06,-0.004463678044156594
32,34.75,555.083,40.6421,-8.56782e-06,150.206,-0.537709,-0.143566,0.00945767,-0.00329641,-0.00501424,0.00712073,-2.1465e-05,-5.91909e-06,0.00754908,0.009502535089105812,0.007146142681003109,-2.1464769628498637e-05,-0.0032909828056129076,-5.91907248226331e-06,-0.0050016896841387215
33,37.84,563.32,41.2886,-1.14621e-05,152.516,-0.573628,-0.153127,0.0103659,-0.00364663,-0.00555511,0.00781782,-2.47187e-05,-6.82254e-06,0.00850871,0.010419812062728795,0.007848458945987291,-2.4718394495470974e-05,-0.0036399891195518785,-6.822516726567862e-06,-0.005539708907894458
34,40.93,570.998,41.8912,-1.43789e-05,154.669,-0.60652,-0.161879,0.0112731,-0.00399686,-0.00609616,0.00851454,-2.8061e-05,-7.75109e-06,0.00947026,0.011336880835731256,0.008550891795397142,-2.806060629378937e-05,-0.003988883186011982,-7.751059960425799e-06,-0.006077616117919904
35,44.02,578.192,42.4557,-1.74112e-05,156.686,-0.636824,-0.16994,0.0121794,-0.00434705,-0.0066373,0.00921089,-3.14838e-05,-8.70237e-06,0.0104333,0.0122538709221236,0.009253440790506273,-3.148330439040059e-05,-0.0043376152542036195,-8.702332134458146e-06,-0.006615321776592298
36,47.11,584.964,42.9869,-2.06017e-05,158.584,-0.664896,-0.177404,0.0130847,-0.00469715,-0.00717845,0.00990682,-3.49797e-05,-9.67432e-06,0.0113976,0.013170679282158204,0.009956054994349595,-3.497908821736839e-05,-0.004686135643049205,-9.674273203863493e-06,-0.007152746468411686
37,50.2,591.363,43.4888,-2.3969e-05,160.378,-0.691022,-0.184349,0.013989,-0.00504712,-0.00771954,0.0106023,-3.85425e-05,-1.06651e-05,0.0123628,0.014087303916797023,0.01065870354216103,-3.854175724737896e-05,-0.005034404690744343,-1.0665043128077478e-05,-0.0076898208729268
38,53.29,597.431,43.9648,-2.75192e-05,162.079,-0.715439,-0.190838,0.0148924,-0.00539695,-0.00826052,0.0112974,-4.21666e-05,-1.16732e-05,0.0133288,0.015003844326123339,0.01136145662053023,-4.2165711001462824e-05,-0.0053824126295934915,-1.1673131868450426e-05,-0.008226495655380361
39,56.38,603.202,44.4174,-3.12516e-05,163.696,-0.738345,-0.196924,0.0157949,-0.00574661,-0.00880134,0.0119919,-4.58471e-05,-1.26972e-05,0.0142953,0.015920298783496545,0.01206409111373885,-4.584604903778988e-05,-0.005730129820254448,-1.269711939089202e-05,-0.008762721588075784
40,59.47,608.706,44.8491,-3.51625e-05,165.239,-0.759905,-0.202651,0.0166964,-0.00609608,-0.00934197,0.012686,-4.95796e-05,-1.37357e-05,0.0152623,0.016836563877286936,0.012766808649288919,-4.957837095198592e-05,-0.0060775366041260215,-1.3735605665754491e-05,-0.009298469364194428
41,62.56,613.968,45.2618,-3.92464e-05,166.714,-0.780259,-0.208056,0.017597,-0.00644534,-0.00988237,0.0133796,-5.33601e-05,-1.47878e-05,0.0162295,0.017752739378618543,0.013469507375515333,-5.3358676375125924e-05,-0.006424613350151542,-1.478769066098895e-05,-0.009833699839050247
42,65.65,619.01,45.6572,-4.34971e-05,168.127,-0.799528,-0.213173,0.0184967,-0.00679438,-0.0104225,0.0140727,-5.71853e-05,-1.58524e-05,0.0171969,0.018668823556910796,0.014172186576424384,-5.7183664951887536e-05,-0.006771350387039798,-1.5852274351413342e-05,-0.010368373952992727
43,68.74,623.85,46.0369,-4.79084e-05,169.484,-0.817815,-0.218027,0.0193954,-0.00714319,-0.0109624,0.0147653,-6.10518e-05,-1.69286e-05,0.0181643,0.019584712721793407,0.01487484553555607,-6.104993637678913e-05,-0.007117738057057621,-1.6928456712084206e-05,-0.010902531858993592
44,71.83,628.506,46.4021,-5.2474e-05,170.789,-0.83521,-0.222644,0.0202932,-0.00749175,-0.011502,0.0154573,-6.49569e-05,-1.80157e-05,0.0191317,0.020500506915374306,0.01557738197824099,-6.495479034618334e-05,-0.00746375679063227,-1.801553771829667e-05,-0.011436104881854314
45,74.92,632.99,46.754,-5.71879e-05,172.046,-0.851791,-0.227045,0.0211901,-0.00784007,-0.0120412,0.0161489,-6.88979e-05,-1.91128e-05,0.0200991,0.021416204403180705,0.016279998232312298,-6.889552659417042e-05,-0.007809416811222936,-1.9112617351546568e-05,-0.011968994854054671
46,78.01,637.318,47.0935,-6.20444e-05,173.26,-0.867627,-0.231247,0.0220861,-0.00818812,-0.0125802,0.0168399,-7.28725e-05,-2.02192e-05,0.0210663,0.022331803449443965,0.016982490394180427,-7.286984486387649e-05,-0.008154688654283815,-2.021899559334628e-05,-0.012501400069733104
47,81.1,641.499,47.4216,-6.70384e-05,174.432,-0.882778,-0.235266,0.0229811,-0.00853591,-0.0131188,0.0175303,-7.68785e-05,-2.13345e-05,0.0220332,0.02324719999237934,0.01768485753478677,-7.687554492386006e-05,-0.00849958255631511,-2.1334272421125178e-05,-0.013033123609652364
48,84.19,645.544,47.7391,-7.21647e-05,175.566,-0.897298,-0.239118,0.0238753,-0.00888343,-0.013657,0.0182202,-8.09139e-05,-2.24581e-05,0.023,0.024162596851552864,0.018387200563370287,-8.091062655868342e-05,-0.00884408891649291,-2.2457847818735388e-05,-0.01356416626612822
49,87.28,649.462,48.0467,-7.74186e-05,176.665,-0.911235,-0.242814,0.0247685,-0.00923067,-0.0141949,0.0189096,-8.4977e-05,-2.35893e-05,0.0239664,0.025077787546379682,0.019089518760705193,-8.497338955693046e-05,-0.009188198147355275,-2.3589021774683694e-05,-0.01409462742077594
50,90.37,653.261,48.345,-8.27959e-05,177.73,-0.924631,-0.246367,0.0256609,-0.00957763,-0.0147324,0.0195984,-8.90661e-05,-2.47278e-05,0.0249324,0.025992975260007656,0.019791709427930737,-8.906213373260918e-05,-0.009531910579445357,-2.472749427051557e-05,-0.01462440916693819
51,93.46,656.949,48.6346,-8.82925e-05,178.765,-0.937524,-0.249786,0.0265523,-0.00992431,-0.0152695,0.0202866,-9.31796e-05,-2.58732e-05,0.0258981,0.026907953143210595,0.020493771634255253,-9.317525891583411e-05,-0.009875226542857996,-2.5872865291654e-05,-0.015153512293410665
52,96.55,660.533,48.9161,-9.39046e-05,179.77,-0.94995,-0.25308,0.0274429,-0.0102707,-0.0158062,0.0209743,-9.73161e-05,-2.70249e-05,0.0268633,0.027822924742655797,0.0211958065680522,-9.731136494195436e-05,-0.010218136469422379,-2.702453483072187e-05,-0.015681937587750827
53,99.64,664.018,49.1898,-9.96286e-05,180.747,-0.961938,-0.256258,0.0283325,-0.0106168,-0.0163425,0.0216614,-0.000101474,-2.81828e-05,0.0278281,0.028737682840581646,0.021897711318507485,-0.00010146885168782482,-0.01056064069861451,-2.8182402868615064e-05,-0.016209685836280352
54,102.7,667.41,49.4564,-0.000105461,181.699,-0.973518,-0.259328,0.0292212,-0.0109626,-0.0168784,0.0223479,-0.000105653,-2.93463e-05,0.0287925,0.029652328381870374,0.022599484953566895,-0.00010564741891827545,-0.010902729678467504,-2.9345869401509184e-05,-0.016736757824087678
55,105.8,670.715,49.7161,-0.000111399,182.626,-0.984714,-0.262296,0.0301091,-0.0113081,-0.0174139,0.0230339,-0.000109851,-3.05152e-05,0.0297563,0.030566962676046527,0.0233012288708887,-0.00010984496659982579,-0.011244403757767585,-3.0514734416065004e-05,-0.017263154335027786
56,108.9,673.937,49.9694,-0.00011744,183.53,-0.995551,-0.265168,0.0309961,-0.0116533,-0.0179489,0.0237193,-0.000114067,-3.16892e-05,0.0307196,0.0314814811009021,0.024002839947806276,-0.00011406049460704892,-0.011585663284807257,-3.168869790259876e-05,-0.017788777930609623
57,112.0,677.079,50.2165,-0.000123581,184.412,-1.00605,-0.26795,0.0318821,-0.0119982,-0.0184836,0.0244041,-0.000118301,-3.28681e-05,0.0316823,0.03239577866716936,0.024704317251018182,-0.00011829400271257118,-0.011926508607385422,-3.2867559849880656e-05,-0.018313825886969504
58,115.1,680.148,50.4578,-0.000129818,185.273,-1.01623,-0.270648,0.0327673,-0.0123428,-0.0190178,0.0250884,-0.000122551,-3.40515e-05,0.0326445,0.033310060011667586,0.02540576238739467,-0.00012254349093288042,-0.012266940072809152,-3.405092025421386e-05,-0.01883810259440455
59,118.2,683.145,50.6936,-0.000136151,186.115,-1.02611,-0.273266,0.0336517,-0.0126871,-0.0195516,0.025772,-0.000126816,-3.52392e-05,0.0336062,0.034224323656533606,0.026106969411816783,-0.00012680795919095544,-0.012606958027892357,-3.523857910670003e-05,-0.01936170705277629
60,121.3,686.074,50.9241,-0.000142577,186.937,-1.0357,-0.275808,0.0345351,-0.0130311,-0.020085,0.0264551,-0.000131096,-3.6431e-05,0.0345672,0.035138361094945614,0.026808142541038915,-0.0001310874072948387,-0.012946562818957674,-3.6430336399218e-05,-0.019884640039608437
61,124.4,688.939,51.1496,-0.000149092,187.742,-1.04503,-0.278278,0.0354176,-0.0133748,-0.0206179,0.0271376,-0.000135391,-3.76267e-05,0.0355276,0.03605227390332555,0.027509178299563564,-0.00013538183505212853,-0.013285754791837134,-3.762599212464579e-05,-0.02040680437188791
62,127.4,691.742,51.3703,-0.000155697,188.529,-1.0541,-0.280681,0.0362993,-0.0137182,-0.0211504,0.0278196,-0.000139698,-3.88261e-05,0.0364873,0.03696616402248054,0.028210178573085942,-0.00013968824268872915,-0.01362453429187227,-3.8825346276749606e-05,-0.02092829888832204
63,130.5,694.487,51.5865,-0.000162387,189.3,-1.06292,-0.28302,0.0371801,-0.0140612,-0.0216824,0.0285009,-0.000144018,-4.00289e-05,0.0374465,0.03787992618153102,0.02891093685395041,-0.0001440076299056292,-0.013962803060199924,-4.002809885428338e-05,-0.021449026507485258
64,133.6,697.175,51.7982,-0.000169163,190.055,-1.07152,-0.285298,0.0380601,-0.014404,-0.022214,0.0291817,-0.00014835,-4.12351e-05,0.038405,0.038793662501585,0.029611657918146017,-0.00014833899668276196,-0.014300758682407877,-4.123424984492363e-05,-0.021969085960943824
65,136.7,699.81,52.0058,-0.000176021,190.795,-1.0799,-0.287518,0.0389391,-0.0147464,-0.0227451,0.0298618,-0.000152693,-4.24444e-05,0.0393628,0.039707163555819935,0.030312134976920424,-0.00015268134301715808,-0.0146382043286436,-4.2443499249200656e-05,-0.022488380268580133
66,139.8,702.393,52.2094,-0.000182961,191.521,-1.08807,-0.289682,0.0398173,-0.0150886,-0.0232758,0.0305414,-0.000157047,-4.36568e-05,0.04032,0.0406206354336478,0.031012573085761552,-0.00015703466876537675,-0.014975337448355663,-4.3655847055790176e-05,-0.02300700805511624
67,142.9,704.926,52.4091,-0.000189981,192.233,-1.09605,-0.291794,0.0406947,-0.0154304,-0.0238061,0.0312205,-0.000161411,-4.48719e-05,0.0412765,0.04153407664723807,0.03171297151751462,-0.00016139797394532085,-0.015311961345714553,-4.487089327132043e-05,-0.02352497008897292
68,146.0,707.412,52.6052,-0.000197079,192.931,-1.10383,-0.293856,0.0415711,-0.0157719,-0.0243359,0.0318989,-0.000165785,-4.60898e-05,0.0422323,0.042447277218051305,0.03241312306194333,-0.0001657712584262061,-0.01564817489918313,-4.6088737881477826e-05,-0.02404216954158711
69,149.1,709.852,52.7977,-0.000204254,193.617,-1.11143,-0.29587,0.0424467,-0.0161131,-0.0248652,0.0325767,-0.000170168,-4.73102e-05,0.0431874,0.0433604437799624,0.03311312988226667,-0.00017015352224702962,-0.015983978450563874,-4.730908089012331e-05,-0.024558607333930005
70,152.2,712.249,52.9867,-0.000211504,194.291,-1.11886,-0.297838,0.0433215,-0.016454,-0.0253941,0.033254,-0.00017456,-4.85331e-05,0.0441418,0.044273574841474206,0.03381309442136926,-0.00017454476528955265,-0.01631937234117331,-4.853192228815306e-05,-0.02507438187790967
71,155.3,714.602,53.1725,-0.000218829,194.953,-1.12613,-0.299762,0.0441954,-0.0167945,-0.0259225,0.0339306,-0.00017896,-4.97583e-05,0.0450955,0.04518656439120772,0.03451280904781928,-0.00017894398761431063,-0.016654258577273984,-4.9757062076327685e-05,-0.02558939649568015
72,158.3,716.915,53.3551,-0.000226228,195.603,-1.13324,-0.301645,0.0450684,-0.0171348,-0.0264505,0.0346067,-0.000183369,-5.09857e-05,0.0460484,0.0460994106613426,0.03521247965501306,-0.00018335218893239524,-0.016988834201808745,-5.098440025130824e-05,-0.02610374949318983
73,161.4,719.189,53.5347,-0.000233698,196.243,-1.14019,-0.303487,0.0459406,-0.0174747,-0.026978,0.0352822,-0.000187785,-5.22153e-05,0.0470007,0.04701221658411736,0.03591200192206645,-0.0001877673695004356,-0.017322902918868954,-5.221393680499009e-05,-0.026617344292794498
74,164.5,721.425,53.7113,-0.000241239,196.872,-1.147,-0.305291,0.0468119,-0.0178144,-0.0275051,0.0359571,-0.000192208,-5.34468e-05,0.0479522,0.04792487587070737,0.03661137490903155,-0.00019218952922572807,-0.01765666163661961,-5.344537174523101e-05,-0.027130279094774612
75,167.6,723.624,53.8851,-0.000248851,197.49,-1.15368,-0.307058,0.0476824,-0.0181537,-0.0280317,0.0366314,-0.000196638,-5.46802e-05,0.048903,0.048837491633534125,0.03731059767559497,-0.00019661866801556904,-0.017989914191833045,-5.4678705065147604e-05,-0.027642457421414246
76,170.7,725.788,54.0562,-0.000256531,198.099,-1.16021,-0.308789,0.048552,-0.0184927,-0.0285578,0.0373052,-0.000201074,-5.59155e-05,0.0498531,0.04974995739887267,0.03800977308205078,-0.0002010537859780115,-0.0183227591905073,-5.591393675752343e-05,-0.028153880183011237
77,173.8,727.918,54.2246,-0.00026428,198.698,-1.16662,-0.310486,0.0494208,-0.0188314,-0.0290835,0.0379783,-0.000205517,-5.71524e-05,0.0508024,0.050662376459308156,0.03870869265530641,-0.00020549588282792186,-0.01865519697045337,-5.715076683265874e-05,-0.028664645421793256
78,176.9,730.014,54.3904,-0.000272095,199.289,-1.17291,-0.312151,0.0502888,-0.0191697,-0.0296087,0.0386509,-0.000209966,-5.8391e-05,0.051751,0.051574747313742675,0.039407563125778866,-0.00020994395868201288,-0.01898712976771999,-5.838929527868242e-05,-0.029174656809303978
79,180.0,732.079,54.5537,-0.000279977,199.87,-1.17908,-0.313784,0.0511559,-0.0195078,-0.0301335,0.0393228,-0.00021442,-5.96312e-05,0.0526988,0.05248696321118551,0.04010617574006847,-0.0002143970136746498,-0.01931875415488382,-5.962942209536415e-05,-0.029684012282844008
80,183.1,734.112,54.7147,-0.000287924,200.442,-1.18513,-0.315387,0.0520221,-0.0198455,-0.0306577,0.0399942,-0.00021888,-6.08729e-05,0.0536459,0.05339902237451599,0.04080473750740454,-0.00021885604752036603,-0.01964987429882248,-6.0871047282584634e-05,-0.030192518632446763
81,186.2,736.116,54.8733,-0.000295936,201.006,-1.19107,-0.316961,0.0528875,-0.020183,-0.0311816,0.040665,-0.000223345,-6.21159e-05,0.0545922,0.05431102845659219,0.04150314354452034,-0.00022332006036218655,-0.01998068663852437,-6.211397084743275e-05,-0.03070046770305812
82,189.2,738.09,55.0296,-0.000304012,201.563,-1.19691,-0.318506,0.0537521,-0.0205201,-0.0317049,0.0413352,-0.000227815,-6.33604e-05,0.0555378,0.05522297995161751,0.04220139290855007,-0.00022778905213327594,-0.02031099547237647,-6.335839277227251e-05,-0.031207569453563844
83,192.3,740.036,55.1838,-0.000312151,202.111,-1.20264,-0.320025,0.0546159,-0.0208569,-0.0322278,0.0420049,-0.000232289,-6.46061e-05,0.0564826,0.05613487535262274,0.04289958894622892,-0.0002322620229989747,-0.02064089917020029,-6.460401307084584e-05,-0.03171401859282952
84,195.4,741.955,55.3358,-0.000320353,202.651,-1.20828,-0.321517,0.0554788,-0.0211934,-0.0327503,0.0426739,-0.000236768,-6.5853e-05,0.0574266,0.0570466074468039,0.04359752220387825,-0.00023673997266904223,-0.020970398066331053,-6.585083173882289e-05,-0.03221981586706979
85,198.5,743.847,55.4858,-0.000328617,203.184,-1.21382,-0.322984,0.0563409,-0.0215295,-0.0332723,0.0433424,-0.000241251,-6.7101e-05,0.0583699,0.05795828024718008,0.04429540038726443,-0.00024122190131747878,-0.02129939462457231,-6.709874877819377e-05,-0.03272486529381857
86,201.6,745.713,55.6338,-0.000336942,203.71,-1.21926,-0.324427,0.0572021,-0.0218654,-0.0337938,0.0440102,-0.000245738,-6.83502e-05,0.0593124,0.05886978635632323,0.04499301376282361,-0.00024570780889066057,-0.021628084951287097,-6.834786417830863e-05,-0.03322916776826845
87,204.7,747.555,55.7798,-0.000345328,204.229,-1.22462,-0.325846,0.0580625,-0.0222009,-0.0343148,0.0446775,-0.000250229,-6.96004e-05,0.0602541,0.05978122996731838,0.045690570314766754,-0.0002501976953348528,-0.021956273672049442,-6.959797794836575e-05,-0.03373272418402429
88,207.8,749.371,55.9239,-0.000353774,204.741,-1.22989,-0.327242,0.0589221,-0.0225362,-0.0348354,0.0453442,-0.000254723,-7.08515e-05,0.0611951,0.06069260956743139,0.046387964668571424,-0.0002546905608509231,-0.02228415676081552,-7.084899009168755e-05,-0.03423563200954893
89,210.9,751.164,56.0662,-0.000362279,205.247,-1.23508,-0.328617,0.0597809,-0.0228711,-0.0353555,0.0460104,-0.000259221,-7.21037e-05,0.0621353,0.06160392364278122,0.047085300587436985,-0.00025918740513941607,-0.022611538973505096,-7.210110059063801e-05,-0.03473779545841593
90,214.0,752.934,56.2067,-0.000370843,205.746,-1.24019,-0.32997,0.0606389,-0.0232057,-0.0358752,0.0466759,-0.000263721,-7.33567e-05,0.0630747,0.06251517067834245,0.04778236777835887,-0.0002636862286737873,-0.022938518445848044,-7.335400946306692e-05,-0.03523931189578222
91,217.1,754.681,56.3454,-0.000379467,206.239,-1.24523,-0.331302,0.061496,-0.02354,-0.0363944,0.0473409,-0.000268225,-7.46105e-05,0.0640133,0.06342624281532094,0.04847937478207398,-0.00026818903089065316,-0.023265095508734013,-7.460771670586563e-05,-0.03574008563293429
92,220.1,756.406,56.4825,-0.000388148,206.725,-1.25018,-0.332615,0.0623523,-0.023874,-0.0369131,0.0480052,-0.000272732,-7.58651e-05,0.0649512,0.0643372446968331,0.04917611102606312,-0.0002726948120088668,-0.023591270492579586,-7.586222231603656e-05,-0.036240117556026186
93,223.2,758.111,56.6179,-0.000396886,207.206,-1.25507,-0.333908,0.0632078,-0.0242077,-0.0374314,0.048669,-0.000277242,-7.71205e-05,0.0658882,0.06524817480446732,0.049872785329182046,-0.00027720357198801615,-0.023917043727329057,-7.711752629069313e-05,-0.03673950487569344
94,226.3,759.794,56.7516,-0.000405682,207.681,-1.25988,-0.335183,0.0640625,-0.024541,-0.0379492,0.0493323,-0.000281754,-7.83766e-05,0.0668245,0.06615903161868286,0.05056939695339557,-0.0002817143110692699,-0.024242317966691407,-7.837352863448999e-05,-0.037238152049174356
95,229.4,761.457,56.8839,-0.000414535,208.15,-1.26462,-0.33644,0.0649163,-0.0248741,-0.0384666,0.0499949,-0.000286269,-7.96334e-05,0.06776,0.06706970691184022,0.0512657349071044,-0.00028622802893951693,-0.024567288723692404,-7.963022934498465e-05,-0.03773615618452453
96,232.5,763.1,57.0145,-0.000423444,208.614,-1.2693,-0.337679,0.0657694,-0.0252068,-0.0389835,0.050657,-0.000290785,-8.08908e-05,0.0686948,0.06798041248503606,0.05196200842609877,-0.00029074272613949237,-0.02489176120774339,-8.088752842738689e-05,-0.03823342183601319
97,235.6,764.724,57.1437,-0.00043241,209.072,-1.27392,-0.338901,0.0666216,-0.0255393,-0.0394999,0.0513184,-0.000295305,-8.21488e-05,0.0696287,0.06889093331037444,0.05265800623957695,-0.0002952614017701638,-0.025215930800960296,-8.214542587969831e-05,-0.038729949882401526
98,238.7,766.329,57.2714,-0.00044143,209.525,-1.27847,-0.340107,0.067473,-0.0258714,-0.0400158,0.0519793,-0.000299826,-8.34074e-05,0.0705619,0.06980137457084279,0.05335393786117382,-0.00029978105667671784,-0.025539602841624154,-8.340392169947641e-05,-0.039225741200890285
99,241.8,767.915,57.3977,-0.000450507,209.973,-1.28296,-0.341296,0.0683237,-0.0262032,-0.0405314,0.0526397,-0.000304349,-8.46664e-05,0.0714943,0.07071184181252321,0.05404980255096725,-0.00030430269054126935,-0.025862875167556587,-8.466281590147062e-05,-0.03972098872294427
100,244.9,769.484,57.5226,-0.000459638,210.416,-1.28739,-0.34247,0.0691735,-0.0265347,-0.0410464,0.0532994,-0.000308874,-8.5926e-05,0.0724258,0.07162211945788655,0.05474538861954792,-0.00030882630333695094,-0.026185748105292506,-8.592230846693472e-05,-0.040215405090609724
101,248.0,771.035,57.6462,-0.000468823,210.855,-1.29177,-0.343629,0.0700225,-0.0268659,-0.041561,0.0539586,-0.0003134,-8.71861e-05,0.0733566,0.07253231295977525,0.055440905997067524,-0.0003133508953500064,-0.026508221980898306,-8.718229940241073e-05,-0.04070918318315031
102,251.0,772.569,57.7684,-0.000478063,211.288,-1.29609,-0.344774,0.0708707,-0.0271968,-0.0420751,0.0546172,-0.000317928,-8.84466e-05,0.0742866,0.07344242078979435,0.05613624832885322,-0.0003178774662490058,-0.026830297119974422,-8.844268871477379e-05,-0.04120222784408656
103,254.1,774.086,57.8893,-0.000487358,211.717,-1.30035,-0.345904,0.0717181,-0.0275274,-0.0425888,0.0552752,-0.000322458,-8.97075e-05,0.0752159,0.07435244141845598,0.056831414664896274,-0.0003224060160068598,-0.027151973847653443,-8.970347640246956e-05,-0.04169463577383792
104,257.2,775.587,58.009,-0.000496706,212.141,-1.30457,-0.347021,0.0725647,-0.0278577,-0.043102,0.0559326,-0.000326989,-9.09687e-05,0.0761443,0.0752623733151847,0.05752640405487974,-0.0003269355449235789,-0.027473252488603217,-9.096456247326135e-05,-0.04218631191187039
105,260.3,777.072,58.1274,-0.000506107,212.56,-1.30873,-0.348124,0.0734105,-0.0281877,-0.0436147,0.0565895,-0.000331521,-9.22304e-05,0.077072,0.07617221494832105,0.05822132137030667,-0.0003314660529856184,-0.027794133367024965,-9.222614690740372e-05,-0.04267725712519366
106,263.4,778.542,58.2446,-0.000515562,212.976,-1.31285,-0.349214,0.0742555,-0.0285173,-0.044127,0.0572458,-0.000336055,-9.34923e-05,0.0779988,0.07708196478512663,0.0589160599770584,-0.0003359985398433407,-0.02811451961811262,-9.348792973107312e-05,-0.043167567962523856
107,266.5,779.995,58.3606,-0.00052507,213.387,-1.31691,-0.350291,0.0750997,-0.0288467,-0.0446388,0.0579015,-0.000340589,-9.47546e-05,0.0789249,0.07799162129178572,0.05961061892385122,-0.0003405310061509459,-0.028434605974233418,-9.475011092463514e-05,-0.043657149506636905
108,269.6,781.434,58.4755,-0.00053463,213.794,-1.32093,-0.351356,0.0759431,-0.0291757,-0.0451502,0.0585567,-0.000345125,-9.60171e-05,0.0798502,0.07890118293341142,0.06030510328960381,-0.0003450654512181517,-0.028754198413028842,-9.60124905057258e-05,-0.04414609820554061
109,272.7,782.859,58.5892,-0.000544244,214.196,-1.32491,-0.352409,0.0767858,-0.0295045,-0.0456611,0.0592113,-0.000349662,-9.72799e-05,0.0807747,0.0798107561551189,0.060999406230777264,-0.00034960087536750617,-0.02907349153792438,-9.727516846391726e-05,-0.044634319237285225
110,275.8,784.269,58.7018,-0.000553909,214.595,-1.32884,-0.35345,0.0776276,-0.0298329,-0.0461716,0.0598653,-0.000354199,-9.85429e-05,0.0816984,0.0807201235486863,0.06169352679513618,-0.00035413627893976507,-0.029392291453492203,-9.853804480786099e-05,-0.04512190894945123
111,278.9,785.665,58.8133,-0.000563627,214.99,-1.33273,-0.35448,0.0784686,-0.0301611,-0.0466816,0.0605187,-0.000358738,-9.98061e-05,0.0826213,0.08162939146615744,0.0623874640301505,-0.00035867366121766775,-0.029710792634534244,-9.980111953689086e-05,-0.04560877261509966
112,281.9,787.047,58.9237,-0.000573397,215.381,-1.33657,-0.3555,0.0793089,-0.0304889,-0.0471911,0.0611716,-0.000363277,-0.00010107,0.0835434,0.08253866662225984,0.06308132329112315,-0.00036321102290015617,-0.03002880131223884,-0.00010106489259953388,-0.04609491109115893
113,285.0,788.415,59.0331,-0.000583219,215.768,-1.34038,-0.356508,0.0801484,-0.0308164,-0.0477002,0.0618239,-0.000367816,-0.000102333,0.0844648,0.08344783940476863,0.0637749974555386,-0.00036774836398778543,-0.030346414867750693,-0.00010232776415708411,-0.04658042057499712
114,288.1,789.771,59.1415,-0.000593093,216.152,-1.34414,-0.357506,0.0809871,-0.0311437,-0.0482089,0.0624756,-0.000372356,-0.000103597,0.0853853,0.08435690827241937,0.064468485569938,-0.0003722866841083805,-0.030663730554619573,-0.00010359163401607585,-0.047065301775061075
115,291.2,791.113,59.2488,-0.000603018,216.532,-1.34787,-0.358493,0.081825,-0.0314706,-0.0487171,0.0631268,-0.000376897,-0.000104861,0.0863051,0.08526587168290134,0.06516189319676036,-0.0003768259832479526,-0.03098055479335815,-0.00010485550227745666,-0.047549460153634815
116,294.3,792.443,59.3552,-0.000612995,216.908,-1.35156,-0.359471,0.0826621,-0.0317972,-0.0492248,0.0637774,-0.000381438,-0.000106125,0.0872241,0.0861747280928653,0.06585511300442559,-0.0003813652617747909,-0.031296984868318445,-0.00010611936894133756,-0.04803289656199827
117,297.4,793.76,59.4606,-0.000623023,217.281,-1.35521,-0.36044,0.0834984,-0.0321236,-0.0497321,0.0644274,-0.00038598,-0.000107389,0.0881423,0.0870834759579242,0.06654814403856402,-0.00038590551930273165,-0.03161311793673416,-0.00010738323400771854,-0.04851570699835095
118,300.5,795.065,59.5651,-0.000633102,217.651,-1.35883,-0.361398,0.084334,-0.0324496,-0.0502389,0.0650769,-0.000390522,-0.000108653,0.0890597,0.08799222253187744,0.06724109206862994,-0.00039044575620905686,-0.03192876060773586,-0.0001086470974764886,-0.0489977970661023
119,303.6,796.358,59.6686,-0.000643232,218.017,-1.36242,-0.362348,0.0851688,-0.0327753,-0.0507453,0.0657258,-0.000395064,-0.000109917,0.0899763,0.08890085765077749,0.06793384955413084,-0.0003949859724936555,-0.03224401006924427,-0.00010991095934786976,-0.0494792626642897
120,306.7,797.639,59.7712,-0.000653413,218.38,-1.36596,-0.363289,0.0860028,-0.0331007,-0.0512512,0.0663742,-0.000399607,-0.000111182,0.0908921,0.08980937976712,0.06862652240245137,-0.0003995271677570411,-0.032558866638425665,-0.00011117581951047839,-0.049960009490144786
121,309.0,798.599,59.8482,-0.000665071,218.652,-1.36862,-0.363993,0.0866324,-0.0333464,-0.0516331,0.0668637,-0.000403038,-0.000112137,0.0915835,0.09049573979608594,0.06914974313299371,-0.0004029567910956988,-0.03279653772580393,-0.00011213071288163068,-0.05032276049080808
