,Time,S11,S22,S33,S12,S13,S23,LE11,LE22,LE33,LE12,LE13,LE23,SDV_EPBAR,E11,E12,E13,E22,E23,E33
0,0.000309,0.0019383,0.000139163,-7.79048e-12,0.000519365,9.3624e-20,3.36396e-20,9.1292e-09,-2.12864e-09,-3.00057e-09,6.49972e-09,9.45271e-25,4.67314e-25,0.0,9.129200062574228e-09,6.499720095476391e-09,0.0,-2.128640042009522e-09,0.0,-3.0005700146773506e-09
1,0.000618,0.00387659,0.000278327,3.25261e-19,0.00103873,3.61973e-20,-7.40724e-21,1.82584e-08,-4.2578e-09,-6.00057e-09,1.29997e-08,9.27189e-26,4.52981e-25,0.0,1.8258400125148455e-08,1.2999699983140545e-08,0.0,-4.257800001461476e-09,0.0,-6.000569929831556e-09
2,0.0010815,0.00678404,0.000487072,3.25261e-19,0.00181778,-8.55315e-21,3.19208e-20,3.19522e-08,-7.45077e-09,-1.05014e-08,2.27493e-08,2.14063e-25,-7.98907e-25,0.0,3.19522004410544e-08,2.2749300221391877e-08,0.0,-7.45077000097183e-09,0.0,-1.0501399971829528e-08
3,0.0017767,0.0111452,0.00080019,7.58942e-19,0.00298635,8.55315e-21,-3.19208e-20,5.24927e-08,-1.22421e-08,-1.72507e-08,3.73747e-08,4.28159e-25,-1.59792e-24,0.0,5.249270129681349e-08,3.737470066766946e-08,0.0,-1.2242099889370195e-08,0.0,-1.725069986857619e-08
4,0.0028196,0.017687,0.00126987,-2.27682e-18,0.00473921,-1.65988e-27,-4.44764e-28,8.33037e-08,-1.94275e-08,-2.73762e-08,5.93119e-08,1.2845e-24,-4.79383e-24,0.0,8.33037034908557e-08,5.931190183439128e-08,0.0,-1.9427499831081718e-08,0.0,-2.7376199640549714e-08
5,0.0043839,0.0274996,0.00197438,-4.01155e-18,0.00736849,1.71063e-20,-6.38416e-20,1.2952e-07,-3.02058e-08,-4.25643e-08,9.22178e-08,-1.48338e-24,-7.24799e-24,0.0,1.295200084960868e-07,9.221780428170234e-08,0.0,-3.0205799528282284e-08,0.0,-4.256429908533477e-08
6,0.0067304,0.0422185,0.00303115,-4.01155e-18,0.0113124,1.74418e-19,1.1516e-19,1.98845e-07,-4.63759e-08,-6.53437e-08,1.41578e-07,3.19598e-24,8.5636e-25,0.0,1.9884501978317815e-07,1.4157800998226833e-07,0.0,-4.637589889888716e-08,0.0,-6.534369789701344e-08
7,0.01025,0.0642969,0.00461631,8.13152e-18,0.0172283,2.08631e-19,-1.25227e-20,3.02832e-07,-7.06269e-08,-9.95172e-08,2.15616e-07,2.29126e-25,-1.36391e-23,0.0,3.0283204588421597e-07,2.156160232580362e-07,0.0,-7.062689755255036e-08,0.0,-9.951719504019962e-08
8,0.01553,0.0974145,0.00699405,2.92735e-18,0.0261021,-1.49373e-19,3.02101e-19,4.58812e-07,-1.07003e-07,-1.50778e-07,3.26673e-07,-3.42531e-24,1.27835e-23,0.0,4.5881210519738147e-07,3.266730532747175e-07,0.0,-1.0700299424293291e-07,0.0,-1.5077798865004155e-07
9,0.023449,0.147091,0.0105607,6.39679e-18,0.0394129,6.16725e-19,5.07377e-19,6.92782e-07,-1.61575e-07,-2.2766e-07,4.93263e-07,1.27839e-23,3.42544e-24,0.0,6.927822400193406e-07,4.932631216814087e-07,0.0,-1.6157498694546746e-07,0.0,-2.2765997409468497e-07
10,0.035328,0.221605,0.0159106,-7.48099e-18,0.059379,8.22001e-19,-2.58722e-19,1.04374e-06,-2.43427e-07,-3.4299e-07,7.43145e-07,1.27839e-23,3.42544e-24,0.0,1.0437405446594994e-06,7.43145276205226e-07,0.0,-2.4342697035883987e-07,0.0,-3.429899412266124e-07
11,0.053146,0.333377,0.0239354,-3.52366e-17,0.0893282,1.43291e-18,1.54718e-18,1.57017e-06,-3.66206e-07,-5.15985e-07,1.11797e-06,-4.82329e-29,-1.2924e-29,0.0,1.570171232812001e-06,1.1179706249642152e-06,0.0,-3.662059329112566e-07,0.0,-5.159848668334632e-07
12,0.079874,0.501035,0.0359727,-2.13588e-17,0.134252,1.15921e-18,2.56864e-18,2.35982e-06,-5.50367e-07,-7.75483e-07,1.6802e-06,-4.1105e-23,1.53406e-22,0.0,2.3598227842924757e-06,1.6802014115580022e-06,0.0,-5.503668485395963e-07,0.0,-7.754826992778519e-07
13,0.12,0.752521,0.0540286,-7.48099e-18,0.201637,2.25401e-18,-1.51722e-18,3.54429e-06,-8.26616e-07,-1.16472e-06,2.52354e-06,-1.0888e-28,-2.91744e-29,0.0,3.544296280910686e-06,2.523543184196342e-06,0.0,-8.266156583669471e-07,0.0,-1.1647193217667606e-06
14,0.1801,1.12975,0.0811124,2.02746e-17,0.302715,9.8783e-18,2.71531e-18,5.321e-06,-1.241e-06,-1.74857e-06,3.78857e-06,1.53406e-22,4.11051e-23,0.0,5.321014156622894e-06,3.788577176644381e-06,0.0,-1.2409992299344808e-06,0.0,-1.7485684712381655e-06
15,0.2703,1.69559,0.121738,-7.48099e-18,0.454332,-5.51699e-18,2.96936e-18,7.98605e-06,-1.86256e-06,-2.62435e-06,5.6861e-06,6.26956e-28,1.67992e-28,0.0,7.986081888677887e-06,5.686116165914967e-06,0.0,-1.862558265397496e-06,0.0,-2.6243465564013135e-06
16,0.4056,2.54435,0.182676,4.92119e-16,0.681756,-3.36327e-19,-2.16935e-20,1.19836e-05,-2.79488e-06,-3.93804e-06,8.53236e-06,2.19228e-22,-8.18169e-22,0.0,1.1983671803550422e-05,8.532396400751097e-06,0.0,-2.7948760943363737e-06,0.0,-3.938032245964784e-06
17,0.6086,3.81748,0.274083,3.81097e-16,1.02289,-3.36325e-19,-2.16927e-20,1.79799e-05,-4.19337e-06,-5.90853e-06,1.28018e-05,9.49301e-23,4.63893e-22,0.0,1.79800616393333e-05,1.2801881943413917e-05,0.0,-4.1933612078270954e-06,0.0,-5.908512544672284e-06
18,0.913,5.72716,0.411192,4.92119e-16,1.53459,3.23501e-17,8.73662e-18,2.69743e-05,-6.2911e-06,-8.86425e-06,1.92058e-05,4.09074e-22,1.09611e-22,0.0,2.697466380974234e-05,1.920598443261312e-05,0.0,-6.291080211107136e-06,0.0,-8.864210712666853e-06
19,1.37,8.59165,0.616853,-1.28424e-15,2.30213,-3.36733e-19,-2.18022e-20,4.04657e-05,-9.43765e-06,-1.32978e-05,2.88117e-05,4.38461e-22,-1.63636e-21,0.0,4.0466518747450664e-05,2.8812115061116472e-05,0.0,-9.4376054655676e-06,0.0,-1.3297711584647764e-05
20,2.055,12.8883,0.925338,-5.059e-15,3.45341,6.94144e-17,1.1511e-18,6.07025e-05,-1.41574e-05,-1.99479e-05,4.32204e-05,-7.0378e-26,-1.88577e-26,0.0,6.070434243410361e-05,4.322133401490902e-05,0.0,-1.4157299784489652e-05,0.0,-1.994770104196686e-05
21,3.082,19.3331,1.38805,-2.81516e-14,5.18029,7.817e-17,-3.15365e-17,9.10568e-05,-2.12368e-05,-2.99229e-05,6.48327e-05,8.76832e-22,-3.2728e-21,0.0,9.106094579625079e-05,6.483480168495426e-05,0.0,-2.123657450070482e-05,0.0,-2.992245231447921e-05
22,4.623,116.413,8.35811,-1.03265e-09,31.1929,9.83292e-16,7.71529e-16,0.000548295,-0.000127877,-0.000180179,0.000390388,3.49743e-21,-1.3096e-20,0.0,0.0005484453411794821,0.0003904642113123913,0.0,-0.00012786882408488687,0.0,-0.00018016276873877857
23,6.935,262.609,18.8545,-9.04826e-07,70.3658,1.26247e-15,-2.74743e-16,0.00123686,-0.000288468,-0.000406453,0.000880648,1.40118e-20,-5.23908e-20,0.0,0.0012376252267900512,0.0008810358843047705,0.0,-0.0002884263971069112,0.0,-0.00040637040916957634
24,10.03,446.442,32.0931,0.00245038,119.702,-0.0118371,-0.00316999,0.00215605,-0.00051126,-0.000723401,0.00153874,-1.52725e-07,-4.09564e-08,5.88476e-05,0.0021583759471202058,0.0015399244678453439,-1.5272498832263892e-07,-0.0005111293288760921,-4.095639916101845e-08,-0.0007231394085789322
25,13.12,468.019,33.7943,8.36483e-05,125.764,-0.121585,-0.0325347,0.00307237,-0.000855049,-0.00125112,0.00223592,-2.19737e-06,-5.96471e-07,0.000956952,0.0030770945660076876,0.0022384215331852086,-2.1973675857767105e-06,-0.0008546835497704741,-5.964708220673742e-07,-0.0012503376756674012
26,16.21,485.784,35.1938,7.79744e-05,130.755,-0.21126,-0.056503,0.00398763,-0.00120127,-0.00178326,0.00293368,-4.46555e-06,-1.21732e-06,0.00187392,0.003995591175064428,0.002937987450368329,-4.465540029419124e-06,-0.0012005487640222023,-1.2173192590614335e-06,-0.0017816709365976457
27,19.3,500.928,36.3862,3.13484e-05,135.009,-0.286213,-0.0765195,0.00490184,-0.00154901,-0.00231828,0.00363169,-6.9292e-06,-1.89489e-06,0.00280355,0.004913873672036662,0.0036382925765456875,-6.929175993097836e-06,-0.001547810903227309,-1.8948882046787574e-06,-0.0023155948642870072
28,22.39,514.155,37.427,1.22776e-05,138.723,-0.350259,-0.0936107,0.00581503,-0.00189774,-0.00285525,0.00432979,-9.56678e-06,-2.62258e-06,0.00374217,0.005831970106775719,0.00433917708386633,-9.566734238464214e-06,-0.0018959404299980775,-2.622576561028822e-06,-0.002851177650499359
29,25.48,525.918,38.352,3.27866e-06,142.025,-0.405964,-0.108467,0.00672719,-0.00224714,-0.00339359,0.00502785,-1.23587e-05,-3.39453e-06,0.00468742,0.006749868368023382,0.00504051084786572,-1.2358623631580912e-05,-0.002244617071055499,-3.3945242385868823e-06,-0.003387838281620148
30,28.57,536.524,39.1856,-1.89748e-06,145.002,-0.455117,-0.121568,0.00763836,-0.00259697,-0.0039329,0.00572576,-1.52877e-05,-4.20565e-06,0.0056377,0.007667606689903295,0.005742183494489073,-1.5287583143730465e-05,-0.0025936007906192104,-4.205641156218576e-06,-0.003925176277655318
31,31.66,546.192,39.9451,-5.54514e-06,147.714,-0.499003,-0.13326,0.00854852,-0.00294708,-0.00447288,0.00642345,-1.83389e-05,-5.05158e-06,0.00659187,0.008585162936963764,0.006444124598662171,-1.8338731843425826e-05,-0.0029427416226315284,-5.051567240843546e-06,-0.0044628915701514504
32,34.75,555.083,40.6433,-8.60791e-06,150.208,-0.538573,-0.143797,0.0094577,-0.00329734,-0.00501333,0.00712088,-2.14995e-05,-5.9286e-06,0.00754909,0.009502565374182259,0.0071462937529358506,-2.149926888739273e-05,-0.0032919097445679446,-5.928582425873685e-06,-0.005000784235264399
33,37.84,563.32,41.29,-1.15026e-05,152.518,-0.57455,-0.153373,0.0103659,-0.00364769,-0.00555408,0.00781798,-2.47584e-05,-6.8335e-06,0.00850872,0.010419812062728795,0.007848620201753587,-2.475809351332181e-05,-0.0036410452606036037,-6.833476651646464e-06,-0.00553868461326712
34,40.93,570.998,41.8926,-1.4425e-05,154.671,-0.607495,-0.162139,0.0112731,-0.00399804,-0.00609502,0.00851473,-2.81061e-05,-7.76354e-06,0.00947027,0.011336880835731256,0.008551083420084815,-2.8105705027314798e-05,-0.003990058478436254,-7.76350986375629e-06,-0.0060764830457563646
35,44.02,578.193,42.4572,-1.74647e-05,156.688,-0.637848,-0.170213,0.0121794,-0.00434834,-0.00663604,0.0092111,-3.15343e-05,-8.71636e-06,0.0104333,0.0122538709221236,0.009253652733751005,-3.153380279918849e-05,-0.004338899657851614,-8.716322012602973e-06,-0.006614070111109149
36,47.11,584.964,42.9885,-2.06644e-05,158.587,-0.665964,-0.177689,0.0130847,-0.00469856,-0.00717707,0.00990705,-3.50359e-05,-9.68987e-06,0.0113976,0.013170679282158204,0.009956287284268894,-3.5035286250040265e-05,-0.004687539034608723,-9.689823053382618e-06,-0.0071513763382564655
37,50.2,591.363,43.4905,-2.40422e-05,160.381,-0.692131,-0.184645,0.0139891,-0.00504866,-0.00771804,0.0106026,-3.86044e-05,-1.06823e-05,0.0123629,0.014087405325532432,0.010659006739817345,-3.860365485974793e-05,-0.005035936936581331,-1.0682242944426434e-05,-0.007688332406541654
38,53.29,597.431,43.9665,-2.76039e-05,162.082,-0.716587,-0.191144,0.0148925,-0.00539861,-0.0082589,0.0112976,-4.22343e-05,-1.1692e-05,0.0133288,0.015003945826512766,0.011361658892841575,-4.22334081444653e-05,-0.005384063693418262,-1.1691931648849518e-05,-0.008224888981001932
39,56.38,603.202,44.4191,-3.13486e-05,163.7,-0.739529,-0.19724,0.0157949,-0.00574839,-0.0087996,0.0119922,-4.59207e-05,-1.27176e-05,0.0142954,0.015920298783496545,0.012064394733011685,-4.591964566080797e-05,-0.005731899619048186,-1.2717519131677513e-05,-0.008760996833710788
40,59.47,608.706,44.8509,-3.52726e-05,165.243,-0.761122,-0.202976,0.0166965,-0.00609798,-0.00934011,0.0126863,-4.96592e-05,-1.37578e-05,0.0152623,0.016836665560948427,0.012767112479377118,-4.96579670022923e-05,-0.006079425055012355,-1.3757705361938655e-05,-0.009296626657633644
41,62.56,613.968,45.2636,-3.93701e-05,166.718,-0.781508,-0.20839,0.0175971,-0.00644737,-0.0098804,0.01338,-5.34458e-05,-1.48116e-05,0.0162295,0.017752841153897636,0.013469912763399261,-5.344437179866102e-05,-0.006426630306139103,-1.4811490308797026e-05,-0.00983174920951746
42,65.65,619.01,45.6591,-4.3635e-05,168.131,-0.800807,-0.213514,0.0184967,-0.00679653,-0.0104204,0.0140731,-5.7277e-05,-1.58779e-05,0.0171969,0.018668823556910796,0.014172592245380367,-5.7275359703901074e-05,-0.006773485826340742,-1.5877773946848528e-05,-0.010366295724395957
43,68.74,623.85,46.0388,-4.80609e-05,169.488,-0.819122,-0.218376,0.0193955,-0.00714546,-0.0109602,0.0147657,-6.11498e-05,-1.69558e-05,0.0181643,0.019584814680269957,0.014875251485575669,-6.114793038902722e-05,-0.0071199918972342235,-1.695565625126072e-05,-0.010900355842170084
44,71.83,628.505,46.4041,-5.26417e-05,170.793,-0.836544,-0.223,0.0202933,-0.00749415,-0.0114996,0.0154578,-6.50611e-05,-1.80446e-05,0.0191318,0.020500608965430267,0.015577889767059094,-6.505898357256346e-05,-0.007466138874757444,-1.804443719721771e-05,-0.01143373232565914
45,74.92,632.99,46.756,-5.73711e-05,172.05,-0.853151,-0.227407,0.0211902,-0.00784258,-0.0120388,0.0161493,-6.90084e-05,-1.91434e-05,0.0200991,0.021416306544806085,0.01628040474439274,-6.900601897508185e-05,-0.007811907206461299,-1.9143216766326354e-05,-0.011966623576796787
46,78.01,637.318,47.0956,-6.22437e-05,173.263,-0.869011,-0.231615,0.0220862,-0.00819076,-0.0125776,0.0168403,-7.29893e-05,-2.02517e-05,0.0210663,0.022331905682629438,0.016982897187257873,-7.298663634580649e-05,-0.008157307122449331,-2.0251494935674685e-05,-0.01249883257003559
47,81.1,641.499,47.4237,-6.7254e-05,174.436,-0.884185,-0.235641,0.0229812,-0.00853868,-0.0131161,0.0175308,-7.70017e-05,-2.13687e-05,0.0220333,0.02324730231710448,0.017685366377342637,-7.699873544519953e-05,-0.008502329008667653,-2.1368471690985658e-05,-0.013030458795488586
48,84.19,645.544,47.7412,-7.23971e-05,175.57,-0.898727,-0.239499,0.0238754,-0.00888632,-0.0136542,0.0182207,-8.10436e-05,-2.2494e-05,0.023,0.02416269926781789,0.018387709757097914,-8.104031605615791e-05,-0.008846953352936837,-2.2493747011909093e-05,-0.013561404241926978
49,87.28,649.462,48.0489,-7.76681e-05,176.669,-0.912685,-0.243201,0.0247686,-0.00923368,-0.0141919,0.0189101,-8.51131e-05,-2.36271e-05,0.0239664,0.0250778900541635,0.019090028305592144,-8.510947798279211e-05,-0.009191180486390338,-2.3626820882305388e-05,-0.014091669700221687
50,90.37,653.261,48.3472,-8.30629e-05,177.734,-0.926101,-0.246758,0.025661,-0.00958077,-0.0147293,0.0195989,-8.92087e-05,-2.47674e-05,0.0249325,0.025993077859310265,0.019792219323913063,-8.92047210222513e-05,-0.00953502064436329,-2.4767093290467557e-05,-0.014621354497871941
51,93.46,656.949,48.6368,-8.85773e-05,178.769,-0.939014,-0.250183,0.0265524,-0.00992757,-0.0152663,0.0202872,-9.33287e-05,-2.59146e-05,0.0258981,0.026908055834011124,0.02049438393070191,-9.332434501230225e-05,-0.009878454344358079,-2.591426421960641e-05,-0.01515036077960763
52,96.55,660.533,48.9183,-9.42074e-05,179.774,-0.951457,-0.253482,0.0274429,-0.0102741,-0.0158029,0.0209749,-9.74717e-05,-2.70682e-05,0.0268634,0.027822924742655797,0.021196419285719914,-9.746694978818304e-05,-0.010221501722037396,-2.7067833659577545e-05,-0.015678689332785045
53,99.64,664.018,49.1922,-9.99498e-05,180.752,-0.963463,-0.256665,0.0283326,-0.0106203,-0.0163391,0.021662,-0.000101637,-2.82278e-05,0.0278282,0.028737785714354924,0.02189832445731832,-0.00010163183513511864,-0.010564103730311802,-2.822740159935666e-05,-0.01620634094352591
54,102.7,667.41,49.4588,-0.000105801,181.703,-0.97506,-0.259739,0.0292213,-0.0109662,-0.0168748,0.0223486,-0.000105822,-2.93932e-05,0.0287925,0.029652431347108266,0.022600200773456924,-0.00010581640104967427,-0.010906290422231235,-2.9392768024161242e-05,-0.01673321807004413
55,105.8,670.715,49.7185,-0.000111758,182.631,-0.986273,-0.262711,0.0301092,-0.0113118,-0.0174102,0.0230346,-0.000110026,-3.0564e-05,0.0297564,0.0305670657327477,0.023301945181999573,-0.00011001994736159482,-0.011248062146705595,-3.056353292574254e-05,-0.017259518201972024
56,108.9,673.936,49.9718,-0.000117818,183.535,-0.997125,-0.265587,0.0309962,-0.0116572,-0.0179451,0.02372,-0.000114249,-3.17398e-05,0.0307197,0.03148158424905545,0.024003556750045396,-0.0001142424738315162,-0.011589518093203521,-3.173929629785022e-05,-0.01778504552087412
57,112.0,677.079,50.2189,-0.000123978,184.417,-1.00764,-0.268374,0.0318822,-0.0120022,-0.0184797,0.0244048,-0.00011849,-3.29205e-05,0.0316824,0.032395881906752244,0.024705034544291182,-0.00011848298033712013,-0.011930460893446626,-3.2919958126265136e-05,-0.01830999730342464
58,115.1,680.147,50.4603,-0.000130236,185.278,-1.01783,-0.271075,0.0327674,-0.0123469,-0.0190138,0.0250891,-0.000122746,-3.41058e-05,0.0326446,0.03331016334267867,0.025406480171679346,-0.00012273846701793545,-0.012270989770053031,-3.410521840385705e-05,-0.01883417793896558
59,118.2,683.144,50.6961,-0.000136589,186.119,-1.02773,-0.273697,0.0336518,-0.0126913,-0.0195474,0.0257728,-0.000127019,-3.52954e-05,0.0336062,0.03422442707897133,0.0261077902977207,-0.00012701093342826208,-0.012611105069959772,-3.529477712471696e-05,-0.019357588363296818
60,121.3,686.074,50.9266,-0.000143034,186.942,-1.03733,-0.276242,0.0345352,-0.0130355,-0.0200807,0.0264559,-0.000131305,-3.64891e-05,0.0345672,0.03513846460878711,0.026808963987881462,-0.00013129637987574494,-0.012950905844526517,-3.64884342808347e-05,-0.019880425534499424
61,124.4,688.939,51.1522,-0.000149571,187.746,-1.04667,-0.278717,0.0354177,-0.0133793,-0.0206135,0.0271385,-0.000135606,-3.76867e-05,0.0355276,0.036052377508558164,0.027510103058240087,-0.00013559680592190038,-0.013290194995950078,-3.768598986519933e-05,-0.02040249415234463
62,127.4,691.742,51.3729,-0.000156196,188.534,-1.05575,-0.281123,0.0362994,-0.0137228,-0.0211458,0.0278204,-0.00013992,-3.88879e-05,0.0364874,0.036966267719102275,0.028211001141557945,-0.00013991021165327133,-0.013629071608578736,-3.8887143875454555e-05,-0.020923795148138247
63,130.5,694.487,51.5891,-0.000162907,189.304,-1.06459,-0.283465,0.0371802,-0.014066,-0.0216778,0.0285018,-0.000144247,-4.00927e-05,0.0374466,0.03788002996952877,0.028911862874210215,-0.00014423659690165902,-0.013967536027386096,-4.009189629838872e-05,-0.02144452516265416
64,133.6,697.175,51.8009,-0.000169704,190.06,-1.0732,-0.285746,0.0380602,-0.0144088,-0.0222092,0.0291826,-0.000148586,-4.13007e-05,0.0384051,0.03879376638095655,0.029612584569055134,-0.00014857496164699668,-0.014305490027410883,-4.1299847137854506e-05,-0.021964391401289363
65,136.7,699.81,52.0085,-0.000176584,190.8,-1.0816,-0.287969,0.0389392,-0.0147514,-0.0227403,0.0298628,-0.000152936,-4.2512e-05,0.0393629,0.0397072675265413,0.03031316528957051,-0.00015292430588609296,-0.014643131125304909,-4.251109637776196e-05,-0.02248368820154445
66,139.8,702.392,52.2121,-0.000183545,191.526,-1.08978,-0.290136,0.0398174,-0.0150937,-0.0232708,0.0305424,-0.000157296,-4.37262e-05,0.0403201,0.04062073949571654,0.031013604098850234,-0.0001572836296327429,-0.014980361061324388,-4.3725244023629095e-05,-0.023002123077944026
67,142.9,704.926,52.4118,-0.000190587,192.238,-1.09776,-0.292251,0.0406948,-0.0154356,-0.023801,0.0312214,-0.000161667,-4.49432e-05,0.0412765,0.041534180800650855,0.031713900059606726,-0.0001616539325947075,-0.015317081710202629,-4.494219006956346e-05,-0.023519990053621265
68,146.0,707.412,52.6079,-0.000197707,192.936,-1.10556,-0.294316,0.0415712,-0.0157772,-0.0243306,0.0318999,-0.000166048,-4.6163e-05,0.0422323,0.04244738146278415,0.03241415547558257,-0.00016603421479377545,-0.015653391950031015,-4.6161934505128954e-05,-0.024036996951378398
69,149.1,709.852,52.8004,-0.000204904,193.622,-1.11317,-0.296332,0.0424468,-0.0161186,-0.0248599,0.0325777,-0.000170438,-4.73853e-05,0.0431875,0.04336054811601198,0.0331141629959133,-0.00017042347626916587,-0.01598939052379922,-4.7384177334408584e-05,-0.024553437480848816
70,152.2,712.248,52.9895,-0.000212178,194.296,-1.12061,-0.298303,0.0433216,-0.0164596,-0.0253886,0.033255,-0.000174837,-4.86101e-05,0.0441419,0.04427367926883674,0.033814128234980645,-0.00017482171690230697,-0.01632488093726414,-4.8608918548187496e-05,-0.025069019772264278
71,155.3,714.602,53.1753,-0.000219525,194.958,-1.12789,-0.30023,0.0441955,-0.0168002,-0.0259169,0.0339317,-0.000179244,-4.98372e-05,0.0450955,0.04518666890986944,0.03451394701253507,-0.0001792279367539562,-0.01665986363202565,-4.983595814733732e-05,-0.025583939781021803
72,158.3,716.915,53.3579,-0.000226947,195.608,-1.135,-0.302115,0.0450685,-0.0171406,-0.0264448,0.0346078,-0.000183659,-5.10666e-05,0.0460485,0.04609951527128886,0.035213618389366985,-0.00018364213571819832,-0.01699453565003617,-5.106529612342037e-05,-0.026098198268740935
73,161.4,719.189,53.5375,-0.00023444,196.248,-1.14197,-0.30396,0.0459407,-0.0174807,-0.0269722,0.0352833,-0.000188082,-5.2298e-05,0.0470008,0.04701232128534438,0.03591314142589508,-0.0001880643136894511,-0.01732879896376327,-5.2296632483406214e-05,-0.026611698657019067
74,164.5,721.425,53.7142,-0.000242005,196.877,-1.14879,-0.305766,0.046812,-0.0178204,-0.0274991,0.0359583,-0.000192512,-5.35315e-05,0.0479523,0.04792498066320028,0.0366126188434277,-0.0001924934707538961,-0.017662555678967684,-5.3530067214757615e-05,-0.027124441858937587
75,167.6,723.624,53.888,-0.000249639,197.495,-1.15547,-0.307535,0.0476825,-0.0181599,-0.0280256,0.0366326,-0.000196949,-5.47668e-05,0.0489031,0.04883759651728847,0.03731184244905905,-0.00019692960681882976,-0.01799600263549095,-5.476530032622051e-05,-0.0276365260223137
76,170.7,725.788,54.0591,-0.000257343,198.104,-1.16201,-0.309269,0.0485522,-0.018499,-0.0285516,0.0373064,-0.000201393,-5.6004e-05,0.0498532,0.04975016734888493,0.03801101869452572,-0.0002013727217909933,-0.018328943737643044,-5.600243180525766e-05,-0.028147854718389542
77,173.8,727.917,54.2275,-0.000265115,198.704,-1.16843,-0.310968,0.0494209,-0.0188378,-0.0290772,0.0379795,-0.000205842,-5.72428e-05,0.0508025,0.050662481525551195,0.03870993910648557,-0.0002058208159889663,-0.018661477557094908,-5.7241161662169304e-05,-0.028658525989783135
78,176.9,730.014,54.3933,-0.000272955,199.294,-1.17473,-0.312635,0.0502889,-0.0191763,-0.0296023,0.0386521,-0.000210298,-5.84834e-05,0.0517511,0.05157485247122251,0.03940881041560296,-0.0002102758889255263,-0.01899360443129705,-5.8481689879319454e-05,-0.029168443507225028
79,180.0,732.078,54.5567,-0.000280861,199.875,-1.1809,-0.31427,0.051156,-0.0195145,-0.0301269,0.0393241,-0.000214759,-5.97255e-05,0.0526989,0.05248706845988704,0.04010752787897598,-0.00021473594093657233,-0.019325324697219592,-5.9723716467785515e-05,-0.029677608176191472
80,183.1,734.112,54.7176,-0.000288833,200.448,-1.18696,-0.315875,0.0520222,-0.0198523,-0.0306511,0.0399955,-0.000219226,-6.0969e-05,0.053646,0.053399127714423456,0.04080609055444273,-0.00021920197173630473,-0.019656540657011612,-6.0967141428225347e-05,-0.03018611788194725
81,186.2,736.115,54.8762,-0.000296869,201.012,-1.19291,-0.317451,0.0528877,-0.0201899,-0.0311748,0.0406664,-0.000223698,-6.2214e-05,0.0545923,0.05431123931881898,0.041504601649942297,-0.00022367298146785952,-0.01998744874845715,-6.221206474921193e-05,-0.03069387644382826
82,189.2,738.09,55.0326,-0.00030497,201.568,-1.19875,-0.318998,0.0537523,-0.0205271,-0.031698,0.0413366,-0.000228174,-6.34604e-05,0.0555379,0.05522319099623485,0.04220285199152163,-0.00022814797029258038,-0.020317853271405895,-6.345838643140311e-05,-0.031200884762730863
83,192.3,740.036,55.1868,-0.000313134,202.116,-1.20449,-0.320518,0.054616,-0.0208641,-0.0322208,0.0420063,-0.000232656,-6.4708e-05,0.0564827,0.05613498096611558,0.042901049006675684,-0.0002326289376914925,-0.020647950530341297,-6.470590648255392e-05,-0.031707240567236616
84,195.4,741.955,55.3388,-0.00032136,202.657,-1.21014,-0.322012,0.0554789,-0.0212007,-0.0327431,0.0426753,-0.000237141,-6.59568e-05,0.0574267,0.05704671315146981,0.04359898324143208,-0.00023711288429550947,-0.020977544956338967,-6.595462489811244e-05,-0.03221284782465905
85,198.5,743.847,55.4888,-0.000329649,203.19,-1.21568,-0.323481,0.056341,-0.021537,-0.033265,0.0433438,-0.000241631,-6.72068e-05,0.05837,0.05795838604301351,0.04429686240184827,-0.00024160180958099353,-0.02130673485158674,-6.720454167363776e-05,-0.03271780415956216
86,201.6,745.713,55.6368,-0.000337999,203.716,-1.22114,-0.324926,0.0572023,-0.0218729,-0.0337864,0.0440117,-0.000246125,-6.84578e-05,0.0593125,0.058869998130301804,0.04499458125351996,-0.0002460947137269409,-0.021635422713133234,-6.845545681821719e-05,-0.03322201363763955
87,204.7,747.554,55.7828,-0.000346411,204.235,-1.2265,-0.326347,0.0580627,-0.0222086,-0.0343073,0.044679,-0.000250622,-6.971e-05,0.0602542,0.05978144192358581,0.04569213885179879,-0.0002505905969300004,-0.021963804579748225,-6.970757031443675e-05,-0.03372547715227925
88,207.8,749.371,55.927,-0.000354882,204.747,-1.23178,-0.327745,0.0589223,-0.022544,-0.0348278,0.0453458,-0.000255124,-7.0963e-05,0.0611952,0.06069282170597434,0.04638963889065417,-0.00025509145863966687,-0.022291782914650726,-7.096048218591111e-05,-0.03422829217246082
89,210.9,751.163,56.0693,-0.000363413,205.252,-1.23698,-0.329121,0.0597811,-0.022879,-0.0353478,0.0460119,-0.000259628,-7.22171e-05,0.0621354,0.06160413596358727,0.04708687121656574,-0.00025959429956734503,-0.0226192603118478,-7.221449240801814e-05,-0.03473036291082576
90,214.0,752.933,56.2098,-0.000372003,205.751,-1.24209,-0.330475,0.060639,-0.0232137,-0.0358673,0.0466775,-0.000264136,-7.3472e-05,0.0630748,0.06251527692986492,0.04778404423148852,-0.0002641011191578668,-0.022946334906434607,-7.346930099871862e-05,-0.03523169025624073
91,217.1,754.68,56.3485,-0.000380652,206.244,-1.24713,-0.33181,0.0614962,-0.0235482,-0.0363864,0.0473425,-0.000268647,-7.47278e-05,0.0640134,0.06342645550059078,0.048481052350415776,-0.00026861091762586664,-0.02327310470211308,-7.472500794747372e-05,-0.035732371522762874
92,220.1,756.406,56.4856,-0.00038936,206.731,-1.25209,-0.333124,0.0623525,-0.0238823,-0.036905,0.0480069,-0.00027316,-7.59843e-05,0.0649513,0.06433745756430365,0.049177894626967866,-0.0002731226952039645,-0.02359937465140216,-7.598141326614627e-05,-0.03623231106936231
93,223.2,758.11,56.621,-0.000398125,207.212,-1.25698,-0.334419,0.063208,-0.0242161,-0.0374232,0.0486707,-0.000277677,-7.72416e-05,0.0658884,0.06524838785412368,0.04987457011443408,-0.00027763845130990283,-0.02392524278972552,-7.723861694441947e-05,-0.03673160610724868
94,226.3,759.793,56.7548,-0.000406947,207.687,-1.2618,-0.335695,0.0640626,-0.0245496,-0.0379409,0.0493339,-0.000282196,-7.84996e-05,0.0668247,0.06615913823459163,0.050571077865775305,-0.00028215618645388574,-0.024250709446673513,-7.849651898694798e-05,-0.03723016109267396
95,229.4,761.456,56.887,-0.000415826,208.156,-1.26655,-0.336953,0.0649165,-0.0248827,-0.0384581,0.0499966,-0.000286717,-7.97583e-05,0.0677602,0.06706992032580295,0.05126752206037288,-0.0002866759006090458,-0.024575677408938068,-7.975511939128932e-05,-0.03772797690709029
96,232.5,763.099,57.0177,-0.000424762,208.62,-1.27123,-0.338194,0.0657695,-0.0252156,-0.0389749,0.0506587,-0.000291241,-8.10176e-05,0.0686949,0.06798051928308246,0.05196379676303331,-0.00029119859345694277,-0.024900342122488706,-8.10143181628753e-05,-0.03822515060787479
97,235.6,764.723,57.1469,-0.000433754,209.078,-1.27585,-0.339417,0.0666218,-0.0255482,-0.0394912,0.0513202,-0.000295767,-8.22775e-05,0.0696289,0.06889114708858246,0.05265990102569362,-0.0002957232652527342,-0.02522460634057,-8.227411529926343e-05,-0.038721586796586105
98,238.7,766.328,57.2746,-0.000442802,209.531,-1.28041,-0.340624,0.0674732,-0.0258804,-0.040007,0.0519811,-0.000300295,-8.3538e-05,0.070562,0.06980158853113894,0.05335583389996845,-0.0003002499159694416,-0.025548372945732978,-8.353451079845531e-05,-0.0392172863502116
99,241.8,767.915,57.4009,-0.000451905,209.979,-1.28491,-0.341815,0.0683238,-0.0262123,-0.0405224,0.0526415,-0.000304825,-8.4799e-05,0.0714944,0.07071194888371268,0.05405169984231928,-0.00030477854557997563,-0.025871739775058633,-8.479540466643787e-05,-0.039712346172951385
100,244.9,769.483,57.5259,-0.000461063,210.422,-1.28934,-0.34299,0.0691736,-0.026544,-0.0410373,0.0533012,-0.000309357,-8.60605e-05,0.072426,0.07162222662010387,0.05474728716295618,-0.0003093091540572468,-0.02619480453572265,-8.605679690132373e-05,-0.040206671011055906
101,248.0,771.034,57.6494,-0.000470277,210.86,-1.29372,-0.344151,0.0700227,-0.0268753,-0.0415518,0.0539604,-0.00031389,-8.73224e-05,0.0733568,0.07253252746625938,0.05544280579240812,-0.000313840741688054,-0.026517372760602953,-8.731858751021004e-05,-0.04070035766703828
102,251.0,772.568,57.7717,-0.000479544,211.294,-1.29805,-0.345296,0.0708709,-0.0272063,-0.0420658,0.054619,-0.000318425,-8.85848e-05,0.0742868,0.07344263547829999,0.056138149375811075,-0.00031837430814041223,-0.026839542188237586,-8.858087648244695e-05,-0.04119331098334211
103,254.1,774.086,57.8926,-0.000488866,211.723,-1.30232,-0.346428,0.0717183,-0.027537,-0.0425793,0.0552771,-0.000322962,-8.98476e-05,0.075216,0.07435265628896559,0.056833422646491716,-0.0003229098533873431,-0.02716131314387582,-8.984356382524261e-05,-0.04168553182963408
104,257.2,775.587,58.0123,-0.000498242,212.147,-1.30654,-0.347545,0.0725649,-0.0278674,-0.0430924,0.0559346,-0.000327499,-9.11108e-05,0.0761445,0.07526258836768074,0.057528519109802945,-0.0003274453780565123,-0.027482685952301744,-9.110664953704273e-05,-0.04217711685632852
105,260.3,777.072,58.1307,-0.000507671,212.566,-1.31071,-0.34865,0.0734107,-0.0281975,-0.043605,0.0565915,-0.000332039,-9.23743e-05,0.0770721,0.07617243018278552,0.05822343781506589,-0.0003319838811520759,-0.02780366093783293,-9.23700336257216e-05,-0.042667971049550335
106,263.4,778.541,58.2479,-0.000517154,212.982,-1.31483,-0.349741,0.0742557,-0.0285273,-0.0441172,0.0572478,-0.000336579,-9.36382e-05,0.077999,0.07708218020154112,0.05891817781129638,-0.00033652236364289934,-0.028124238424322434,-9.363381608051835e-05,-0.043158190958742626
107,266.5,779.995,58.3639,-0.00052669,213.393,-1.3189,-0.350819,0.0750999,-0.0288568,-0.0446289,0.0579035,-0.00034112,-9.49023e-05,0.0789251,0.07799183689013134,0.059612738147208244,-0.0003410618251880049,-0.02844441873515846,-9.489779691917999e-05,-0.04364768166555122
108,269.6,781.434,58.4788,-0.000536278,213.8,-1.32292,-0.351885,0.0759433,-0.0291859,-0.0451402,0.0585587,-0.000345663,-9.61668e-05,0.0798504,0.07890139871366952,0.060307223901930884,-0.0003456032654282071,-0.02876410506968108,-9.616217612151701e-05,-0.044136539618729764
109,272.7,782.858,58.5925,-0.00054592,214.202,-1.3269,-0.352939,0.076786,-0.0295148,-0.045651,0.0592133,-0.000350206,-9.74315e-05,0.0807749,0.07981097211729171,0.06100152823171179,-0.0003501446850366907,-0.029083492029458813,-9.742675370549847e-05,-0.04462466999518089
110,275.8,784.268,58.7051,-0.000555614,214.601,-1.33083,-0.353982,0.0776278,-0.0298434,-0.0461613,0.0598674,-0.000354751,-9.86964e-05,0.0816986,0.08072033969273251,0.0616957563538838,-0.0003546880833042998,-0.029402482780927275,-9.869152967045824e-05,-0.04511207365446168
111,278.9,785.664,58.8166,-0.000565361,214.996,-1.33473,-0.355013,0.0784688,-0.0301716,-0.0466712,0.0605208,-0.000359296,-9.99615e-05,0.0826215,0.08162960779205752,0.062389695046167315,-0.00035923146092198266,-0.029720980617724768,-9.99565040157302e-05,-0.04559884689472116
112,281.9,787.046,58.9271,-0.000575159,215.387,-1.33858,-0.356033,0.0793091,-0.0304996,-0.0471806,0.0611737,-0.000363841,-0.000101227,0.0835436,0.0825388831300149,0.0630835557642464,-0.0003637748178901834,-0.030039179948538997,-0.00010122187672012561,-0.04608489503514113
113,285.0,788.414,59.0365,-0.00058501,215.774,-1.34238,-0.357042,0.0801486,-0.0308273,-0.0476896,0.0618261,-0.000368388,-0.000102492,0.084465,0.08344805609435824,0.06377733776310746,-0.0003683201534723235,-0.030356984034226597,-0.00010248674787438627,-0.04657031427389191
114,288.1,789.77,59.1449,-0.000594913,216.158,-1.34615,-0.358041,0.0809873,-0.0311546,-0.0481981,0.0624778,-0.000372935,-0.000103758,0.0853855,0.08435712514382265,0.06447082740318222,-0.0003728654683867738,-0.03067429626237328,-0.0001037526173248704,-0.04705501002474488
115,291.2,791.112,59.2522,-0.000604867,216.538,-1.34989,-0.35903,0.0818252,-0.0314817,-0.0487062,0.063129,-0.000377482,-0.000105024,0.0863053,0.08526608873609742,0.06516423655550319,-0.0003774107626338674,-0.030991310849503684,-0.00010501848517274759,-0.047539078386169886
116,294.3,792.442,59.3586,-0.000614872,216.914,-1.35358,-0.360009,0.0826623,-0.0318084,-0.0492138,0.0637796,-0.00038203,-0.00010629,0.0872243,0.08617494532783265,0.06585745788825359,-0.00038195703583143725,-0.031307834281331215,-0.00010628435141801784,-0.04802242486626629
117,297.4,793.759,59.464,-0.00062493,217.287,-1.35724,-0.360978,0.0834986,-0.0321348,-0.049721,0.0644297,-0.000386579,-0.000107556,0.0881425,0.08708369337464128,0.06655059710211653,-0.00038650428796616065,-0.03162396380907617,-0.00010755021606079218,-0.048505145464082244
118,300.5,795.064,59.5685,-0.000635038,217.657,-1.36086,-0.361938,0.0843342,-0.032461,-0.0502277,0.0650792,-0.000391127,-0.000108822,0.0890599,0.0879924401303438,0.06724354672596444,-0.00039105051980647954,-0.03193979655696,-0.00010881607910084856,-0.048987145781782426
119,303.6,796.357,59.672,-0.000645198,218.023,-1.36444,-0.362888,0.085169,-0.0327868,-0.0507339,0.0657281,-0.000395676,-0.000110088,0.0899765,0.0889010754309707,0.06793630580480947,-0.00039559773057495917,-0.03225513919913592,-0.00011008194053840903,-0.04946842666611917
120,306.7,797.638,59.7746,-0.000655408,218.386,-1.368,-0.36383,0.086003,-0.0331124,-0.0512398,0.0663765,-0.000400226,-0.000111354,0.0908923,0.08980959772901786,0.06862898024627939,-0.00040014592025816587,-0.032570185633469806,-0.00011134780037347358,-0.04994917897251927
121,309.0,798.598,59.8516,-0.000667097,218.658,-1.37066,-0.364535,0.0866327,-0.0333581,-0.0516216,0.066866,-0.000403662,-0.000112311,0.0915838,0.0904960669448569,0.06915220218023066,-0.0004035805394561054,-0.03280785394011243,-0.00011230469335565818,-0.05031183913975601
