,Time,S11,S22,S33,S12,S13,S23,LE11,LE22,LE33,LE12,LE13,LE23,SDV_EPBAR,E11,E12,E13,E22,E23,E33
0,0.000309,0.0019383,0.000139163,-7.79048e-12,0.000519365,9.3624e-20,3.36396e-20,9.1292e-09,-2.12864e-09,-3.00057e-09,6.49972e-09,9.45271e-25,4.67314e-25,0.0,9.129200062574228e-09,6.499720095476391e-09,0.0,-2.128640042009522e-09,0.0,-3.0005700146773506e-09
1,0.000618,0.00387659,0.000278327,3.25261e-19,0.00103873,3.61973e-20,-7.40724e-21,1.82584e-08,-4.2578e-09,-6.00057e-09,1.29997e-08,9.27189e-26,4.52981e-25,0.0,1.8258400125148455e-08,1.2999699983140545e-08,0.0,-4.257800001461476e-09,0.0,-6.000569929831556e-09
2,0.0010815,0.00678404,0.000487072,3.25261e-19,0.00181778,-8.55315e-21,3.19208e-20,3.19522e-08,-7.45077e-09,-1.05014e-08,2.27493e-08,2.14063e-25,-7.98907e-25,0.0,3.19522004410544e-08,2.2749300221391877e-08,0.0,-7.45077000097183e-09,0.0,-1.0501399971829528e-08
3,0.0017767,0.0111452,0.00080019,7.58942e-19,0.00298635,8.55315e-21,-3.19208e-20,5.24927e-08,-1.22421e-08,-1.72507e-08,3.73747e-08,4.28159e-25,-1.59792e-24,0.0,5.249270129681349e-08,3.737470066766946e-08,0.0,-1.2242099889370195e-08,0.0,-1.725069986857619e-08
4,0.0028196,0.017687,0.00126987,-2.27682e-18,0.00473921,-1.65988e-27,-4.44764e-28,8.33037e-08,-1.94275e-08,-2.73762e-08,5.93119e-08,1.2845e-24,-4.79383e-24,0.0,8.33037034908557e-08,5.931190183439128e-08,0.0,-1.9427499831081718e-08,0.0,-2.7376199640549714e-08
5,0.0043839,0.0274996,0.00197438,-4.01155e-18,0.00736849,1.71063e-20,-6.38416e-20,1.2952e-07,-3.02058e-08,-4.25643e-08,9.22178e-08,-1.48338e-24,-7.24799e-24,0.0,1.295200084960868e-07,9.221780428170234e-08,0.0,-3.0205799528282284e-08,0.0,-4.256429908533477e-08
6,0.0067304,0.0422185,0.00303115,-4.01155e-18,0.0113124,1.74418e-19,1.1516e-19,1.98845e-07,-4.63759e-08,-6.53437e-08,1.41578e-07,3.19598e-24,8.5636e-25,0.0,1.9884501978317815e-07,1.4157800998226833e-07,0.0,-4.637589889888716e-08,0.0,-6.534369789701344e-08
7,0.01025,0.0642969,0.00461631,8.13152e-18,0.0172283,2.08631e-19,-1.25227e-20,3.02832e-07,-7.06269e-08,-9.95172e-08,2.15616e-07,2.29126e-25,-1.36391e-23,0.0,3.0283204588421597e-07,2.156160232580362e-07,0.0,-7.062689755255036e-08,0.0,-9.951719504019962e-08
8,0.01553,0.0974145,0.00699405,2.92735e-18,0.0261021,-1.49373e-19,3.02101e-19,4.58812e-07,-1.07003e-07,-1.50778e-07,3.26673e-07,-3.42531e-24,1.27835e-23,0.0,4.5881210519738147e-07,3.266730532747175e-07,0.0,-1.0700299424293291e-07,0.0,-1.5077798865004155e-07
9,0.023449,0.147091,0.0105607,6.39679e-18,0.0394129,6.16725e-19,5.07377e-19,6.92782e-07,-1.61575e-07,-2.2766e-07,4.93263e-07,1.27839e-23,3.42544e-24,0.0,6.927822400193406e-07,4.932631216814087e-07,0.0,-1.6157498694546746e-07,0.0,-2.2765997409468497e-07
10,0.035328,0.221605,0.0159106,-7.48099e-18,0.059379,8.22001e-19,-2.58722e-19,1.04374e-06,-2.43427e-07,-3.4299e-07,7.43145e-07,1.27839e-23,3.42544e-24,0.0,1.0437405446594994e-06,7.43145276205226e-07,0.0,-2.4342697035883987e-07,0.0,-3.429899412266124e-07
11,0.053146,0.333377,0.0239354,-3.52366e-17,0.0893282,1.43291e-18,1.54718e-18,1.57017e-06,-3.66206e-07,-5.15985e-07,1.11797e-06,-4.82329e-29,-1.2924e-29,0.0,1.570171232812001e-06,1.1179706249642152e-06,0.0,-3.662059329112566e-07,0.0,-5.159848668334632e-07
12,0.079874,0.501035,0.0359727,-2.13588e-17,0.134252,1.15921e-18,2.56864e-18,2.35982e-06,-5.50367e-07,-7.75483e-07,1.6802e-06,-4.1105e-23,1.53406e-22,0.0,2.3598227842924757e-06,1.6802014115580022e-06,0.0,-5.503668485395963e-07,0.0,-7.754826992778519e-07
13,0.12,0.752521,0.0540286,-7.48099e-18,0.201637,2.25401e-18,-1.51722e-18,3.54429e-06,-8.26616e-07,-1.16472e-06,2.52354e-06,-1.0888e-28,-2.91744e-29,0.0,3.544296280910686e-06,2.523543184196342e-06,0.0,-8.266156583669471e-07,0.0,-1.1647193217667606e-06
14,0.1801,1.12975,0.0811124,2.02746e-17,0.302715,9.8783e-18,2.71531e-18,5.321e-06,-1.241e-06,-1.74857e-06,3.78857e-06,1.53406e-22,4.11051e-23,0.0,5.321014156622894e-06,3.788577176644381e-06,0.0,-1.2409992299344808e-06,0.0,-1.7485684712381655e-06
15,0.2703,1.69559,0.121738,-7.48099e-18,0.454332,-5.51699e-18,2.96936e-18,7.98605e-06,-1.86256e-06,-2.62435e-06,5.6861e-06,6.26956e-28,1.67992e-28,0.0,7.986081888677887e-06,5.686116165914967e-06,0.0,-1.862558265397496e-06,0.0,-2.6243465564013135e-06
16,0.4056,2.54435,0.182676,4.92119e-16,0.681756,-3.36327e-19,-2.16935e-20,1.19836e-05,-2.79488e-06,-3.93804e-06,8.53236e-06,2.19228e-22,-8.18169e-22,0.0,1.1983671803550422e-05,8.532396400751097e-06,0.0,-2.7948760943363737e-06,0.0,-3.938032245964784e-06
17,0.6086,3.81748,0.274083,3.81097e-16,1.02289,-3.36325e-19,-2.16927e-20,1.79799e-05,-4.19337e-06,-5.90853e-06,1.28018e-05,9.49301e-23,4.63893e-22,0.0,1.79800616393333e-05,1.2801881943413917e-05,0.0,-4.1933612078270954e-06,0.0,-5.908512544672284e-06
18,0.913,5.72716,0.411192,4.92119e-16,1.53459,3.23501e-17,8.73662e-18,2.69743e-05,-6.2911e-06,-8.86425e-06,1.92058e-05,4.09074e-22,1.09611e-22,0.0,2.697466380974234e-05,1.920598443261312e-05,0.0,-6.291080211107136e-06,0.0,-8.864210712666853e-06
19,1.37,8.59165,0.616853,-1.28424e-15,2.30213,-3.36733e-19,-2.18022e-20,4.04657e-05,-9.43765e-06,-1.32978e-05,2.88117e-05,4.38461e-22,-1.63636e-21,0.0,4.0466518747450664e-05,2.8812115061116472e-05,0.0,-9.4376054655676e-06,0.0,-1.3297711584647764e-05
20,2.055,12.8883,0.925338,-5.059e-15,3.45341,6.94144e-17,1.1511e-18,6.07025e-05,-1.41574e-05,-1.99479e-05,4.32204e-05,-7.0378e-26,-1.88577e-26,0.0,6.070434243410361e-05,4.322133401490902e-05,0.0,-1.4157299784489652e-05,0.0,-1.994770104196686e-05
21,3.082,19.3331,1.38805,-2.81516e-14,5.18029,7.817e-17,-3.15365e-17,9.10568e-05,-2.12368e-05,-2.99229e-05,6.48327e-05,8.76832e-22,-3.2728e-21,0.0,9.106094579625079e-05,6.483480168495426e-05,0.0,-2.123657450070482e-05,0.0,-2.992245231447921e-05
22,4.623,116.413,8.35811,-1.03265e-09,31.1929,9.83292e-16,7.71529e-16,0.000548295,-0.000127877,-0.000180179,0.000390388,3.49743e-21,-1.3096e-20,0.0,0.0005484453411794821,0.0003904642113123913,0.0,-0.00012786882408488687,0.0,-0.0001801627687388896
23,6.935,262.609,18.8545,-9.04826e-07,70.3658,1.26247e-15,-2.74743e-16,0.00123686,-0.000288468,-0.000406453,0.000880648,1.40118e-20,-5.23908e-20,0.0,0.0012376252267900512,0.0008810358843047705,0.0,-0.0002884263971069112,0.0,-0.00040637040916957634
24,10.03,446.441,32.093,0.00246351,119.702,-0.0118218,-0.00316589,0.00215605,-0.000511254,-0.000723408,0.00153874,-1.52528e-07,-4.09035e-08,5.88514e-05,0.0021583759471202058,0.0015399244678453439,-1.52527988350748e-07,-0.0005111233319429198,-4.090349914331881e-08,-0.0007231464035168944
25,13.12,468.018,33.794,8.65928e-05,125.763,-0.121423,-0.0324913,0.00307237,-0.000854951,-0.00125121,0.00223591,-2.19444e-06,-5.95677e-07,0.000956955,0.0030770945660076876,0.002238411510800953,-2.1944375921956194e-06,-0.000854585633524696,-5.956768225345854e-07,-0.001250427563132872
26,16.21,485.784,35.1934,7.86162e-05,130.754,-0.210976,-0.0564269,0.00398762,-0.00120107,-0.00178344,0.00293365,-4.45954e-06,-1.21568e-06,0.00187392,0.003995581135108672,0.0029379573622292376,-4.459530056233341e-06,-0.0012003490041118114,-1.215679261035163e-06,-0.0017818506158806535
27,19.3,500.928,36.3856,3.16424e-05,135.008,-0.285826,-0.076416,0.00490183,-0.00154872,-0.00231856,0.00363165,-6.91984e-06,-1.89233e-06,0.00280355,0.004913863622898029,0.003638252431014788,-6.919816057937567e-06,-0.001547521352050607,-1.892328209573968e-06,-0.0023158742158814194
28,22.39,514.155,37.4263,1.24244e-05,138.722,-0.349784,-0.0934838,0.00581502,-0.00189735,-0.00285563,0.00432973,-9.55384e-06,-2.61903e-06,0.00374217,0.005831960048455986,0.004339116823517397,-9.553794362182622e-06,-0.001895551169338927,-2.619026570394034e-06,-0.002851556566979885
29,25.48,525.918,38.3512,3.35979e-06,142.024,-0.405414,-0.10832,0.00672718,-0.00224665,-0.00339407,0.00502777,-1.2342e-05,-3.38993e-06,0.00468742,0.006749858300524769,0.005040430444628319,-1.2341923837810853e-05,-0.0022441281707979988,-3.389924254193488e-06,-0.0033883166553430044
30,28.57,536.524,39.1847,-1.8467e-06,145.0,-0.4545,-0.121403,0.00763834,-0.00259638,-0.00393347,0.00572567,-1.5267e-05,-4.19995e-06,0.0056377,0.007667586536551418,0.005742092977696567,-1.5266883459985614e-05,-0.002593012320669996,-4.199941180171862e-06,-0.003925744040142898
31,31.66,546.192,39.9441,-5.50753e-06,147.712,-0.498325,-0.133079,0.0085485,-0.00294639,-0.00447355,0.00642335,-1.8314e-05,-5.04473e-06,0.00659187,0.00858514276526079,0.006444023954254696,-1.8313832299776678e-05,-0.002942053652886023,-5.044717275359822e-06,-0.0044635585797906385
32,34.75,555.083,40.6423,-8.5744e-06,150.206,-0.537842,-0.143602,0.00945768,-0.00329655,-0.0050141,0.00712075,-2.14703e-05,-5.92055e-06,0.00754908,0.009502545184131295,0.0071461628239262165,-2.1470069514806234e-05,-0.0032911223448657267,-5.920532473613349e-06,-0.005001550384365561
33,37.84,563.32,41.2888,-1.14686e-05,152.516,-0.57377,-0.153165,0.0103659,-0.00364679,-0.00555495,0.00781784,-2.47248e-05,-6.82423e-06,0.00850871,0.010419812062728795,0.007848479102956718,-2.4724494344652292e-05,-0.003640148537140897,-6.824206715050352e-06,-0.00553954979423521
34,40.93,570.998,41.8914,-1.43861e-05,154.669,-0.60667,-0.161919,0.0112731,-0.00399704,-0.00609599,0.00851457,-2.8068e-05,-7.75301e-06,0.00947026,0.011336880835731256,0.008550922051924426,-2.8067606097414988e-05,-0.003989062467996796,-7.752979945485627e-06,-0.006077447151100257
35,44.02,578.192,42.4559,-1.74195e-05,156.686,-0.636982,-0.169982,0.0121794,-0.00434724,-0.00663711,0.00921092,-3.14916e-05,-8.70453e-06,0.0104333,0.0122538709221236,0.009253471068109809,-3.14911041447985e-05,-0.0043378044300387275,-8.704492115652052e-06,-0.006615133033485487
36,47.11,584.964,42.9871,-2.06113e-05,158.584,-0.665061,-0.177448,0.0130847,-0.00469736,-0.00717824,0.00990685,-3.49883e-05,-9.67672e-06,0.0113976,0.013170679282158204,0.009956085293031602,-3.4987687916543386e-05,-0.004686344658938912,-9.676673180747386e-06,-0.007152537970466666
37,50.2,591.363,43.4891,-2.39803e-05,160.378,-0.691193,-0.184395,0.013989,-0.00504736,-0.00771931,0.0106023,-3.8552e-05,-1.06678e-05,0.0123628,0.014087303916797023,0.01065870354216103,-3.8551256881236284e-05,-0.005034643482458523,-1.0667743099213034e-05,-0.0076895926415593285
38,53.29,597.431,43.965,-2.75322e-05,162.079,-0.715617,-0.190885,0.0148924,-0.0053972,-0.00826027,0.0112974,-4.2177e-05,-1.16761e-05,0.0133288,0.015003844326123339,0.01136145662053023,-4.217611056278603e-05,-0.005382661283959256,-1.1676031834606526e-05,-0.008226247711973333
39,56.38,603.202,44.4177,-3.12665e-05,163.697,-0.738528,-0.196973,0.0157949,-0.00574688,-0.00880108,0.011992,-4.58584e-05,-1.27003e-05,0.0142953,0.015920298783496545,0.012064192320152989,-4.5857348519695584e-05,-0.005730398273083193,-1.2700219351513553e-05,-0.008762463866349823
40,59.47,608.706,44.8493,-3.51794e-05,165.24,-0.760093,-0.202701,0.0166964,-0.00609637,-0.00934169,0.0126861,-4.95918e-05,-1.37391e-05,0.0152623,0.016836563877286936,0.012766909925974845,-4.959057034703562e-05,-0.006077824841598578,-1.3739005618962352e-05,-0.009298191967726965
41,62.56,613.968,45.2621,-3.92654e-05,166.715,-0.780452,-0.208108,0.017597,-0.00644565,-0.00988207,0.0133797,-5.33734e-05,-1.47915e-05,0.0162295,0.017752739378618543,0.01346960872247105,-5.337197566546159e-05,-0.006424921358473501,-1.479139060633905e-05,-0.009833402789115708
42,65.65,619.01,45.6575,-4.35184e-05,168.128,-0.799726,-0.213225,0.0184967,-0.0067947,-0.0104222,0.0140728,-5.71994e-05,-1.58564e-05,0.0171969,0.018668823556910796,0.014172287993648114,-5.719776414547795e-05,-0.006771668220156735,-1.585627428790648e-05,-0.010368077063460435
43,68.74,623.85,46.0372,-4.79319e-05,169.485,-0.818017,-0.218081,0.0193954,-0.00714353,-0.0109621,0.0147653,-6.10669e-05,-1.69328e-05,0.0181643,0.019584712721793407,0.01487484553555607,-6.106503545477704e-05,-0.007118075636969312,-1.6932656640933352e-05,-0.01090223512970867
44,71.83,628.505,46.4024,-5.24998e-05,170.79,-0.835416,-0.222699,0.0202932,-0.00749212,-0.0115016,0.0154574,-6.4973e-05,-1.80201e-05,0.0191317,0.020500506915374306,0.015577483535984316,-6.497088930035311e-05,-0.007464124028974228,-1.8019937638946715e-05,-0.011435709456217191
45,74.92,632.99,46.7543,-5.72161e-05,172.047,-0.852002,-0.227101,0.0211901,-0.00784045,-0.0120409,0.0161489,-6.89149e-05,-1.91175e-05,0.0200991,0.021416204403180705,0.016279998232312298,-6.891252542284843e-05,-0.007809793843572832,-1.9117317261785338e-05,-0.011968698444708714
46,78.01,637.318,47.0938,-6.20752e-05,173.26,-0.867841,-0.231304,0.0220861,-0.00818852,-0.0125798,0.0168399,-7.28905e-05,-2.02243e-05,0.0210663,0.022331803449443965,0.016982490394180427,-7.2887843552083e-05,-0.008155085392328898,-2.0224095490184446e-05,-0.012501005070214122
47,81.1,641.499,47.4219,-6.70717e-05,174.432,-0.882996,-0.235324,0.0229812,-0.00853633,-0.0131184,0.0175304,-7.68975e-05,-2.13398e-05,0.0220332,0.02324730231710448,0.017684959303277514,-7.689454346304636e-05,-0.008499998986402968,-2.133957230809891e-05,-0.013032728822822803
48,84.19,645.544,47.7394,-7.22005e-05,175.567,-0.89752,-0.239177,0.0238753,-0.00888387,-0.0136566,0.0182203,-8.0934e-05,-2.24636e-05,0.023,0.024162596851552864,0.018387302402095518,-8.093072493220443e-05,-0.008844525024997885,-2.2463347695178548e-05,-0.013563771691715854
49,87.28,649.462,48.047,-7.74572e-05,176.665,-0.91146,-0.242874,0.0247686,-0.00923113,-0.0141944,0.0189096,-8.49981e-05,-2.35952e-05,0.0239664,0.0250778900541635,0.019089518760705193,-8.499448776377871e-05,-0.009188653920679357,-2.3594921635505806e-05,-0.01409413446796648
50,90.37,653.261,48.3453,-8.28372e-05,177.731,-0.924859,-0.246427,0.0256609,-0.00957811,-0.0147319,0.0195984,-8.90881e-05,-2.4734e-05,0.0249324,0.025992975260007656,0.019791709427930737,-8.908413177299845e-05,-0.00953238600401407,-2.473369411715165e-05,-0.014623916479019727
51,93.46,656.949,48.6349,-8.83366e-05,178.765,-0.937755,-0.249847,0.0265523,-0.0099248,-0.015269,0.0202867,-9.32026e-05,-2.58796e-05,0.0258981,0.026907953143210595,0.02049387368363753,-9.319825677256421e-05,-0.009875711703878132,-2.5879265125983153e-05,-0.015153019870043694
52,96.55,660.533,48.9164,-9.39514e-05,179.77,-0.950183,-0.253142,0.0274429,-0.0102712,-0.0158057,0.0209744,-9.73402e-05,-2.70316e-05,0.0268633,0.027822924742655797,0.021195908687637877,-9.733546259638182e-05,-0.010218631360230268,-2.7031234649643743e-05,-0.015681445428596508
53,99.64,664.018,49.1902,-9.96783e-05,180.748,-0.962175,-0.256321,0.0283325,-0.0106173,-0.016342,0.0216615,-0.000101499,-2.81897e-05,0.0278281,0.028737682840581646,0.02189781350828368,-0.00010149384915070225,-0.010561135418170386,-2.8189302674119787e-05,-0.0162091939410004
54,102.7,667.41,49.4568,-0.000105514,181.7,-0.973757,-0.259392,0.0292213,-0.0109631,-0.0168778,0.022348,-0.000105679,-2.93535e-05,0.0287925,0.029652431347108266,0.02259958721352051,-0.00010567341617118142,-0.01090322422697898,-2.935306919027436e-05,-0.016736167865965323
55,105.8,670.715,49.7165,-0.000111455,182.627,-0.984956,-0.26236,0.0301091,-0.0113087,-0.0174133,0.023034,-0.000109878,-3.05228e-05,0.0297563,0.030566962676046527,0.02330133120101685,-0.00010987196363365648,-0.011244997010947277,-3.052233418410211e-05,-0.017262564692743565
56,108.9,673.937,49.9697,-0.000117499,183.531,-0.995795,-0.265233,0.0309961,-0.0116539,-0.0179484,0.0237194,-0.000114095,-3.16971e-05,0.0307196,0.0314814811009021,0.024002942348095635,-0.00011408849141303357,-0.011586256333231293,-3.1696597652230984e-05,-0.017788286824875765
57,112.0,677.079,50.2169,-0.000123642,184.413,-1.0063,-0.268016,0.0318822,-0.0119988,-0.018483,0.0244042,-0.00011833,-3.28762e-05,0.0316824,0.032395881906752244,0.024704419721454984,-0.00011832299928160595,-0.01192710145130238,-3.287565958365324e-05,-0.018313236875088346
58,115.1,680.147,50.4582,-0.000129883,185.274,-1.01648,-0.270714,0.0327674,-0.0123434,-0.0190172,0.0250885,-0.000122581,-3.40599e-05,0.0326445,0.03331016334267867,0.025405864927975808,-0.00012257348725619455,-0.012267532712467277,-3.405931996813827e-05,-0.01883751389708932
59,118.2,683.145,50.694,-0.000136219,186.115,-1.02636,-0.273332,0.0336517,-0.0126878,-0.019551,0.0257721,-0.000126848,-3.52479e-05,0.0336062,0.034224323656533606,0.02610707202251894,-0.00012683995513251833,-0.012607649202779792,-3.524727880011014e-05,-0.0193611186696242
60,121.3,686.074,50.9245,-0.000142647,186.938,-1.03595,-0.275875,0.0345351,-0.0130318,-0.0200843,0.0264552,-0.000131129,-3.644e-05,0.0345672,0.035138361094945614,0.026808245221858318,-0.00013112040296836547,-0.012947253756121824,-3.6439336071225625e-05,-0.019883953958616307
61,124.4,688.939,51.15,-0.000149166,187.742,-1.04528,-0.278346,0.0354177,-0.0133755,-0.0206172,0.0271378,-0.000135424,-3.7636e-05,0.0355276,0.036052377508558164,0.027509383801419762,-0.00013541483058399084,-0.01328644549156699,-3.76352917745848e-05,-0.020406118656410843
62,127.4,691.742,51.3707,-0.000155774,188.53,-1.05435,-0.28075,0.0362993,-0.0137189,-0.0211497,0.0278197,-0.000139732,-3.88356e-05,0.0364874,0.03696616402248054,0.028210281394109193,-0.00013972223793867755,-0.01362522475445671,-3.883484590783137e-05,-0.02092761353789141
63,130.5,694.487,51.5869,-0.000162468,189.3,-1.06318,-0.283089,0.0371801,-0.0140619,-0.0216817,0.028501,-0.000144053,-4.00388e-05,0.0374465,0.03787992618153102,0.028911039745049383,-0.00014404262486478192,-0.013963493285996331,-4.003799845797573e-05,-0.02144834152156405
64,133.6,697.175,51.7986,-0.000169247,190.056,-1.07178,-0.285368,0.0380601,-0.0144047,-0.0222133,0.0291818,-0.000148386,-4.12453e-05,0.038405,0.038793662501585,0.02961176087931694,-0.00014837499134201515,-0.014301448671635297,-4.124444942432692e-05,-0.021968401339064303
65,136.7,699.81,52.0062,-0.000176108,190.796,-1.08016,-0.287588,0.0389391,-0.0147472,-0.0227444,0.029862,-0.00015273,-4.24549e-05,0.0393628,0.039707163555819935,0.030312341039368196,-0.00015271833736718587,-0.014638992617764912,-4.245399880342671e-05,-0.022487696010206948
66,139.8,702.393,52.2098,-0.000183052,191.521,-1.08834,-0.289753,0.0398173,-0.0150893,-0.0232751,0.0305416,-0.000157085,-4.36675e-05,0.04032,0.0406206354336478,0.03101277928829682,-0.00015707266279729737,-0.014976026965378142,-4.366654658860547e-05,-0.023006324159782432
67,142.9,704.926,52.4095,-0.000190075,192.233,-1.09631,-0.291865,0.0406947,-0.0154312,-0.0238053,0.0312206,-0.000161451,-4.4883e-05,0.0412765,0.04153407664723807,0.03171307468881679,-0.00016143796748857575,-0.015312749095830358,-4.48819927731936e-05,-0.0235241889086365
68,146.0,707.412,52.6056,-0.000197176,192.932,-1.1041,-0.293927,0.0415711,-0.0157727,-0.0243351,0.031899,-0.000165826,-4.61011e-05,0.0422323,0.042447277218051305,0.03241322630326082,-0.00016581225162870528,-0.015648962380328313,-4.610003736060797e-05,-0.024041388775010497
69,149.1,709.852,52.7981,-0.000204355,193.618,-1.1117,-0.295942,0.0424467,-0.0161139,-0.0248644,0.0325769,-0.00017021,-4.73219e-05,0.0431874,0.0433604437799624,0.03311333650491344,-0.00017019551509966924,-0.01598476566306617,-4.732078033653497e-05,-0.024557826980503794
70,152.2,712.248,52.9872,-0.000211609,194.292,-1.11914,-0.29791,0.0433215,-0.0164548,-0.0253933,0.0332541,-0.000174603,-4.8545e-05,0.0441418,0.044273574841474206,0.03381319780268388,-0.00017458775778322888,-0.01632015928536057,-4.8543821710600454e-05,-0.025073601937103174
71,155.3,714.602,53.173,-0.000218937,194.953,-1.1264,-0.299835,0.0441954,-0.0167954,-0.0259217,0.0339308,-0.000179004,-4.97705e-05,0.0450955,0.04518656439120772,0.03451301595040168,-0.00017898797973980862,-0.016655143588042987,-4.9769261469156945e-05,-0.025588616966885747
72,158.3,716.915,53.3556,-0.000226339,195.604,-1.13351,-0.301718,0.0450684,-0.0171357,-0.0264496,0.0346069,-0.000183414,-5.09983e-05,0.0460484,0.0460994106613426,0.03521268669752953,-0.00018339718068050015,-0.01698971891145984,-5.099699960875448e-05,-0.026102872986169978
73,161.4,719.189,53.5352,-0.000233813,196.243,-1.14047,-0.30356,0.0459406,-0.0174756,-0.0269771,0.0352824,-0.000187831,-5.22281e-05,0.0470007,0.04701221658411736,0.03591220910448745,-0.0001878133608620436,-0.01732378732785822,-5.222673613647366e-05,-0.026616468248010117
74,164.5,721.425,53.7118,-0.000241358,196.872,-1.14728,-0.305365,0.0468119,-0.0178153,-0.0275042,0.0359573,-0.000192255,-5.34599e-05,0.0479522,0.04792487587070737,0.0366115822313271,-0.00019223652019173532,-0.017657545745226266,-5.345847104498702e-05,-0.027129403511631955
75,167.6,723.624,53.8856,-0.000248973,197.491,-1.15395,-0.307132,0.0476824,-0.0181546,-0.0280308,0.0366316,-0.000196686,-5.46936e-05,0.048903,0.048837491633534125,0.037310805137735326,-0.0001966666585767607,-0.017990798000512842,-5.469210433228788e-05,-0.02764158229923208
76,170.7,725.788,54.0566,-0.000256657,198.1,-1.16049,-0.308864,0.048552,-0.0184936,-0.0285569,0.0373053,-0.000201124,-5.59292e-05,0.0498531,0.04974995739887267,0.038009876883033034,-0.00020110377592408302,-0.018323642699626386,-5.592763599149286e-05,-0.028153005521109886
77,173.8,727.918,54.225,-0.000264409,198.699,-1.1669,-0.310561,0.0494208,-0.0188323,-0.0290825,0.0379785,-0.000205568,-5.71664e-05,0.0508024,0.050662376459308156,0.03870890039706598,-0.0002055468723463072,-0.018656080180378676,-5.7164766032458125e-05,-0.02866367408595294
78,176.9,730.014,54.3908,-0.000272229,199.289,-1.17319,-0.312226,0.0502888,-0.0191707,-0.0296077,0.038651,-0.000210018,-5.84054e-05,0.051751,0.051574747313742675,0.03940766706654042,-0.0002099959477636082,-0.018988110780099654,-5.8403694437769715e-05,-0.029173685983475472
79,180.0,732.079,54.5542,-0.000280114,199.871,-1.17936,-0.31386,0.0511559,-0.0195088,-0.0301325,0.039323,-0.000214473,-5.96458e-05,0.0526988,0.05248696321118551,0.04010638376132447,-0.00021445000231024025,-0.01931973483563909,-5.9644021224602994e-05,-0.02968304196637106
80,183.1,734.112,54.7151,-0.000288065,200.443,-1.18541,-0.315463,0.0520221,-0.0198466,-0.0306567,0.0399944,-0.000218934,-6.08878e-05,0.0536459,0.05339902237451599,0.04080494566837278,-0.00021891003570062573,-0.019650952683367584,-6.088594637554401e-05,-0.030191548824480496
81,186.2,736.116,54.8737,-0.000296081,201.007,-1.19136,-0.317037,0.0528876,-0.020184,-0.0311805,0.0406652,-0.0002234,-6.21312e-05,0.0545922,0.05431113388770026,0.041503351845169956,-0.00022337504807801167,-0.019981666657347574,-6.212926989690448e-05,-0.03069940147298622
82,189.2,738.09,55.0301,-0.000304161,201.563,-1.19719,-0.318583,0.0537521,-0.0205211,-0.0317039,0.0413354,-0.000227871,-6.33759e-05,0.0555378,0.05522297995161751,0.042201601348849316,-0.00022784503937556266,-0.020311975160891227,-6.337389179000841e-05,-0.031206600660648953
83,192.3,740.036,55.1843,-0.000312304,202.112,-1.20293,-0.320101,0.0546159,-0.020858,-0.0322268,0.0420051,-0.000232346,-6.46219e-05,0.0564826,0.05613487535262274,0.04289979752616779,-0.00023231900975850817,-0.02064197646461874,-6.46198120499708e-05,-0.031713050306363955
84,195.4,741.955,55.3363,-0.00032051,202.652,-1.20857,-0.321594,0.0554788,-0.0211945,-0.0327492,0.0426741,-0.000236826,-6.58691e-05,0.0574266,0.0570466074468039,0.04359773092340369,-0.00023679795893649658,-0.020971474998300765,-6.586693067844873e-05,-0.03221875130828167
85,198.5,743.847,55.4863,-0.000328777,203.185,-1.21411,-0.323061,0.0563409,-0.0215307,-0.0332712,0.0433426,-0.00024131,-6.71174e-05,0.0583699,0.05795828024718008,0.04429560924636555,-0.00024128088708363915,-0.02130056906459421,-6.711514767765436e-05,-0.032723801290585275
86,201.6,745.713,55.6342,-0.000337106,203.711,-1.21955,-0.324504,0.0572021,-0.0218665,-0.0337927,0.0440105,-0.000245798,-6.83669e-05,0.0593124,0.05886978635632323,0.044993327260774985,-0.00024576779414642314,-0.021629161159801624,-6.836456303671579e-05,-0.03322810431976808
87,204.7,747.554,55.7803,-0.000345496,204.23,-1.22491,-0.325924,0.0580626,-0.0222021,-0.0343137,0.0446778,-0.00025029,-6.96174e-05,0.0602541,0.05978133594544688,0.04569088402198496,-0.0002502586800710027,-0.02195744732381688,-6.961497676505335e-05,-0.03373166128943639
88,207.8,749.371,55.9244,-0.000353946,204.742,-1.23019,-0.32732,0.0589222,-0.0225374,-0.0348343,0.0453445,-0.000254785,-7.08688e-05,0.0611951,0.060692715636697425,0.04638827858500805,-0.0002547525450582455,-0.022285330019123473,-7.086628886587842e-05,-0.03423456966815974
89,210.9,751.164,56.0667,-0.000362455,205.248,-1.23538,-0.328695,0.0597809,-0.0228723,-0.0353544,0.0460106,-0.000259284,-7.21213e-05,0.0621353,0.06160392364278122,0.047085510004517994,-0.0002592503888085851,-0.022612711838954636,-7.211869932155501e-05,-0.034736733669406994
90,214.0,752.934,56.2072,-0.000371024,205.747,-1.24049,-0.330048,0.0606389,-0.0232069,-0.035874,0.0466761,-0.000263786,-7.33746e-05,0.0630747,0.06251517067834245,0.04778257733485347,-0.0002637512115319929,-0.02293969091892245,-7.337190814982186e-05,-0.03523815418226184
91,217.1,754.681,56.3459,-0.000379651,206.239,-1.24552,-0.331381,0.061496,-0.0235413,-0.0363932,0.0473411,-0.000268291,-7.46287e-05,0.0640133,0.06342624281532094,0.04847958447796996,-0.0002682550131880568,-0.023266365263284516,-7.462591534779239e-05,-0.03573892852034277
92,220.1,756.406,56.483,-0.000388336,206.726,-1.25048,-0.332694,0.0623523,-0.0238753,-0.0369119,0.0480055,-0.000272799,-7.58836e-05,0.0649512,0.0643372446968331,0.049176425778943544,-0.0002727617937361426,-0.023592539823102943,-7.5880720912469e-05,-0.03623896104347335
93,223.2,758.11,56.6184,-0.000397079,207.207,-1.25536,-0.333988,0.0632078,-0.024209,-0.0374302,0.0486693,-0.000277309,-7.71393e-05,0.0658883,0.06524817480446732,0.04987310029106484,-0.0002772705534132003,-0.023918312634347405,-7.713632484063204e-05,-0.03673834896240591
94,226.3,759.794,56.7521,-0.000405879,207.682,-1.26018,-0.335263,0.0640625,-0.0245423,-0.0379479,0.0493325,-0.000281823,-7.83957e-05,0.0668246,0.06615903161868286,0.05056960706729585,-0.00028178329162864557,-0.02424358645085356,-7.839262713738027e-05,-0.03723690045795858
95,229.4,761.456,56.8843,-0.000414736,208.151,-1.26492,-0.33652,0.0649164,-0.0248754,-0.0384653,0.0499951,-0.000286338,-7.96528e-05,0.0677601,0.06706981361881614,0.051265945160272386,-0.000286297009187364,-0.024568556785392937,-7.964962779993812e-05,-0.037734905240714545
96,232.5,763.1,57.015,-0.000423649,208.615,-1.2696,-0.337759,0.0657694,-0.0252082,-0.0389821,0.0506572,-0.000290856,-8.09105e-05,0.0686948,0.06798041248503606,0.05196221881852159,-0.0002908137054942195,-0.024893126358322193,-8.090722683373741e-05,-0.03823207536186135
97,235.6,764.724,57.1442,-0.000432619,209.073,-1.27422,-0.338981,0.0666216,-0.0255406,-0.0394986,0.0513187,-0.000295376,-8.21688e-05,0.0696287,0.06889093331037444,0.05265832203702625,-0.0002953323808041475,-0.025217198019426457,-8.21654242365577e-05,-0.038728700230524105
98,238.7,766.328,57.2719,-0.000441644,209.526,-1.27877,-0.340187,0.0674731,-0.0258728,-0.0400145,0.0519796,-0.000299899,-8.34276e-05,0.0705619,0.06980148155098553,0.05335425386740256,-0.000299854034790048,-0.02554096708522524,-8.342412001449695e-05,-0.03922449219354196
99,241.8,767.915,57.3982,-0.000450724,209.974,-1.28326,-0.341377,0.0683237,-0.0262046,-0.04053,0.0526399,-0.000304423,-8.4687e-05,0.0714943,0.07071184181252321,0.054050013360948945,-0.0003043766680201898,-0.025864238958576702,-8.468341415723835e-05,-0.03971964433138753
100,244.9,769.484,57.5231,-0.000459859,210.417,-1.2877,-0.342551,0.0691735,-0.0265361,-0.041045,0.0532997,-0.000308949,-8.59469e-05,0.0724259,0.07162211945788655,0.05474570504321208,-0.00030890128017224683,-0.026187111444290756,-8.594320667099087e-05,-0.04021406139123629
101,248.0,771.035,57.6467,-0.000469049,210.855,-1.29207,-0.343711,0.0700225,-0.0268674,-0.0415596,0.0539588,-0.000313476,-8.72073e-05,0.0733567,0.07253231295977525,0.055441117085269775,-0.00031342687153246285,-0.0265096822174703,-8.720349755397816e-05,-0.04070784017506668
102,251.0,772.569,57.7689,-0.000478294,211.289,-1.29639,-0.344855,0.0708707,-0.0271983,-0.0420737,0.0546174,-0.000318005,-8.8468e-05,0.0742867,0.07344242078979435,0.05613645955612401,-0.000317954441769408,-0.026831756873433865,-8.846408682183782e-05,-0.041200885526265885
103,254.1,774.086,57.8898,-0.000487592,211.718,-1.30066,-0.345986,0.0717181,-0.0275289,-0.0425873,0.0552755,-0.000322536,-8.97292e-05,0.0752159,0.07435244141845598,0.05683173171436828,-0.00032248399085621493,-0.027153433118598413,-8.97251744557126e-05,-0.04169319831471352
104,257.2,775.587,58.0095,-0.000496945,212.142,-1.30488,-0.347102,0.0725647,-0.0278592,-0.0431005,0.0559329,-0.000327068,-9.09908e-05,0.0761443,0.0752623733151847,0.05752672131284853,-0.0003270145190925611,-0.02747471127763046,-9.098666046269965e-05,-0.04218487519026082
105,260.3,777.072,58.1279,-0.00050635,212.561,-1.30904,-0.348206,0.0734105,-0.0281892,-0.0436132,0.0565898,-0.000331602,-9.22527e-05,0.077072,0.07617221494832105,0.05822163883675069,-0.0003315470261335829,-0.027795591674731335,-9.224844485045125e-05,-0.042675821140002346
106,263.4,778.541,58.2451,-0.00051581,212.977,-1.31316,-0.349296,0.0742555,-0.0285188,-0.0441255,0.0572461,-0.000336136,-9.3515e-05,0.0779988,0.07708196478512663,0.058916377651924146,-0.0003360795126241545,-0.02811597744523986,-9.351062760865059e-05,-0.043166132712799454
107,266.5,779.995,58.3611,-0.000525322,213.388,-1.31722,-0.350373,0.0750998,-0.0288482,-0.0446373,0.0579018,-0.000340672,-9.47775e-05,0.0789249,0.07799172909095309,0.059610936807084514,-0.0003406139778834305,-0.028436063321231497,-9.47730087546006e-05,-0.04365571499128518
108,269.6,781.434,58.476,-0.000534887,213.795,-1.32124,-0.351439,0.0759432,-0.0291773,-0.0451487,0.058557,-0.000345209,-9.60403e-05,0.0798502,0.07890129082353492,0.060305421381182445,-0.00034514942222896305,-0.028755752405068224,-9.603568827798448e-05,-0.044144664423612534
109,272.7,782.859,58.5897,-0.000544505,214.197,-1.32522,-0.352492,0.0767858,-0.0295061,-0.0456596,0.0592116,-0.000349746,-9.73034e-05,0.0807747,0.0798107561551189,0.06099972453064684,-0.0003496848459974,-0.02907504501909508,-9.7298666177692e-05,-0.04463288618768935
110,275.8,784.268,58.7023,-0.000554175,214.596,-1.32915,-0.353533,0.0776276,-0.0298345,-0.04617,0.0598656,-0.000354285,-9.85667e-05,0.0816984,0.0807201235486863,0.06169384530324229,-0.00035422224848036254,-0.02939384442458337,-9.856184246237465e-05,-0.04512038114328343
111,278.9,785.664,58.8138,-0.000563897,214.991,-1.33304,-0.354564,0.0784687,-0.0301627,-0.04668,0.060519,-0.000358824,-9.98303e-05,0.0826213,0.08162949962910204,0.062387782746437415,-0.0003587596303679108,-0.029712345096024162,-9.982531712138254e-05,-0.04560724558791418
112,281.9,787.046,58.9242,-0.000573672,215.382,-1.33688,-0.355583,0.0793089,-0.0304905,-0.0471895,0.0611719,-0.000363364,-0.000101094,0.0835435,0.08253866662225984,0.06308164221556822,-0.0003632979912970846,-0.03003035326491521,-0.00010108889017379497,-0.046093384841795815
113,285.0,788.415,59.0336,-0.000583498,215.769,-1.34069,-0.356591,0.0801484,-0.0308181,-0.0476986,0.0618242,-0.000367905,-0.000102358,0.0844648,0.08344783940476863,0.06377531658808566,-0.00036783733125422824,-0.030348063277444215,-0.00010235276159864526,-0.04657889510244961
114,288.1,789.77,59.142,-0.000593376,216.153,-1.34446,-0.357589,0.0809871,-0.0311453,-0.0482072,0.0624759,-0.000372446,-0.000103622,0.0853854,0.08435690827241937,0.06446880491053153,-0.00037237665059841607,-0.0306652814914099,-0.00010361663142599564,-0.04706368178469711
115,291.2,791.113,59.2494,-0.000603306,216.533,-1.34819,-0.358577,0.081825,-0.0314723,-0.0487154,0.0631271,-0.000376988,-0.000104886,0.0863051,0.08526587168290134,0.06516221274537637,-0.0003769169489525881,-0.03098220212501479,-0.0001048804996557351,-0.047547840986340795
116,294.3,792.442,59.3557,-0.000613287,216.909,-1.35188,-0.359555,0.0826621,-0.0317989,-0.0492231,0.0637777,-0.00038153,-0.00010615,0.0872241,0.0861747280928653,0.06585543276100747,-0.00038145722668492255,-0.031298631662044385,-0.00010614436628808566,-0.04803127821654696
117,297.4,793.76,59.4612,-0.00062332,217.282,-1.35553,-0.360524,0.0834985,-0.0321253,-0.0497304,0.0644278,-0.000386073,-0.000107415,0.0881423,0.08708358466627741,0.06654857065790698,-0.0003859984834092556,-0.03161476419303433,-0.00010740923121543844,-0.04851408947367786
118,300.5,795.064,59.5656,-0.000633403,217.652,-1.35915,-0.361483,0.084334,-0.0324513,-0.0502372,0.0650773,-0.000390616,-0.000108679,0.0890597,0.08799222253187744,0.06724151896515229,-0.00039053971950275823,-0.03193040632744393,-0.00010867309465134589,-0.04899618036098319
119,303.6,796.357,59.6691,-0.000643538,218.018,-1.36273,-0.362432,0.0851688,-0.0327771,-0.0507435,0.0657262,-0.000395159,-0.000109944,0.0899763,0.08890085765077749,0.0679342767277562,-0.0003950809349654305,-0.032245752028458474,-0.0001099379563799241,-0.049477551725422675
120,306.7,797.639,59.7718,-0.000653724,218.381,-1.36628,-0.363373,0.0860028,-0.0331025,-0.0512495,0.0663745,-0.000399703,-0.000111209,0.0908921,0.08980937976712,0.06862684299045618,-0.0003996231293977859,-0.03256060803089855,-0.00011120281650833785,-0.0499583944207882
121,309.0,798.599,59.8487,-0.000665386,218.653,-1.36894,-0.364078,0.0866325,-0.0333482,-0.0516314,0.066864,-0.000403135,-0.000112164,0.0915836,0.0904958488456653,0.06915006387796474,-0.0004030537520042232,-0.03279827869046903,-0.00011215770985373297,-0.05032114603812876
