,Time,S11,S22,S33,S12,S13,S23,LE11,LE22,LE33,LE12,LE13,LE23,SDV_EPBAR,E11,E12,E13,E22,E23,E33
0,0.000309,0.0019383,0.000139163,-7.79048e-12,0.000519365,9.3624e-20,3.36396e-20,9.1292e-09,-2.12864e-09,-3.00057e-09,6.49972e-09,9.45271e-25,4.67314e-25,0.0,9.129200062574228e-09,6.499720095476391e-09,0.0,-2.128640042009522e-09,0.0,-3.0005700146773506e-09
1,0.000618,0.00387659,0.000278327,3.25261e-19,0.00103873,3.61973e-20,-7.40724e-21,1.82584e-08,-4.2578e-09,-6.00057e-09,1.29997e-08,9.27189e-26,4.52981e-25,0.0,1.8258400125148455e-08,1.2999699983140545e-08,0.0,-4.257800001461476e-09,0.0,-6.000569929831556e-09
2,0.0010815,0.00678404,0.000487072,3.25261e-19,0.00181778,-8.55315e-21,3.19208e-20,3.19522e-08,-7.45077e-09,-1.05014e-08,2.27493e-08,2.14063e-25,-7.98907e-25,0.0,3.19522004410544e-08,2.2749300221391877e-08,0.0,-7.45077000097183e-09,0.0,-1.0501399971829528e-08
3,0.0017767,0.0111452,0.00080019,7.58942e-19,0.00298635,8.55315e-21,-3.19208e-20,5.24927e-08,-1.22421e-08,-1.72507e-08,3.73747e-08,4.28159e-25,-1.59792e-24,0.0,5.249270129681349e-08,3.737470066766946e-08,0.0,-1.2242099889370195e-08,0.0,-1.725069986857619e-08
4,0.0028196,0.017687,0.00126987,-2.27682e-18,0.00473921,-1.65988e-27,-4.44764e-28,8.33037e-08,-1.94275e-08,-2.73762e-08,5.93119e-08,1.2845e-24,-4.79383e-24,0.0,8.33037034908557e-08,5.931190183439128e-08,0.0,-1.9427499831081718e-08,0.0,-2.7376199640549714e-08
5,0.0043839,0.0274996,0.00197438,-4.01155e-18,0.00736849,1.71063e-20,-6.38416e-20,1.2952e-07,-3.02058e-08,-4.25643e-08,9.22178e-08,-1.48338e-24,-7.24799e-24,0.0,1.295200084960868e-07,9.221780428170234e-08,0.0,-3.0205799528282284e-08,0.0,-4.256429908533477e-08
6,0.0067304,0.0422185,0.00303115,-4.01155e-18,0.0113124,1.74418e-19,1.1516e-19,1.98845e-07,-4.63759e-08,-6.53437e-08,1.41578e-07,3.19598e-24,8.5636e-25,0.0,1.9884501978317815e-07,1.4157800998226833e-07,0.0,-4.637589889888716e-08,0.0,-6.534369789701344e-08
7,0.01025,0.0642969,0.00461631,8.13152e-18,0.0172283,2.08631e-19,-1.25227e-20,3.02832e-07,-7.06269e-08,-9.95172e-08,2.15616e-07,2.29126e-25,-1.36391e-23,0.0,3.0283204588421597e-07,2.156160232580362e-07,0.0,-7.062689755255036e-08,0.0,-9.951719504019962e-08
8,0.01553,0.0974145,0.00699405,2.92735e-18,0.0261021,-1.49373e-19,3.02101e-19,4.58812e-07,-1.07003e-07,-1.50778e-07,3.26673e-07,-3.42531e-24,1.27835e-23,0.0,4.5881210519738147e-07,3.266730532747175e-07,0.0,-1.0700299424293291e-07,0.0,-1.5077798865004155e-07
9,0.023449,0.147091,0.0105607,6.39679e-18,0.0394129,6.16725e-19,5.07377e-19,6.92782e-07,-1.61575e-07,-2.2766e-07,4.93263e-07,1.27839e-23,3.42544e-24,0.0,6.927822400193406e-07,4.932631216814087e-07,0.0,-1.6157498694546746e-07,0.0,-2.2765997409468497e-07
10,0.035328,0.221605,0.0159106,-7.48099e-18,0.059379,8.22001e-19,-2.58722e-19,1.04374e-06,-2.43427e-07,-3.4299e-07,7.43145e-07,1.27839e-23,3.42544e-24,0.0,1.0437405446594994e-06,7.43145276205226e-07,0.0,-2.4342697035883987e-07,0.0,-3.429899412266124e-07
11,0.053146,0.333377,0.0239354,-3.52366e-17,0.0893282,1.43291e-18,1.54718e-18,1.57017e-06,-3.66206e-07,-5.15985e-07,1.11797e-06,-4.82329e-29,-1.2924e-29,0.0,1.570171232812001e-06,1.1179706249642152e-06,0.0,-3.662059329112566e-07,0.0,-5.159848668334632e-07
12,0.079874,0.501035,0.0359727,-2.13588e-17,0.134252,1.15921e-18,2.56864e-18,2.35982e-06,-5.50367e-07,-7.75483e-07,1.6802e-06,-4.1105e-23,1.53406e-22,0.0,2.3598227842924757e-06,1.6802014115580022e-06,0.0,-5.503668485395963e-07,0.0,-7.754826992778519e-07
13,0.12,0.752521,0.0540286,-7.48099e-18,0.201637,2.25401e-18,-1.51722e-18,3.54429e-06,-8.26616e-07,-1.16472e-06,2.52354e-06,-1.0888e-28,-2.91744e-29,0.0,3.544296280910686e-06,2.523543184196342e-06,0.0,-8.266156583669471e-07,0.0,-1.1647193217667606e-06
14,0.1801,1.12975,0.0811124,2.02746e-17,0.302715,9.8783e-18,2.71531e-18,5.321e-06,-1.241e-06,-1.74857e-06,3.78857e-06,1.53406e-22,4.11051e-23,0.0,5.321014156622894e-06,3.788577176644381e-06,0.0,-1.2409992299344808e-06,0.0,-1.7485684712381655e-06
15,0.2703,1.69559,0.121738,-7.48099e-18,0.454332,-5.51699e-18,2.96936e-18,7.98605e-06,-1.86256e-06,-2.62435e-06,5.6861e-06,6.26956e-28,1.67992e-28,0.0,7.986081888677887e-06,5.686116165914967e-06,0.0,-1.862558265397496e-06,0.0,-2.6243465564013135e-06
16,0.4056,2.54435,0.182676,4.92119e-16,0.681756,-3.36327e-19,-2.16935e-20,1.19836e-05,-2.79488e-06,-3.93804e-06,8.53236e-06,2.19228e-22,-8.18169e-22,0.0,1.1983671803550422e-05,8.532396400751097e-06,0.0,-2.7948760943363737e-06,0.0,-3.938032245964784e-06
17,0.6086,3.81748,0.274083,3.81097e-16,1.02289,-3.36325e-19,-2.16927e-20,1.79799e-05,-4.19337e-06,-5.90853e-06,1.28018e-05,9.49301e-23,4.63893e-22,0.0,1.79800616393333e-05,1.2801881943413917e-05,0.0,-4.1933612078270954e-06,0.0,-5.908512544672284e-06
18,0.913,5.72716,0.411192,4.92119e-16,1.53459,3.23501e-17,8.73662e-18,2.69743e-05,-6.2911e-06,-8.86425e-06,1.92058e-05,4.09074e-22,1.09611e-22,0.0,2.697466380974234e-05,1.920598443261312e-05,0.0,-6.291080211107136e-06,0.0,-8.864210712666853e-06
19,1.37,8.59165,0.616853,-1.28424e-15,2.30213,-3.36733e-19,-2.18022e-20,4.04657e-05,-9.43765e-06,-1.32978e-05,2.88117e-05,4.38461e-22,-1.63636e-21,0.0,4.0466518747450664e-05,2.8812115061116472e-05,0.0,-9.4376054655676e-06,0.0,-1.3297711584647764e-05
20,2.055,12.8883,0.925338,-5.059e-15,3.45341,6.94144e-17,1.1511e-18,6.07025e-05,-1.41574e-05,-1.99479e-05,4.32204e-05,-7.0378e-26,-1.88577e-26,0.0,6.070434243410361e-05,4.322133401490902e-05,0.0,-1.4157299784489652e-05,0.0,-1.994770104196686e-05
21,3.082,19.3331,1.38805,-2.81516e-14,5.18029,7.817e-17,-3.15365e-17,9.10568e-05,-2.12368e-05,-2.99229e-05,6.48327e-05,8.76832e-22,-3.2728e-21,0.0,9.106094579625079e-05,6.483480168495426e-05,0.0,-2.123657450070482e-05,0.0,-2.992245231447921e-05
22,4.623,116.413,8.35811,-1.03265e-09,31.1929,9.83292e-16,7.71529e-16,0.000548295,-0.000127877,-0.000180179,0.000390388,3.49743e-21,-1.3096e-20,0.0,0.0005484453411794821,0.0003904642113123913,0.0,-0.00012786882408488687,0.0,-0.00018016276873877857
23,6.935,262.609,18.8545,-9.04826e-07,70.3658,1.26247e-15,-2.74743e-16,0.00123686,-0.000288468,-0.000406453,0.000880648,1.40118e-20,-5.23908e-20,0.0,0.0012376252267900512,0.0008810358843047705,0.0,-0.0002884263971069112,0.0,-0.00040637040916957634
24,10.03,446.391,32.0872,0.00283774,119.685,-0.011298,-0.00302561,0.00215605,-0.000511058,-0.000723714,0.00153868,-1.45789e-07,-3.90965e-08,5.91149e-05,0.0021583759471202058,0.0015398643754516161,-1.457889893252684e-07,-0.0005109274321037915,-3.9096499260260487e-08,-0.0007234521821872786
25,13.12,467.967,33.7815,0.000113599,125.733,-0.11574,-0.0309704,0.00307229,-0.000851023,-0.00125519,0.00223514,-2.0917e-06,-5.67786e-07,0.000957136,0.0030770143198433075,0.0022376397875212284,-2.0916978124008168e-06,-0.0008506609826289813,-5.677858387898027e-07,-0.0012544025785208301
26,16.21,485.732,35.175,8.80115e-05,130.713,-0.201028,-0.0537663,0.00398747,-0.00119333,-0.00179117,0.00293214,-4.24936e-06,-1.15839e-06,0.00187401,0.0039954305357827735,0.0029364429270570813,-4.24935097143031e-06,-0.001192618264895251,-1.1583893290145753e-06,-0.0017895668123523167
27,19.3,500.877,36.3623,3.58032e-05,134.958,-0.27234,-0.0728105,0.00490161,-0.00153711,-0.00233009,0.00362937,-6.59334e-06,-1.80305e-06,0.00280353,0.004913642541872321,0.0036359641384078323,-6.593318264025427e-06,-0.0015359292514814937,-1.803048374493521e-06,-0.002327377447535417
28,22.39,514.104,37.3988,1.44603e-05,138.664,-0.333297,-0.0890774,0.00581472,-0.00188183,-0.00287101,0.00432666,-9.10317e-06,-2.49549e-06,0.00374205,0.0058316582989133,0.004336033507161607,-9.10312856627904e-06,-0.0018800604680855315,-2.495486886244791e-06,-0.0028668925921054855
29,25.48,525.867,38.32,4.53401e-06,141.959,-0.386336,-0.103222,0.00672682,-0.00222719,-0.00341333,0.00502389,-1.17602e-05,-3.23015e-06,0.00468719,0.006749495870641109,0.005036530895323077,-1.176013084913663e-05,-0.0022247116526101784,-3.2301447830951346e-06,-0.0034075112115199424
30,28.57,536.474,39.1503,-9.92711e-07,144.929,-0.433154,-0.115701,0.00763792,-0.00257296,-0.00395663,0.00572096,-1.45481e-05,-4.00218e-06,0.00563735,0.007667163316253944,0.00573735594359448,-1.454799417688335e-05,-0.0025696527754792697,-4.002171991257519e-06,-0.003948812852773154
31,31.66,546.142,39.9068,-4.71141e-06,147.636,-0.47497,-0.126841,0.00854802,-0.00291899,-0.00450064,0.00641779,-1.74526e-05,-4.80744e-06,0.00659141,0.008584658644508414,0.006438428141038122,-1.745244770423593e-05,-0.0029147338908769305,-4.80742844433113e-06,-0.0044905272966958565
32,34.75,555.034,40.6023,-7.69504e-06,150.125,-0.512688,-0.136885,0.00945714,-0.00326516,-0.00504512,0.00711434,-2.04616e-05,-5.64238e-06,0.00754851,0.009502000052904025,0.007139707037713272,-2.0461390662918078e-05,-0.0032598351621461186,-5.64236408184815e-06,-0.0050324147575638856
33,37.84,563.271,41.2465,-1.04225e-05,152.431,-0.546994,-0.146017,0.0103653,-0.0036114,-0.00558993,0.00781056,-2.35646e-05,-6.50398e-06,0.00850802,0.010419205811023735,0.007841141992736,-2.3564322356950385e-05,-0.003604886738043711,-6.503958849157776e-06,-0.005574335412379283
34,40.93,570.949,41.8468,-1.31186e-05,154.579,-0.578419,-0.154378,0.0112725,-0.00395764,-0.00613492,0.00850642,-2.67525e-05,-7.38962e-06,0.00946944,0.011336274033784788,0.008542702395404778,-2.6752142155084258e-05,-0.003949818863964172,-7.389592696860348e-06,-0.006116139802925358
35,44.02,578.144,42.4093,-1.5892e-05,156.593,-0.607384,-0.162082,0.0121787,-0.00430383,-0.00668001,0.00920187,-3.00175e-05,-8.29703e-06,0.0104324,0.012253162344662005,0.009244337365526878,-3.001704947935835e-05,-0.004294581795988628,-8.29699557969299e-06,-0.0066577483301735185
36,47.11,584.916,42.9386,-1.87951e-05,158.488,-0.634224,-0.169219,0.0130839,-0.00464992,-0.00722512,0.00989691,-3.33526e-05,-9.22425e-06,0.0113966,0.01316986874593895,0.00994604637943719,-3.335204380816581e-05,-0.004639125859108306,-9.224207456748346e-06,-0.007199081568496135
37,50.2,591.315,43.4387,-2.18519e-05,160.278,-0.659212,-0.175862,0.0139882,-0.00499589,-0.00777017,0.0105915,-3.67518e-05,-1.01696e-05,0.0123617,0.014086492647278348,0.010647788487104126,-3.675112466083874e-05,-0.004983431297624241,-1.0169548289806762e-05,-0.007740060265475135
38,53.29,597.383,43.913,-2.5072e-05,161.976,-0.682575,-0.18207,0.0148916,-0.00534171,-0.00831512,0.0112856,-4.02099e-05,-1.11315e-05,0.0133275,0.015003032323372523,0.011349522625752728,-4.020909159274666e-05,-0.005327468436522542,-1.1131438045097752e-05,-0.00828064501042669
39,56.38,603.155,44.364,-2.84572e-05,163.591,-0.704499,-0.187895,0.015794,-0.00568735,-0.00885991,0.0119793,-4.37222e-05,-1.21086e-05,0.0142939,0.01591938445563934,0.01205133918652801,-4.372124419849133e-05,-0.005671207641900544,-1.2108526691201327e-05,-0.008820776655313112
40,59.47,608.659,44.7942,-3.20053e-05,165.131,-0.725143,-0.193379,0.0166955,-0.0060328,-0.00940452,0.0126725,-4.72845e-05,-1.30998e-05,0.0152607,0.016835648724791152,0.012753136389660247,-4.72833821056895e-05,-0.006014639200589422,-1.3099714197939427e-05,-0.009360435806914924
41,62.56,613.921,45.2055,-3.57121e-05,166.603,-0.744639,-0.198556,0.0175961,-0.00637805,-0.0099489,0.0133651,-5.0893e-05,-1.4104e-05,0.0162278,0.017751823401565447,0.013454812174198638,-5.089170497318829e-05,-0.006357753412906342,-1.4103900539019776e-05,-0.009899573411691232
42,65.65,618.963,45.5996,-3.95726e-05,168.014,-0.763102,-0.203458,0.0184957,-0.00672307,-0.010493,0.0140573,-5.45443e-05,-1.51202e-05,0.0171951,0.01866780488859643,0.01415656844501112,-5.4542812486735315e-05,-0.006700520726634185,-1.5120085690378815e-05,-0.010438140523328698
43,68.74,623.803,45.978,-4.35859e-05,169.368,-0.78063,-0.208112,0.0193944,-0.00706786,-0.0110369,0.014749,-5.82356e-05,-1.61476e-05,0.0181624,0.019583693137590563,0.014858303210394164,-5.823390434034348e-05,-0.007042941419085458,-1.614746962819158e-05,-0.010976216875569156
44,71.83,628.459,46.342,-4.77368e-05,170.671,-0.797309,-0.212538,0.0202921,-0.00741241,-0.0115805,0.0154401,-6.1964e-05,-1.71854e-05,0.0191297,0.020499384365434192,0.015559914197494251,-6.196208027098304e-05,-0.007385005841087144,-1.7185252331852752e-05,-0.011513704101811961
45,74.92,632.944,46.6927,-5.20251e-05,171.926,-0.813214,-0.216759,0.021189,-0.00775671,-0.0121237,0.0161307,-6.57271e-05,-1.82329e-05,0.0200969,0.021415080845973655,0.01626150210465971,-6.57249400214388e-05,-0.007726704356801117,-1.8232733781653465e-05,-0.012050504049678668
46,78.01,637.271,47.0311,-5.64454e-05,173.137,-0.828409,-0.220791,0.0220849,-0.00810074,-0.0126666,0.0168207,-6.95225e-05,-1.92895e-05,0.021064,0.022330576652015877,0.016962964517813983,-6.952008336702509e-05,-0.008068017424367468,-1.9289313958781307e-05,-0.01258671626305452
47,81.1,641.453,47.3582,-6.0993e-05,174.308,-0.842952,-0.224649,0.02298,-0.00844452,-0.0132092,0.0175102,-7.33483e-05,-2.03546e-05,0.0220308,0.02324607442107829,0.01766440227472632,-7.334561007921181e-05,-0.008408965192467699,-2.0354392846533287e-05,-0.013122341382573954
48,84.19,645.498,47.6746,-6.56631e-05,175.44,-0.856894,-0.228347,0.0238741,-0.00878802,-0.0137514,0.0181991,-7.72026e-05,-2.14277e-05,0.0229974,0.024161367857174154,0.018365712820134883,-7.71996199558922e-05,-0.008749518219593133,-2.1427470428436735e-05,-0.013657281413728573
49,87.28,649.416,47.9812,-7.04516e-05,176.537,-0.87028,-0.231897,0.0247673,-0.00913125,-0.0142933,0.0188875,-8.10836e-05,-2.25082e-05,0.0239637,0.025076557453772574,0.019066997131205632,-8.108031281373052e-05,-0.009089686741094338,-2.2507946692340575e-05,-0.014191635736550468
50,90.37,653.216,48.2786,-7.53544e-05,177.6,-0.883152,-0.23531,0.0256596,-0.00947419,-0.0148347,0.0195754,-8.49898e-05,-2.35958e-05,0.0249296,0.025991641470006766,0.019768254488346848,-8.498618846919381e-05,-0.009429451261171118,-2.3595521621344595e-05,-0.014725207933935724
51,93.46,656.904,48.5673,-8.03678e-05,178.633,-0.895545,-0.238596,0.026551,-0.00981686,-0.0153758,0.0202626,-8.89197e-05,-2.469e-05,0.0258952,0.026906618163739404,0.02046928007763582,-8.891574676062053e-05,-0.00976883192000133,-2.4689695204416218e-05,-0.015258195911020955
52,96.55,660.487,48.8479,-8.54884e-05,179.637,-0.907492,-0.241764,0.0274415,-0.0101592,-0.0159165,0.0209494,-9.28718e-05,-2.57904e-05,0.0268603,0.0278214857915684,0.021170379109041848,-9.286748754788743e-05,-0.010107769638802222,-2.579006743053114e-05,-0.01579050188260389
53,99.64,663.973,49.1208,-9.07128e-05,180.613,-0.919023,-0.244821,0.0283311,-0.0105013,-0.0164568,0.0216355,-9.68451e-05,-2.68966e-05,0.027825,0.028736242608833784,0.02187124451053113,-9.684041066460036e-05,-0.010446353852677115,-2.6896238289664254e-05,-0.016322126643074752
54,102.7,667.365,49.3866,-9.6038e-05,181.563,-0.930165,-0.247774,0.0292198,-0.0108431,-0.0169967,0.0223211,-0.000100838,-2.80085e-05,0.0287891,0.029650886869619697,0.02257207965460295,-0.00010083291601969968,-0.010784525492104624,-2.8008107765598034e-05,-0.016853070985577867
55,105.8,670.67,49.6455,-0.000101461,182.489,-0.940941,-0.25063,0.0301077,-0.0111846,-0.0175361,0.0230061,-0.00010485,-2.91255e-05,0.0297528,0.03056551988330858,0.02327278149214651,-0.00010484450343084539,-0.011122284900947577,-2.9125075856728522e-05,-0.01738323744034087
56,108.9,673.891,49.898,-0.00010698,183.391,-0.951375,-0.253395,0.0309946,-0.0115258,-0.0180752,0.0236905,-0.00010888,-3.02476e-05,0.030716,0.03147993387984105,0.02397334909068638,-0.00010887407278792338,-0.011459632422579302,-3.0247142545958283e-05,-0.017912823374322207
57,112.0,677.034,50.1443,-0.000112591,184.272,-0.961487,-0.256075,0.0318807,-0.0118667,-0.0186138,0.0243743,-0.000112926,-3.13743e-05,0.0316786,0.03239433331409103,0.024673781517349003,-0.00011291962409920586,-0.011796568399886187,-3.137380783180266e-05,-0.018441633106408672
58,115.1,680.102,50.3849,-0.000118293,185.132,-0.971294,-0.258674,0.0327658,-0.0122073,-0.019152,0.0250576,-0.000116989,-3.25055e-05,0.0326407,0.033308510047739937,0.025374180376278366,-0.0001169821570538021,-0.012133093175266563,-3.25049717019299e-05,-0.018969765686245088
59,118.2,683.099,50.62,-0.000124083,185.972,-0.980815,-0.261197,0.0336501,-0.0125476,-0.0196898,0.0257403,-0.000121067,-3.36409e-05,0.0336022,0.03422266889893977,0.026074442336443404,-0.00012105967168640763,-0.012469207090632706,-3.364033415131917e-05,-0.019497221900570016
60,121.3,686.029,50.8498,-0.000129959,186.793,-0.990065,-0.263647,0.0345335,-0.0128876,-0.0202271,0.0264224,-0.000125159,-3.47803e-05,0.0345631,0.035136704874892954,0.02677456646374954,-0.00012515116793909709,-0.012804910487410504,-3.4779695172404423e-05,-0.020023904537281867
61,124.4,688.894,51.0747,-0.000135919,187.596,-0.999059,-0.26603,0.0354161,-0.0132273,-0.020764,0.0271039,-0.000129265,-3.59235e-05,0.0355234,0.03605071982608021,0.027474551823714277,-0.0001292566456397859,-0.013140203706540343,-3.592285475884083e-05,-0.020549912483467048
62,127.4,691.697,51.2947,-0.000141962,188.382,-1.00781,-0.268348,0.0362977,-0.0135667,-0.0213004,0.0277849,-0.000133383,-3.70703e-05,0.036483,0.03696450487794545,0.02817450029891133,-0.00013337410488312162,-0.013475087088477777,-3.70696129049497e-05,-0.02107514862948301
63,130.5,694.442,51.5102,-0.000148085,189.152,-1.01633,-0.270605,0.0371785,-0.0139058,-0.0218364,0.0284653,-0.000137515,-3.82206e-05,0.037442,0.03787826557497764,0.028874308276590988,-0.00013750554524571967,-0.013809560973193968,-3.821986960217405e-05,-0.021599711754341278
64,133.6,697.13,51.7214,-0.000154287,189.906,-1.02463,-0.272804,0.0380584,-0.0142445,-0.022372,0.029145,-0.000141657,-3.9374e-05,0.0384004,0.03879189655385984,0.02957387186367888,-0.00014164696712082314,-0.014143527114533594,-3.937322485425554e-05,-0.022123602638222994
65,136.7,699.765,51.9284,-0.000160566,190.645,-1.03272,-0.274947,0.0389374,-0.014583,-0.0229071,0.0298242,-0.000145811,-4.05306e-05,0.0393581,0.039705396055144115,0.030273395968943184,-0.00014580037009270796,-0.0144771830561512,-4.0529778646325454e-05,-0.02264672432476178
66,139.8,702.348,52.1314,-0.000166921,191.37,-1.04062,-0.277038,0.0398156,-0.0149212,-0.0234418,0.0305028,-0.000149976,-4.16902e-05,0.0403151,0.040618866380071283,0.0309727767685144,-0.00014996475416184651,-0.014810430517519513,-4.168933097570271e-05,-0.02316917543151442
67,142.9,704.881,52.3306,-0.000173351,192.081,-1.04832,-0.279079,0.0406929,-0.015259,-0.023976,0.0311809,-0.000154151,-4.28525e-05,0.0412715,0.04153220188758744,0.03167211649277735,-0.00015413911934503144,-0.015143171350999962,-4.285158184469395e-05,-0.0236908591038838
68,146.0,707.367,52.526,-0.000179854,192.778,-1.05585,-0.281072,0.0415694,-0.0155965,-0.0245097,0.0318583,-0.000158335,-4.40176e-05,0.0422272,0.04244550505918632,0.03237120794002979,-0.00015832246567537567,-0.015475504446304633,-4.4016631239651716e-05,-0.02421177627326887
69,149.1,709.807,52.718,-0.000186429,193.463,-1.0632,-0.283019,0.042445,-0.0159338,-0.025043,0.0325351,-0.000162528,-4.51851e-05,0.0431821,0.04335867006871563,0.03307015326998353,-0.00016251479304008054,-0.01580752855964007,-4.518407916875855e-05,-0.024732025396223434
70,152.2,712.204,52.9065,-0.000193074,194.136,-1.07039,-0.284922,0.0433197,-0.0162707,-0.0255758,0.0332114,-0.000166731,-4.63551e-05,0.0441364,0.04427169515073115,0.033769054921594766,-0.00016671710115923055,-0.016139047155825148,-4.63540256189221e-05,-0.025251509770165992
71,155.3,714.557,53.0918,-0.000199789,194.797,-1.07742,-0.286784,0.0441936,-0.0166073,-0.0261082,0.0338871,-0.000170941,-4.75274e-05,0.04509,0.04518468305708501,0.034467808719389925,-0.00017092639041971225,-0.01647015902329918,-4.7526270591014e-05,-0.02577032774476473
72,158.3,716.87,53.2739,-0.000206572,195.446,-1.0843,-0.288606,0.0450666,-0.0169436,-0.0266401,0.0345622,-0.00017516,-4.87019e-05,0.0460428,0.04609752768409803,0.0351664137246428,-0.00017514466038281995,-0.016800864497577228,-4.8700714081695295e-05,-0.02628838271850298
73,161.4,719.144,53.453,-0.000213423,196.085,-1.09103,-0.29039,0.0459387,-0.0172796,-0.0271716,0.0352367,-0.000179386,-4.98785e-05,0.0469949,0.04701022726279591,0.035864868998261246,-0.00017936991129352542,-0.017131163913696734,-4.987725608829319e-05,-0.026805772934458294
74,164.5,721.38,53.6292,-0.00022034,196.713,-1.09763,-0.292136,0.04681,-0.0176152,-0.0277026,0.0359106,-0.000183619,-5.10571e-05,0.0479463,0.0479228848153348,0.036563173600787424,-0.00018360214306312184,-0.017460959352317285,-5.105579660846793e-05,-0.027322401891902826
75,167.6,723.579,53.8025,-0.000227322,197.331,-1.10409,-0.293848,0.0476805,-0.0179506,-0.0282331,0.0365839,-0.000187859,-5.22376e-05,0.048897,0.04883549884419325,0.037261326592402666,-0.00018784135560290238,-0.017790447688267874,-5.223623564032387e-05,-0.027838270511449492
76,170.7,725.743,53.9731,-0.000234369,197.939,-1.11043,-0.295526,0.0485501,-0.0182856,-0.0287632,0.0372567,-0.000192106,-5.34199e-05,0.049847,0.04974796287584837,0.03795943082886577,-0.00019208754882382717,-0.018119432780212663,-5.3418473182520465e-05,-0.028353476876739614
77,173.8,727.873,54.141,-0.00024148,198.537,-1.11664,-0.297171,0.0494189,-0.0186204,-0.0292928,0.0379288,-0.000196359,-5.4604e-05,0.0507961,0.05066038020268948,0.038657277847547133,-0.00019633972283328305,-0.01844811137025193,-5.4602509228729446e-05,-0.028867924637594355
78,176.9,729.969,54.3064,-0.000248654,199.127,-1.12274,-0.298785,0.0502868,-0.0189548,-0.0298219,0.0386004,-0.000200618,-5.57897e-05,0.0517446,0.0515726441663511,0.03935507436919328,-0.00020059787755466463,-0.018776287447711204,-5.57881437835972e-05,-0.029381614709976134
79,180.0,732.034,54.4693,-0.00025589,199.707,-1.12872,-0.300369,0.0511539,-0.0192889,-0.0303506,0.0392713,-0.000204883,-5.6977e-05,0.0526923,0.052484858239363996,0.040052611651304915,-0.00020486201291136652,-0.019104059532699336,-5.697537684157261e-05,-0.029894645018766375
80,183.1,734.067,54.6298,-0.000263187,200.279,-1.1346,-0.301924,0.0520201,-0.0196227,-0.0308788,0.0399417,-0.000209153,-5.81658e-05,0.0536392,0.053396915578578064,0.04075009669301921,-0.00020913112903608866,-0.01943142795679753,-5.816410840264741e-05,-0.03040691936370299
81,186.2,736.071,54.788,-0.000270545,200.842,-1.14036,-0.303452,0.0528855,-0.0199562,-0.0314066,0.0406115,-0.000213428,-5.9356e-05,0.0545854,0.05430891983664399,0.04144742461683548,-0.00021340522586454913,-0.019758393051114043,-5.935423846747945e-05,-0.0309185355642706
82,189.2,738.045,54.944,-0.000277963,201.398,-1.14603,-0.304952,0.0537501,-0.0202894,-0.0319339,0.0412808,-0.000217709,-6.05476e-05,0.0555309,0.05522086950776828,0.04214469869487236,-0.00021768530311527812,-0.020084955146283057,-6.054576703107273e-05,-0.03142939751987606
83,192.3,739.991,55.0978,-0.00028544,201.945,-1.1516,-0.306427,0.0546138,-0.0206223,-0.0324607,0.0419494,-0.000221994,-6.17405e-05,0.0564755,0.056132657471713365,0.0428417096252085,-0.00022196936115514987,-0.02041111457246625,-6.17385940945292e-05,-0.03193950613885521
84,195.4,741.91,55.2494,-0.000292976,202.485,-1.15708,-0.307876,0.0554767,-0.0209548,-0.032987,0.0426175,-0.000226283,-6.29347e-05,0.0574195,0.057044387651258965,0.04353866496341574,-0.00022625739993287208,-0.020736773733035174,-6.293271965329694e-05,-0.03244886232793587
85,198.5,743.802,55.399,-0.00030057,203.017,-1.16246,-0.309302,0.0563388,-0.0212871,-0.0335129,0.0432849,-0.000230577,-6.413e-05,0.0583626,0.05795605853712438,0.04423535512805987,-0.00023055041916653085,-0.021062128842378236,-6.412794371546404e-05,-0.03295756369648861
86,201.6,745.668,55.5466,-0.000308222,203.542,-1.16776,-0.310704,0.0572,-0.021619,-0.0340383,0.0439518,-0.000234875,-6.53265e-05,0.059305,0.058867562732106915,0.044931987952790964,-0.0002348474190265737,-0.02138698440905218,-6.532436627060267e-05,-0.03346551434220291
87,204.7,747.509,55.6923,-0.00031593,204.061,-1.17297,-0.312084,0.0580604,-0.0219506,-0.0345633,0.0446181,-0.000239177,-6.6524e-05,0.0602466,0.05977900442907247,0.045628458139640005,-0.00023914839946148625,-0.02171143868752967,-6.652178732780012e-05,-0.03397281176994649
88,207.8,749.326,55.836,-0.000323696,204.572,-1.1781,-0.313442,0.05892,-0.0222819,-0.0350878,0.0452838,-0.000243482,-6.77225e-05,0.0611874,0.06069038211528999,0.04632476474416225,-0.0002434523606633654,-0.02203549200549637,-6.772020688328162e-05,-0.03447936017624109
89,210.9,751.119,55.978,-0.000331517,205.077,-1.18315,-0.314779,0.0597788,-0.022613,-0.0356118,0.0459489,-0.000247791,-6.89221e-05,0.0621275,0.061601694276882446,0.047020906821579445,-0.0002477603023456343,-0.022359242454248807,-6.891972492661935e-05,-0.0349851604602609
90,214.0,752.888,56.1181,-0.000339394,205.576,-1.18812,-0.316096,0.0606367,-0.0229437,-0.0361354,0.0466135,-0.000252104,-7.01225e-05,0.0630668,0.0625128331475382,0.04771698819847359,-0.0002520722244568896,-0.022682494800047914,-7.012004147499695e-05,-0.03549030997056113
91,217.1,754.636,56.2565,-0.000347326,206.068,-1.19302,-0.317394,0.0614938,-0.023274,-0.0366585,0.0472775,-0.00025642,-7.13239e-05,0.0640053,0.06342390328016023,0.04841290329688119,-0.00025638712720155166,-0.023005249466147903,-7.132135651111149e-05,-0.035994713051288096
92,220.1,756.361,56.3933,-0.000355312,206.554,-1.19785,-0.318672,0.0623501,-0.0236041,-0.0371811,0.0479409,-0.000260738,-7.25261e-05,0.064943,0.06433490315747048,0.04910865117098173,-0.0002607040108018044,-0.02332770220954572,-7.252347004593762e-05,-0.03649837059706784
93,223.2,758.065,56.5283,-0.000363353,207.034,-1.20261,-0.319931,0.0632056,-0.0239339,-0.0377032,0.0486037,-0.00026506,-7.3729e-05,0.0658799,0.06524583126106065,0.049804230874627375,-0.00026502487470170255,-0.023649755623829982,-7.372628208401899e-05,-0.03700128350094156
94,226.3,759.748,56.6618,-0.000371448,207.508,-1.2073,-0.321173,0.0640602,-0.0242634,-0.0382249,0.0492659,-0.000269384,-7.49328e-05,0.0668161,0.06615657945573017,0.05049964146134589,-0.0002693477193881355,-0.023971410033877705,-7.492999260783062e-05,-0.03750354890401686
95,229.4,761.411,56.7937,-0.000379596,207.977,-1.21192,-0.322398,0.0649141,-0.0245925,-0.0387462,0.0499275,-0.000273711,-7.61372e-05,0.0677515,0.06706735936106734,0.05119488198434197,-0.00027367354456164783,-0.024292568193361785,-7.613430163688761e-05,-0.03800516754571448
96,232.5,763.054,56.9241,-0.000387797,208.44,-1.21648,-0.323606,0.0657671,-0.0249214,-0.0392669,0.0505886,-0.000278041,-7.73424e-05,0.0686861,0.06797795613291213,0.05189005668550006,-0.0002780023501832707,-0.024613425599790184,-7.7339409153665e-05,-0.03850594786550254
97,235.6,764.678,57.053,-0.000396051,208.898,-1.22098,-0.324798,0.0666194,-0.0252499,-0.0397872,0.0512491,-0.000282373,-7.85481e-05,0.0696199,0.06888858175290791,0.052585059567376025,-0.0002823331364966153,-0.024933787467162905,-7.854501517878809e-05,-0.039006083099364264
98,238.7,766.283,57.1804,-0.000404358,209.351,-1.22543,-0.325974,0.0674708,-0.0255782,-0.0403071,0.051909,-0.000286707,-7.97545e-05,0.0705529,0.06979902101040758,0.05327988968216624,-0.0002866659034757024,-0.025253849163735298,-7.975131969439886e-05,-0.039505573982855036
99,241.8,767.869,57.3064,-0.000412716,209.798,-1.22981,-0.327134,0.0683214,-0.0259061,-0.0408264,0.0525683,-0.000291043,-8.09615e-05,0.0714852,0.07070937917811904,0.053974546081753116,-0.0002910006510946639,-0.025573416030743257,-8.095822270615116e-05,-0.04000422925123903
100,244.9,769.438,57.4311,-0.000421127,210.241,-1.23414,-0.32828,0.0691712,-0.0262337,-0.0413454,0.0532271,-0.000295381,-8.21691e-05,0.0724166,0.07161965472984622,0.054669133284614535,-0.00029533737932740944,-0.025892585896773124,-8.216572421193558e-05,-0.040502337785911946
101,248.0,770.989,57.5543,-0.000429589,210.678,-1.23841,-0.329412,0.0700202,-0.026561,-0.0418638,0.0538853,-0.000299721,-8.33771e-05,0.0733473,0.07252984613829239,0.05536354501397267,-0.0002996760881481819,-0.026211359083331387,-8.337362422616845e-05,-0.04099961246926942
102,251.0,772.523,57.6763,-0.000438102,211.111,-1.24263,-0.330529,0.0708683,-0.0268881,-0.0423818,0.0545429,-0.000304063,-8.45857e-05,0.0742772,0.07343984453107599,0.05605778032072495,-0.0003040167775310021,-0.026529833258484237,-8.458212273054766e-05,-0.04149624603081292
103,254.1,774.04,57.797,-0.000446667,211.539,-1.2468,-0.331633,0.0717157,-0.0272148,-0.0428993,0.0551999,-0.000308407,-8.57947e-05,0.0752063,0.07434986297569068,0.05675183825546126,-0.00030835944744989074,-0.02684781401697367,-8.579101973993364e-05,-0.04199214339898105
104,257.2,775.541,57.9164,-0.000455282,211.963,-1.25091,-0.332724,0.0725623,-0.0275412,-0.0434164,0.0558563,-0.000312752,-8.70041e-05,0.0761346,0.0752597926885854,0.057445717868467305,-0.0003127030981914247,-0.02716539905778015,-8.700031525299412e-05,-0.04248740120168881
105,260.3,777.026,58.0345,-0.000463948,212.382,-1.25498,-0.333801,0.0734081,-0.0278673,-0.043933,0.0565122,-0.000317099,-8.8214e-05,0.0770621,0.07616963213810446,0.05813952402367262,-0.0003170487294258395,-0.027482588700565413,-8.821010925952333e-05,-0.0429819244638715
106,263.4,778.495,58.1515,-0.000472664,212.797,-1.25901,-0.334867,0.0742531,-0.0281931,-0.0444491,0.0571675,-0.000321447,-8.94242e-05,0.0779889,0.07707937979151303,0.05883315009552681,-0.0003213953414484827,-0.02779938326453002,-8.94202017753809e-05,-0.04347571405929018
107,266.5,779.949,58.2673,-0.00048143,213.208,-1.26298,-0.33592,0.0750973,-0.0285186,-0.0449648,0.0578223,-0.000325796,-9.06348e-05,0.0789148,0.07798903411499913,0.05952670108602254,-0.00032574293424625367,-0.02811578306841589,-9.063069279058311e-05,-0.04396886646327314
108,269.6,781.388,58.3819,-0.000490246,213.614,-1.26692,-0.336962,0.0759407,-0.0288438,-0.04548,0.0584764,-0.000330147,-9.18458e-05,0.07984,0.07889859357367968,0.06021996420818976,-0.00033009250747628727,-0.0284317884305052,-9.184158230357564e-05,-0.044461286844888814
109,272.7,782.812,58.4954,-0.000499111,214.016,-1.27081,-0.337992,0.0767833,-0.0291687,-0.0459947,0.05913,-0.000334499,-9.3057e-05,0.0807644,0.07980805663160284,0.06091315048539436,-0.0003344430614469207,-0.028747399668622275,-9.305267033166142e-05,-0.04495297607347215
110,275.8,784.222,58.6077,-0.000508027,214.415,-1.27465,-0.339011,0.0776251,-0.0294933,-0.046509,0.0597831,-0.000338852,-9.42686e-05,0.0816879,0.08071742175175456,0.061606259173982325,-0.00033879459614505336,-0.029062617100132804,-9.426415685509504e-05,-0.045444030472414854
111,278.9,785.618,58.719,-0.000516991,214.809,-1.27846,-0.340019,0.0784662,-0.0298176,-0.0470229,0.0604355,-0.000343206,-9.54804e-05,0.0826107,0.08162679555873309,0.062299077070091524,-0.0003431471115580287,-0.02937744104194595,-9.54758418916235e-05,-0.045934450760869106
112,281.9,787.0,58.8292,-0.000526005,215.2,-1.28223,-0.341016,0.0793064,-0.0301416,-0.0475363,0.0610874,-0.000347561,-9.66925e-05,0.0835327,0.08253596027897614,0.06299181561202838,-0.000347500607672635,-0.02969187181051325,-9.6687825430819e-05,-0.046424142299274385
113,285.0,788.368,58.9384,-0.000535068,215.587,-1.28595,-0.342003,0.0801459,-0.0304653,-0.0480492,0.0617387,-0.000351917,-9.79048e-05,0.0844539,0.0834451307885562,0.06368436768663832,-0.0003518550844759938,-0.030005909721830037,-9.790000748144401e-05,-0.04691310595124165
114,288.1,789.724,59.0466,-0.00054418,215.97,-1.28964,-0.342981,0.0809845,-0.0307886,-0.0485616,0.0623895,-0.000356274,-9.91174e-05,0.0853744,0.08435408894812291,0.06437683877878153,-0.0003562105419548933,-0.03031945812338699,-9.911248803273764e-05,-0.04740134257884565
115,291.2,791.066,59.1537,-0.00055334,216.35,-1.29329,-0.343948,0.0818224,-0.0311117,-0.0490737,0.0630397,-0.000360631,-0.00010033,0.086294,0.08526304999530332,0.06506912163612322,-0.0003605659804571948,-0.03063271129769174,-0.00010032496711387395,-0.04788904346484124
116,294.3,792.395,59.2599,-0.00056255,216.726,-1.29691,-0.344906,0.0826596,-0.0314345,-0.0495852,0.0636893,-0.000364989,-0.000101543,0.0872129,0.08617201265943941,0.06576121530522427,-0.0003649223996180506,-0.030945572559960555,-0.00010153784468402982,-0.04837592368887611
117,297.4,793.713,59.3651,-0.000571807,217.098,-1.30049,-0.345855,0.0834959,-0.031757,-0.0500963,0.0643384,-0.000369348,-0.000102756,0.0881309,0.08708075825263162,0.06645322547768329,-0.0003692797994243602,-0.03125804222436823,-0.00010275072078302916,-0.04886217448230368
118,300.5,795.017,59.4694,-0.000581114,217.467,-1.30404,-0.346795,0.0843314,-0.0320792,-0.0506069,0.0649869,-0.000373707,-0.000103969,0.0890482,0.0879893937557763,0.06714504469254057,-0.0003736371802367522,-0.03157012060463671,-0.00010396359541076095,-0.04934770149041923
119,303.6,796.31,59.5727,-0.000590468,217.833,-1.30756,-0.347726,0.0851662,-0.0324011,-0.0511171,0.0656348,-0.000378067,-0.000105183,0.0899647,0.08889802651222789,0.0678366719954675,-0.00037799554167727845,-0.031881808014034174,-0.0001051774684621698,-0.0498326005848414
120,306.7,797.591,59.6752,-0.000599871,218.196,-1.31104,-0.348649,0.0860002,-0.0327227,-0.0516269,0.0662822,-0.000382428,-0.000106396,0.0908804,0.08980654626641615,0.06852821328467917,-0.0003823548837332824,-0.03219310476537618,-0.00010639034014625626,-0.05031687247367023
121,309.0,798.552,59.752,-0.000610716,218.467,-1.31365,-0.34934,0.0866298,-0.0329655,-0.0520117,0.0667709,-0.000385721,-0.000107313,0.0915717,0.09049290451084846,0.06905053064036193,-0.0003856466192188046,-0.03242805975484908,-0.00010730724216589937,-0.050682240239875775
