,Time,S11,S22,S33,S12,S13,S23,LE11,LE22,LE33,LE12,LE13,LE23,SDV_EPBAR,E11,E12,E13,E22,E23,E33
0,0.000309,0.0019383,0.000139163,-7.79048e-12,0.000519365,9.3624e-20,3.36396e-20,9.1292e-09,-2.12864e-09,-3.00057e-09,6.49972e-09,9.45271e-25,4.67314e-25,0.0,9.129200062574228e-09,6.499720095476391e-09,0.0,-2.128640042009522e-09,0.0,-3.0005700146773506e-09
1,0.000618,0.00387659,0.000278327,3.25261e-19,0.00103873,3.61973e-20,-7.40724e-21,1.82584e-08,-4.2578e-09,-6.00057e-09,1.29997e-08,9.27189e-26,4.52981e-25,0.0,1.8258400125148455e-08,1.2999699983140545e-08,0.0,-4.257800001461476e-09,0.0,-6.000569929831556e-09
2,0.0010815,0.00678404,0.000487072,3.25261e-19,0.00181778,-8.55315e-21,3.19208e-20,3.19522e-08,-7.45077e-09,-1.05014e-08,2.27493e-08,2.14063e-25,-7.98907e-25,0.0,3.19522004410544e-08,2.2749300221391877e-08,0.0,-7.45077000097183e-09,0.0,-1.0501399971829528e-08
3,0.0017767,0.0111452,0.00080019,7.58942e-19,0.00298635,8.55315e-21,-3.19208e-20,5.24927e-08,-1.22421e-08,-1.72507e-08,3.73747e-08,4.28159e-25,-1.59792e-24,0.0,5.249270129681349e-08,3.737470066766946e-08,0.0,-1.2242099889370195e-08,0.0,-1.725069986857619e-08
4,0.0028196,0.017687,0.00126987,-2.27682e-18,0.00473921,-1.65988e-27,-4.44764e-28,8.33037e-08,-1.94275e-08,-2.73762e-08,5.93119e-08,1.2845e-24,-4.79383e-24,0.0,8.33037034908557e-08,5.931190183439128e-08,0.0,-1.9427499831081718e-08,0.0,-2.7376199640549714e-08
5,0.0043839,0.0274996,0.00197438,-4.01155e-18,0.00736849,1.71063e-20,-6.38416e-20,1.2952e-07,-3.02058e-08,-4.25643e-08,9.22178e-08,-1.48338e-24,-7.24799e-24,0.0,1.295200084960868e-07,9.221780428170234e-08,0.0,-3.0205799528282284e-08,0.0,-4.256429908533477e-08
6,0.0067304,0.0422185,0.00303115,-4.01155e-18,0.0113124,1.74418e-19,1.1516e-19,1.98845e-07,-4.63759e-08,-6.53437e-08,1.41578e-07,3.19598e-24,8.5636e-25,0.0,1.9884501978317815e-07,1.4157800998226833e-07,0.0,-4.637589889888716e-08,0.0,-6.534369789701344e-08
7,0.01025,0.0642969,0.00461631,8.13152e-18,0.0172283,2.08631e-19,-1.25227e-20,3.02832e-07,-7.06269e-08,-9.95172e-08,2.15616e-07,2.29126e-25,-1.36391e-23,0.0,3.0283204588421597e-07,2.156160232580362e-07,0.0,-7.062689755255036e-08,0.0,-9.951719504019962e-08
8,0.01553,0.0974145,0.00699405,2.92735e-18,0.0261021,-1.49373e-19,3.02101e-19,4.58812e-07,-1.07003e-07,-1.50778e-07,3.26673e-07,-3.42531e-24,1.27835e-23,0.0,4.5881210519738147e-07,3.266730532747175e-07,0.0,-1.0700299424293291e-07,0.0,-1.5077798865004155e-07
9,0.023449,0.147091,0.0105607,6.39679e-18,0.0394129,6.16725e-19,5.07377e-19,6.92782e-07,-1.61575e-07,-2.2766e-07,4.93263e-07,1.27839e-23,3.42544e-24,0.0,6.927822400193406e-07,4.932631216814087e-07,0.0,-1.6157498694546746e-07,0.0,-2.2765997409468497e-07
10,0.035328,0.221605,0.0159106,-7.48099e-18,0.059379,8.22001e-19,-2.58722e-19,1.04374e-06,-2.43427e-07,-3.4299e-07,7.43145e-07,1.27839e-23,3.42544e-24,0.0,1.0437405446594994e-06,7.43145276205226e-07,0.0,-2.4342697035883987e-07,0.0,-3.429899412266124e-07
11,0.053146,0.333377,0.0239354,-3.52366e-17,0.0893282,1.43291e-18,1.54718e-18,1.57017e-06,-3.66206e-07,-5.15985e-07,1.11797e-06,-4.82329e-29,-1.2924e-29,0.0,1.570171232812001e-06,1.1179706249642152e-06,0.0,-3.662059329112566e-07,0.0,-5.159848668334632e-07
12,0.079874,0.501035,0.0359727,-2.13588e-17,0.134252,1.15921e-18,2.56864e-18,2.35982e-06,-5.50367e-07,-7.75483e-07,1.6802e-06,-4.1105e-23,1.53406e-22,0.0,2.3598227842924757e-06,1.6802014115580022e-06,0.0,-5.503668485395963e-07,0.0,-7.754826992778519e-07
13,0.12,0.752521,0.0540286,-7.48099e-18,0.201637,2.25401e-18,-1.51722e-18,3.54429e-06,-8.26616e-07,-1.16472e-06,2.52354e-06,-1.0888e-28,-2.91744e-29,0.0,3.544296280910686e-06,2.523543184196342e-06,0.0,-8.266156583669471e-07,0.0,-1.1647193217667606e-06
14,0.1801,1.12975,0.0811124,2.02746e-17,0.302715,9.8783e-18,2.71531e-18,5.321e-06,-1.241e-06,-1.74857e-06,3.78857e-06,1.53406e-22,4.11051e-23,0.0,5.321014156622894e-06,3.788577176644381e-06,0.0,-1.2409992299344808e-06,0.0,-1.7485684712381655e-06
15,0.2703,1.69559,0.121738,-7.48099e-18,0.454332,-5.51699e-18,2.96936e-18,7.98605e-06,-1.86256e-06,-2.62435e-06,5.6861e-06,6.26956e-28,1.67992e-28,0.0,7.986081888677887e-06,5.686116165914967e-06,0.0,-1.862558265397496e-06,0.0,-2.6243465564013135e-06
16,0.4056,2.54435,0.182676,4.92119e-16,0.681756,-3.36327e-19,-2.16935e-20,1.19836e-05,-2.79488e-06,-3.93804e-06,8.53236e-06,2.19228e-22,-8.18169e-22,0.0,1.1983671803550422e-05,8.532396400751097e-06,0.0,-2.7948760943363737e-06,0.0,-3.938032245964784e-06
17,0.6086,3.81748,0.274083,3.81097e-16,1.02289,-3.36325e-19,-2.16927e-20,1.79799e-05,-4.19337e-06,-5.90853e-06,1.28018e-05,9.49301e-23,4.63893e-22,0.0,1.79800616393333e-05,1.2801881943413917e-05,0.0,-4.1933612078270954e-06,0.0,-5.908512544672284e-06
18,0.913,5.72716,0.411192,4.92119e-16,1.53459,3.23501e-17,8.73662e-18,2.69743e-05,-6.2911e-06,-8.86425e-06,1.92058e-05,4.09074e-22,1.09611e-22,0.0,2.697466380974234e-05,1.920598443261312e-05,0.0,-6.291080211107136e-06,0.0,-8.864210712666853e-06
19,1.37,8.59165,0.616853,-1.28424e-15,2.30213,-3.36733e-19,-2.18022e-20,4.04657e-05,-9.43765e-06,-1.32978e-05,2.88117e-05,4.38461e-22,-1.63636e-21,0.0,4.0466518747450664e-05,2.8812115061116472e-05,0.0,-9.4376054655676e-06,0.0,-1.3297711584647764e-05
20,2.055,12.8883,0.925338,-5.059e-15,3.45341,6.94144e-17,1.1511e-18,6.07025e-05,-1.41574e-05,-1.99479e-05,4.32204e-05,-7.0378e-26,-1.88577e-26,0.0,6.070434243410361e-05,4.322133401490902e-05,0.0,-1.4157299784489652e-05,0.0,-1.994770104196686e-05
21,3.082,19.3331,1.38805,-2.81516e-14,5.18029,7.817e-17,-3.15365e-17,9.10568e-05,-2.12368e-05,-2.99229e-05,6.48327e-05,8.76832e-22,-3.2728e-21,0.0,9.106094579625079e-05,6.483480168495426e-05,0.0,-2.123657450070482e-05,0.0,-2.992245231447921e-05
22,4.623,116.413,8.35811,-1.03265e-09,31.1929,9.83292e-16,7.71529e-16,0.000548295,-0.000127877,-0.000180179,0.000390388,3.49743e-21,-1.3096e-20,0.0,0.0005484453411794821,0.0003904642113123913,0.0,-0.00012786882408488687,0.0,-0.00018016276873877857
23,6.935,262.609,18.8545,-9.04826e-07,70.3658,1.26247e-15,-2.74743e-16,0.00123686,-0.000288468,-0.000406453,0.000880648,1.40118e-20,-5.23908e-20,0.0,0.0012376252267900512,0.0008810358843047705,0.0,-0.0002884263971069112,0.0,-0.00040637040916957634
24,10.03,446.6,32.1065,0.00199855,119.748,-0.0123442,-0.00330582,0.00215604,-0.000511526,-0.000722798,0.00153884,-1.59204e-07,-4.26935e-08,5.80432e-05,0.0021583659255366427,0.0015400246218428837,-1.59203987326606e-07,-0.0005113951928802374,-4.269349906937947e-08,-0.0007225368444503388
25,13.12,468.19,33.8165,6.22793e-05,125.828,-0.128117,-0.0342825,0.00307233,-0.00086142,-0.00124433,0.00223778,-2.31552e-06,-6.28543e-07,0.000956408,0.0030770544429246094,0.002240285698382971,-2.3155173192179745e-06,-0.0008610490843040663,-6.28542802472154e-07,-0.0012435561424367636
26,16.21,485.964,35.2234,6.7113e-05,130.835,-0.222721,-0.0595684,0.00398755,-0.00121386,-0.00177018,0.00293736,-4.70794e-06,-1.2834e-06,0.00187367,0.003995510855420381,0.002941678268953307,-4.707928917713211e-06,-0.0012131235699545106,-1.2833991764882313e-06,-0.0017686141554621448
27,19.3,501.115,36.4219,2.67488e-05,135.101,-0.301728,-0.0806676,0.00490171,-0.0015679,-0.00229882,0.00363724,-7.30556e-06,-1.99781e-06,0.00280361,0.004913743033241769,0.0036438627845267746,-7.305533314516666e-06,-0.001566671486940674,-1.9978080043614455e-06,-0.0022961797368544756
28,22.39,514.348,37.4679,1.01062e-05,138.825,-0.369183,-0.0986687,0.00581485,-0.001923,-0.00282937,0.00433724,-1.00857e-05,-2.76483e-06,0.00374256,0.0058317890570374065,0.004346659438607237,-1.0085649139512931e-05,-0.0019211522201166842,-2.76482617789231e-06,-0.002825371105041774
29,25.48,526.116,38.3974,2.03866e-06,142.136,-0.42781,-0.114304,0.00672696,-0.00227879,-0.00336123,0.00503722,-1.30276e-05,-3.57828e-06,0.00468816,0.006749636815580384,0.0050499281215721226,-1.3027515141206258e-05,-0.0022761955291934477,-3.578273597981685e-06,-0.0033555873902503253
30,28.57,536.726,39.2349,-2.82276e-06,145.121,-0.479502,-0.128082,0.00763806,-0.00263505,-0.00389403,0.00573709,-1.61132e-05,-4.43277e-06,0.00563879,0.007667304389666674,0.005753578617981203,-1.611307018312136e-05,-0.0026315813031476676,-4.432760175254735e-06,-0.003886458096774126
31,31.66,546.397,39.998,-6.45392e-06,147.84,-0.525621,-0.140368,0.00854816,-0.00299161,-0.00442749,0.00643676,-1.93267e-05,-5.32372e-06,0.00659331,0.008584799846370617,0.006457520459109745,-1.932651324054735e-05,-0.0029871395938190215,-5.323705829063385e-06,-0.0044177031152558
32,34.75,555.292,40.6994,-9.65216e-06,150.341,-0.567176,-0.151434,0.00945727,-0.00334834,-0.00496139,0.00713617,-2.26547e-05,-6.24719e-06,0.00755089,0.009502131288172455,0.007161693137495373,-2.265444338422906e-05,-0.0033427405609741667,-6.24717048636203e-06,-0.004949102633837965
33,37.84,563.532,41.349,-1.27711e-05,152.657,-0.604932,-0.161484,0.0103654,-0.00370516,-0.00549558,0.00783528,-2.60854e-05,-7.19982e-06,0.00851088,0.010419306852949228,0.007866056133703614,-2.6085059778857556e-05,-0.00369830436437657,-7.199794081369504e-06,-0.005480506924636197
34,40.93,571.213,41.9542,-1.59726e-05,154.815,-0.639482,-0.170677,0.0112726,-0.004062,-0.00602994,0.00853406,-2.96088e-05,-8.17871e-06,0.0094728,0.011336375167417145,0.008570578900950698,-2.960836166376879e-05,-0.004053761237060027,-8.178676554448927e-06,-0.006011796398392444
35,44.02,578.41,42.5212,-1.93312e-05,156.837,-0.671294,-0.179139,0.0121787,-0.0044188,-0.00656438,0.00923245,-3.32162e-05,-9.18135e-06,0.0104362,0.012253162344662005,0.009275200529258898,-3.321564834812829e-05,-0.004409051467504366,-9.181307851546805e-06,-0.006542881524716715
36,47.11,585.184,43.0548,-2.288e-05,158.74,-0.700742,-0.18697,0.013084,-0.00477552,-0.00709882,0.00993045,-3.69e-05,-1.02056e-05,0.0114009,0.013169970062930636,0.009979920537899423,-3.689931920336509e-05,-0.004764135334141106,-1.0205547923081149e-05,-0.007073682893738664
37,50.2,591.585,43.5589,-2.66314e-05,160.538,-0.728132,-0.194251,0.0139882,-0.00513212,-0.0076332,0.010628,-4.06536e-05,-1.12495e-05,0.0123665,0.014086492647278348,0.01068467780460991,-4.0652773653615526e-05,-0.005118973172134056,-1.1249436724591888e-05,-0.007604141113318863
38,53.29,597.655,44.0368,-3.05875e-05,162.243,-0.753715,-0.20105,0.0148916,-0.00548857,-0.00816746,0.0113251,-4.4471e-05,-1.23114e-05,0.0133329,0.015003032323372523,0.01138947172088578,-4.4470011179686963e-05,-0.005473535318554323,-1.2311324214975272e-05,-0.008134196918472503
39,56.38,603.428,44.4913,-3.4745e-05,163.864,-0.777699,-0.207422,0.0157939,-0.00584486,-0.00870156,0.0120218,-4.83471e-05,-1.33898e-05,0.0142998,0.015919282863705808,0.012094352282465248,-4.834593129776632e-05,-0.00582781203628191,-1.3389710357025741e-05,-0.008663810997868393
40,59.47,608.934,44.9247,-3.90983e-05,165.411,-0.80026,-0.213416,0.0166954,-0.00620096,-0.00923547,0.012718,-5.22773e-05,-1.44834e-05,0.0152671,0.016835547041231358,0.01279921770570791,-5.227593356571525e-05,-0.0061817737257966465,-1.4483295116107797e-05,-0.009192954032589906
41,62.56,614.198,45.3391,-4.36405e-05,166.889,-0.821546,-0.219069,0.0175959,-0.00655685,-0.00976915,0.0134137,-5.62574e-05,-1.5591e-05,0.0162347,0.01775161985122109,0.013504067274959564,-5.6255817582173684e-05,-0.006535400764449584,-1.5590878461035906e-05,-0.009721586863950304
42,65.65,619.241,45.7361,-4.83643e-05,168.305,-0.841685,-0.224416,0.0184955,-0.00691252,-0.0103026,0.0141089,-6.02837e-05,-1.67117e-05,0.0172024,0.018667601155055946,0.014208900274092384,-6.028188297424464e-05,-0.006888683488702085,-1.671156036031629e-05,-0.010249710007268376
43,68.74,624.083,46.1173,-5.32624e-05,169.665,-0.860787,-0.229488,0.0193941,-0.00726795,-0.0108357,0.0148036,-6.43529e-05,-1.78443e-05,0.0181703,0.019583387262528396,0.014913715986504705,-6.435082939648673e-05,-0.007241602321244045,-1.7844140791423158e-05,-0.010777205270508516
44,71.83,628.74,46.4839,-5.83278e-05,170.973,-0.878946,-0.234308,0.0202918,-0.00762314,-0.0113686,0.0154978,-6.84619e-05,-1.89882e-05,0.0191381,0.02049907821566488,0.015618513695122793,-6.845955653755897e-05,-0.0075941575607613165,-1.898801972521902e-05,-0.011304221661830316
45,74.92,633.227,46.8371,-6.35539e-05,172.233,-0.896245,-0.238899,0.0211886,-0.00797808,-0.0119011,0.0161914,-7.26081e-05,-2.01424e-05,0.0201058,0.02141467228002325,0.016323191050078067,-7.260546409570967e-05,-0.007946339585035544,-2.014219714319143e-05,-0.011830562013239732
46,78.01,637.555,47.178,-6.89344e-05,173.449,-0.912758,-0.24328,0.0220845,-0.00833276,-0.0124333,0.0168845,-7.6789e-05,-2.13064e-05,0.0210734,0.022330167719867067,0.017027848824737513,-7.678605180017062e-05,-0.008298138785553189,-2.1306173020319008e-05,-0.012356325869964158
47,81.1,641.738,47.5073,-7.44635e-05,174.623,-0.928547,-0.247469,0.0229795,-0.00868717,-0.0129652,0.0175771,-8.10022e-05,-2.24794e-05,0.0220407,0.02324556279816914,0.01773248630062385,-8.099891941037995e-05,-0.00864954556746933,-2.2479147340215277e-05,-0.012881513854107518
48,84.19,645.784,47.826,-8.01355e-05,175.76,-0.943669,-0.251481,0.0238735,-0.0090413,-0.0134967,0.0182692,-8.52458e-05,-2.36609e-05,0.0230078,0.02416075336053769,0.018437102758791735,-8.524216668004403e-05,-0.009000550349567371,-2.36606200830769e-05,-0.013406027927531539
49,87.28,649.704,48.1347,-8.59454e-05,176.861,-0.958176,-0.255329,0.0247667,-0.00939515,-0.0140279,0.0189606,-8.95177e-05,-2.48504e-05,0.0239746,0.02507594240802269,0.01914149365151041,-8.951369341025917e-05,-0.009351153470710805,-2.485009123132098e-05,-0.013929967474832439
50,90.37,653.504,48.434,-9.18885e-05,177.929,-0.972111,-0.259025,0.0256589,-0.00974872,-0.0145587,0.0196516,-9.38163e-05,-2.60473e-05,0.0249411,0.02599092327610908,0.019845963790025456,-9.381189938850731e-05,-0.009701355269304934,-2.604696077201929e-05,-0.014453234560726558
51,93.46,657.194,48.7247,-9.79601e-05,178.965,-0.985517,-0.26258,0.0265503,-0.010102,-0.0150891,0.020342,-9.814e-05,-2.72512e-05,0.0259071,0.026905899329358274,0.020550308555262076,-9.813518442769453e-05,-0.0100511461838102,-2.7250828689373563e-05,-0.014975829960563902
52,96.55,660.779,49.0072,-0.000104156,179.972,-0.998428,-0.266003,0.0274407,-0.010455,-0.0156191,0.0210318,-0.000102487,-2.84617e-05,0.0268728,0.02782066353470869,0.021254527015126534,-0.00010248174838678459,-0.01040053645819583,-2.846129496969496e-05,-0.015497754448478007
53,99.64,664.265,49.2819,-0.000110473,180.952,-1.01088,-0.269304,0.0283302,-0.0108077,-0.0161487,0.021721,-0.000106856,-2.96784e-05,0.027838,0.02873531674663199,0.021958618237110317,-0.00010685029110091282,-0.010749506644477047,-2.9677959600626913e-05,-0.016019008797387158
54,102.7,667.658,49.5494,-0.000116906,181.905,-1.0229,-0.272491,0.0292189,-0.0111601,-0.0166779,0.0224097,-0.000111247,-3.09009e-05,0.0288027,0.029649960184238378,0.02266268355455381,-0.00011124081228186533,-0.011098057100138337,-3.0900422572144315e-05,-0.016539593778996164
55,105.8,670.964,49.81,-0.000123454,182.834,-1.03451,-0.27557,0.0301066,-0.0115122,-0.0172067,0.0230978,-0.000115657,-3.21289e-05,0.0297669,0.03056438626186031,0.02336661990863509,-0.00011565031198701448,-0.0114461881821597,-3.212838387245398e-05,-0.017059510163798364
56,108.9,674.187,50.0641,-0.000130111,183.74,-1.04575,-0.278548,0.0309935,-0.011864,-0.0177351,0.0237854,-0.000120085,-3.33621e-05,0.0307306,0.031478799252537604,0.02407052877261795,-0.00012007779008493813,-0.011793900247018763,-3.3361543491317036e-05,-0.017578758721077614
57,112.0,677.331,50.312,-0.000136876,184.624,-1.05662,-0.281431,0.0318795,-0.0122154,-0.018263,0.0244724,-0.000124531,-3.46001e-05,0.0316937,0.032393094441634185,0.02477430694600735,-0.00012452324633682732,-0.012141094864804858,-3.459950142348234e-05,-0.018097242028638938
58,115.1,680.4,50.5541,-0.000143745,185.486,-1.06717,-0.284225,0.0327646,-0.0125666,-0.0187906,0.0251587,-0.000128994,-3.58428e-05,0.0326563,0.033307270078271944,0.02547785094637356,-0.00012898568063168803,-0.012487969997449722,-3.584215765450871e-05,-0.018615157285685746
59,118.2,683.398,50.7907,-0.000150715,186.329,-1.07739,-0.286935,0.0336488,-0.0129175,-0.0193177,0.0258446,-0.000133472,-3.70899e-05,0.0336183,0.03422132441034398,0.02618146748204353,-0.0001334630930088787,-0.01283442717931016,-3.7089212178154085e-05,-0.019132308928991315
60,121.3,686.329,51.0219,-0.000157785,187.153,-1.08732,-0.289565,0.0345321,-0.013268,-0.0198444,0.0265298,-0.000137965,-3.8341e-05,0.0345797,0.03513525568452058,0.02688484797419899,-0.0001379554832670049,-0.013180368082898908,-3.834026499327514e-05,-0.0196487959130911
61,124.4,689.195,51.2481,-0.000164952,187.959,-1.09696,-0.292119,0.0354146,-0.0136183,-0.0203706,0.0272145,-0.000142472,-3.95961e-05,0.0355405,0.03604916575116612,0.02758819679359692,-0.00014246185134647593,-0.013525990460665716,-3.959531608477285e-05,-0.020164521017506987
62,127.4,691.999,51.4695,-0.000172214,188.748,-1.10633,-0.294603,0.0362961,-0.0139682,-0.0208964,0.0278985,-0.000146993,-4.08549e-05,0.0365007,0.03696284573606512,0.028291307556671974,-0.0001469821970582208,-0.013871097336634497,-4.0854065449957844e-05,-0.020679583090670417
63,130.5,694.745,51.6863,-0.000179568,189.52,-1.11545,-0.297018,0.0371768,-0.0143178,-0.0214218,0.028582,-0.000151526,-4.21172e-05,0.0374602,0.03787650118342589,0.02899438491470252,-0.0001515145205154278,-0.014215787745611608,-4.2116313083151447e-05,-0.02119398289305341
64,133.6,697.434,51.8988,-0.000187013,190.276,-1.12432,-0.29937,0.0380567,-0.0146671,-0.0219468,0.029265,-0.000156071,-4.33828e-05,0.0384191,0.03879013060913694,0.02969742814153098,-0.00015605882155500517,-0.014560062039946087,-4.3381858979896215e-05,-0.02170772118393338
65,136.7,700.07,52.107,-0.000194546,191.018,-1.13296,-0.30166,0.0389356,-0.0150161,-0.0224713,0.0299473,-0.000160627,-4.46516e-05,0.0393773,0.03970352458711557,0.030400230430487785,-0.0001606141001740946,-0.014903920571490148,-4.465060313219027e-05,-0.022220700943470395
66,139.8,702.654,52.3112,-0.000202166,191.745,-1.14139,-0.303892,0.0398137,-0.0153648,-0.0229953,0.030629,-0.000165194,-4.59233e-05,0.0403348,0.040616889206103624,0.031102893743151006,-0.00016518035622237193,-0.015247363691598959,-4.5922245541341056e-05,-0.022732923082255274
67,142.9,705.188,52.5115,-0.000209871,192.458,-1.1496,-0.306069,0.0406909,-0.0157131,-0.0235189,0.0313102,-0.000169771,-4.71978e-05,0.0412917,0.04153011882526658,0.0318055203218115,-0.00016975658971918328,-0.01559029331016526,-4.7196686201345095e-05,-0.023244486184821667
68,146.0,707.675,52.7081,-0.00021766,193.158,-1.15762,-0.308193,0.0415673,-0.0160612,-0.0240421,0.0319908,-0.000174358,-4.8475e-05,0.0422479,0.04244331592592432,0.03250800618776584,-0.00017434280052719409,-0.01593290669374492,-4.847382510619891e-05,-0.023755391005294335
69,149.1,710.116,52.9011,-0.00022553,193.845,-1.16545,-0.310266,0.0424428,-0.0164089,-0.0245648,0.0326708,-0.000178954,-4.97548e-05,0.0432034,0.043356374682166354,0.033210350401942534,-0.00017893798868795496,-0.01627500734444276,-4.975356225045413e-05,-0.024265540723171997
70,152.2,712.513,53.0907,-0.000233481,194.52,-1.17309,-0.312291,0.0433174,-0.0167563,-0.0250871,0.0333502,-0.000183558,-5.1037e-05,0.0441582,0.04426929332859442,0.03391255202488663,-0.00018354115426100215,-0.01661669405247379,-5.103569763442728e-05,-0.024775033765562005
71,155.3,714.867,53.277,-0.000241512,195.182,-1.18056,-0.31427,0.0441912,-0.0171034,-0.0256089,0.034029,-0.000188171,-5.23214e-05,0.0451123,0.0451821746168557,0.03461461011676015,-0.0001881532969477684,-0.016957967166592813,-5.2320031259434074e-05,-0.02528377341122645
72,158.3,717.181,53.4602,-0.00024962,195.834,-1.18787,-0.316205,0.0450642,-0.0174501,-0.0261302,0.0347072,-0.000192791,-5.3608e-05,0.0460656,0.04609501705304431,0.03531652373734606,-0.00019277241700932368,-0.017298728764939875,-5.3606563116814776e-05,-0.025791760561792443
73,161.4,719.456,53.6402,-0.000257804,196.474,-1.19501,-0.318097,0.0459362,-0.0177966,-0.0266511,0.0353848,-0.000197419,-5.48967e-05,0.0470183,0.04700760974049967,0.03601829194604855,-0.00019739951415143064,-0.017639175769572968,-5.489519320367453e-05,-0.026299093487383685
74,164.5,721.693,53.8173,-0.000266064,197.104,-1.202,-0.319949,0.0468075,-0.0181427,-0.0271716,0.0360619,-0.000202054,-5.61873e-05,0.0479702,0.047920265011397456,0.03672001747389286,-0.00020203358846526687,-0.017979112021477506,-5.6185721523216436e-05,-0.026805772934458294
75,167.6,723.893,53.9916,-0.000274398,197.724,-1.20885,-0.321763,0.0476778,-0.0184885,-0.0276916,0.0367383,-0.000206696,-5.74797e-05,0.0489214,0.04883266699216926,0.037421492105688126,-0.0002066746398534658,-0.01831863613743745,-5.747804807365586e-05,-0.027311702379476555
76,170.7,726.058,54.1631,-0.000282805,198.334,-1.21555,-0.323538,0.0485474,-0.018834,-0.0282111,0.0374142,-0.000211344,-5.87739e-05,0.0498718,0.04974512856017488,0.03812292231383796,-0.00021132166842996458,-0.018657748463624335,-5.877217284810943e-05,-0.02781688271813587
77,173.8,728.188,54.3319,-0.000291284,198.934,-1.22212,-0.325278,0.049416,-0.0191791,-0.0287302,0.0380895,-0.000215998,-6.00698e-05,0.0508215,0.050657333292004836,0.03882420348421278,-0.0002159746741113855,-0.018996351245359144,-6.006799584568068e-05,-0.02832141201240912
78,176.9,730.285,54.4981,-0.000299834,199.525,-1.22856,-0.326984,0.0502839,-0.019524,-0.0292489,0.0387642,-0.000220657,-6.13672e-05,0.0517705,0.05156959461010491,0.039525334674313184,-0.0002206326570346473,-0.01933464106238214,-6.136531707190418e-05,-0.028825291003684472
79,180.0,732.351,54.6619,-0.000308454,200.107,-1.23487,-0.328656,0.0511509,-0.0198685,-0.029767,0.0394383,-0.000225322,-6.26661e-05,0.0527187,0.05248170078952552,0.040226314941271823,-0.00022529661690462444,-0.019672422092413044,-6.266413652100677e-05,-0.02932832629787019
80,183.1,734.385,54.8232,-0.000317143,200.68,-1.24106,-0.330297,0.052017,-0.0202127,-0.0302848,0.0401118,-0.000229992,-6.39664e-05,0.0536662,0.05339365005320129,0.04092714334185743,-0.00022996555386745055,-0.02000979277990278,-6.396435419342428e-05,-0.029830809986259088
81,186.2,736.39,54.9822,-0.000325901,201.245,-1.24714,-0.331906,0.0528823,-0.0205566,-0.030802,0.0407848,-0.000234667,-6.5268e-05,0.0546129,0.05430554605349869,0.041627923095262975,-0.00023463946785318157,-0.020346753468454493,-6.526587009036966e-05,-0.030332451755590628
82,189.2,738.365,55.1389,-0.000334726,201.802,-1.25311,-0.333487,0.0537468,-0.0209001,-0.0313188,0.0414571,-0.000239346,-6.65709e-05,0.0555588,0.05521738728464465,0.04232844500201338,-0.0002393173590311548,-0.020683206569509838,-6.65686842067359e-05,-0.03083344647633679
83,192.3,740.312,55.2934,-0.000343617,202.351,-1.25896,-0.335038,0.0546104,-0.0212434,-0.0318352,0.0421289,-0.00024403,-6.7875e-05,0.056504,0.05612906662678241,0.04302891651340168,-0.0002440002271013597,-0.02101934832266117,-6.787269654429107e-05,-0.031333794883498856
84,195.4,742.231,55.4458,-0.000352575,202.892,-1.26472,-0.336562,0.0554732,-0.0215863,-0.0323511,0.0428001,-0.000248718,-6.91802e-05,0.0574484,0.057040688002376605,0.04372923252192673,-0.00024868707224234843,-0.02135498324022589,-6.917780710513632e-05,-0.031833400894266894
85,198.5,744.124,55.5961,-0.000361598,203.426,-1.27037,-0.33806,0.0563352,-0.0219289,-0.0328665,0.0434707,-0.000253409,-7.04865e-05,0.0583921,0.057952249902169184,0.044429392082517616,-0.00025337689465132485,-0.021690209595414345,-7.048401588505282e-05,-0.032332265391022186
86,201.6,745.991,55.7444,-0.000370685,203.953,-1.27593,-0.339532,0.0571964,-0.0222712,-0.0333815,0.0441407,-0.000258105,-7.17937e-05,0.059335,0.05886375081574258,0.04512939424975304,-0.00025807169377001227,-0.022025027729276947,-7.179112289401601e-05,-0.032830485971534484
87,204.7,747.833,55.8908,-0.000379836,204.472,-1.28139,-0.340979,0.0580567,-0.0226132,-0.033896,0.0448101,-0.000262803,-7.31019e-05,0.0602771,0.059775083254010264,0.04582923807785999,-0.00026276847031647677,-0.022359437982380825,-7.309922812115399e-05,-0.033327966698611156
88,207.8,749.65,56.0352,-0.00038905,204.985,-1.28676,-0.342402,0.0589162,-0.0229548,-0.0344101,0.0454789,-0.000267505,-7.4411e-05,0.0612184,0.06068635149949597,0.04652892262071728,-0.0002674692237276677,-0.022693342964148155,-7.440823157023324e-05,-0.033824805067685704
89,210.9,751.444,56.1778,-0.000398327,205.491,-1.29205,-0.343802,0.0597748,-0.0232962,-0.0349237,0.0461472,-0.00027221,-7.57209e-05,0.062159,0.06159744787859811,0.047228551654707074,-0.00027217295421944065,-0.023026938508860617,-7.571803324502024e-05,-0.034320905238373944
90,214.0,753.214,56.3186,-0.000407666,205.991,-1.29725,-0.34518,0.0606327,-0.0236372,-0.0354368,0.0468148,-0.000276917,-7.70316e-05,0.0630988,0.06250858310470586,0.047927914857254006,-0.0002768786620264141,-0.02336002952758265,-7.70286331425174e-05,-0.034816268085689606
91,217.1,754.962,56.4576,-0.000417066,206.484,-1.30237,-0.346536,0.0614897,-0.0239779,-0.0359495,0.0474819,-0.000281628,-7.83431e-05,0.0640378,0.06341954325109489,0.04862722079681747,-0.00028158834655733767,-0.023692714089489364,-7.834003125950506e-05,-0.03531099095199841
92,220.1,756.688,56.595,-0.000426527,206.972,-1.30741,-0.347871,0.0623459,-0.0243183,-0.0364617,0.0481484,-0.000286341,-7.96552e-05,0.0649761,0.06433043296026475,0.04932636380300415,-0.00028630000832852165,-0.02402499253261381,-7.965202760873424e-05,-0.03580497814151373
93,223.2,758.393,56.7306,-0.000436048,207.453,-1.31237,-0.349186,0.0632013,-0.0246583,-0.0369735,0.0488143,-0.000291056,-8.0968e-05,0.0659135,0.06524125071383424,0.05002534292793137,-0.00029101364731154433,-0.024356767630190013,-8.096472217988815e-05,-0.03629832689498602
94,226.3,760.077,56.8647,-0.000445629,207.928,-1.31726,-0.350481,0.0640559,-0.0249981,-0.0374848,0.0494797,-0.000295773,-8.22814e-05,0.0668502,0.0661519949922953,0.050724262295801736,-0.0002957292634784281,-0.024688234881074078,-8.22780149783986e-05,-0.036790941612760086
95,229.4,761.741,56.9971,-0.00045527,208.398,-1.32207,-0.351757,0.0649096,-0.0253375,-0.0379957,0.0501444,-0.000300493,-8.35953e-05,0.0677861,0.06706255756875423,0.05142291088308437,-0.0003004478565004076,-0.02501919952627807,-8.359180601025251e-05,-0.037282919434254325
96,232.5,763.385,57.128,-0.00046497,208.863,-1.32682,-0.353015,0.0657626,-0.0256766,-0.0385061,0.0508086,-0.000305214,-8.49098e-05,0.0687212,0.06797315024292283,0.05212149795557708,-0.00030516742694552956,-0.025349759466113286,-8.490619526491106e-05,-0.03777416485567908
97,235.6,765.009,57.2575,-0.000474728,209.321,-1.3315,-0.354255,0.0666147,-0.0260154,-0.039016,0.0514722,-0.000309937,-8.62247e-05,0.0696555,0.06888355798837953,0.05281991749159265,-0.00030988897448980257,-0.02567991503609457,-8.622098275734569e-05,-0.038264678741876224
98,238.7,766.615,57.3854,-0.000484544,209.775,-1.33611,-0.355477,0.067466,-0.0263539,-0.0395255,0.0521352,-0.000314662,-8.75401e-05,0.0705891,0.06979388598743075,0.05351816854153535,-0.000314612499105138,-0.026009666571258916,-8.753626847723961e-05,-0.038754558080698276
99,241.8,768.202,57.5119,-0.000494418,210.224,-1.34066,-0.356683,0.0683165,-0.0266921,-0.0400346,0.0527976,-0.000319388,-8.88559e-05,0.0715218,0.07070413271501486,0.05421625015548259,-0.00031933700108244256,-0.026339014406166372,-8.885195243146793e-05,-0.039243803587168835
100,244.9,769.772,57.637,-0.00050435,210.667,-1.34515,-0.357873,0.0691662,-0.02703,-0.0405432,0.0534595,-0.000324115,-9.01721e-05,0.0724538,0.07161429664496799,0.05491426687460965,-0.00032406248040772745,-0.02666795887490081,-9.016803461836531e-05,-0.03973231994842319
101,248.0,771.324,57.7608,-0.000514338,211.106,-1.34958,-0.359046,0.0700151,-0.0273675,-0.0410513,0.0541207,-0.000328844,-9.14886e-05,0.073385,0.07252437625002517,0.055612006835277894,-0.00032878993673823853,-0.02699640301071493,-9.148441504558402e-05,-0.04022010802360265
102,251.0,772.858,57.8832,-0.000524383,211.539,-1.35395,-0.360204,0.0708632,-0.0277047,-0.041559,0.0547814,-0.000333574,-9.28055e-05,0.0743154,0.07343437000182895,0.05630968013919069,-0.0003335183703790934,-0.027324444512714097,-9.280119370280726e-05,-0.04070726459959806
103,254.1,774.376,58.0043,-0.000534485,211.969,-1.35826,-0.361347,0.0717105,-0.0280417,-0.0420662,0.0554416,-0.000338305,-9.41226e-05,0.075245,0.07434427637092833,0.057007286044389316,-0.0003382477813163032,-0.027652180948222194,-9.411817060700489e-05,-0.041193694505941014
104,257.2,775.878,58.1242,-0.000544642,212.393,-1.36252,-0.362476,0.072557,-0.0283783,-0.042573,0.0561011,-0.000343037,-9.544e-05,0.0761738,0.07525409382678605,0.057704612267583055,-0.0003429781695356571,-0.027979418147004886,-9.543544574808216e-05,-0.041679494429466946
105,260.3,777.363,58.2428,-0.000554856,212.813,-1.36673,-0.363591,0.0734027,-0.0287146,-0.0430793,0.0567601,-0.00034777,-9.67576e-05,0.0771018,0.0761638208377815,0.05840186932803526,-0.00034770953502316626,-0.028306253708202056,-9.675291913435746e-05,-0.042164569294372956
106,263.4,778.833,58.3601,-0.000565124,213.229,-1.37088,-0.364692,0.0742476,-0.0290505,-0.0435851,0.0574185,-0.000352504,-9.80754e-05,0.0780291,0.07707345587121495,0.05909895057276504,-0.0003524418777648419,-0.02863259082619407,-9.807059076516467e-05,-0.042648919952616327
107,266.5,780.288,58.4763,-0.000575448,213.64,-1.37499,-0.365779,0.0750917,-0.0293862,-0.0440905,0.0580763,-0.000357238,-9.93934e-05,0.0789555,0.07798299739331083,0.059795855049204816,-0.0003571741981035492,-0.028958624137700673,-9.93884606396156e-05,-0.04313264294137675
108,269.6,781.728,58.5913,-0.000585827,214.048,-1.37904,-0.366854,0.0759351,-0.0297216,-0.0445955,0.0587335,-0.000361973,-0.000100712,0.0798812,0.07889255175847265,0.06049258180447792,-0.0003619074956774382,-0.029284256803514208,-0.00010070692871677611,-0.04361573896467863
109,272.7,783.153,58.7052,-0.00059626,214.451,-1.38305,-0.367916,0.0767776,-0.0300566,-0.0451,0.0593902,-0.000366709,-0.00010203,0.0808061,0.07980190174322144,0.061189236004319136,-0.00036664177047285307,-0.02960939211427971,-0.00010202479511656204,-0.04409811313525536
110,275.8,784.563,58.8179,-0.000606748,214.85,-1.38701,-0.368966,0.0776193,-0.0303914,-0.0456041,0.0600463,-0.000371444,-0.000103348,0.0817302,0.08071115360888603,0.06188571071560656,-0.0003713750232180457,-0.029934224509822638,-0.00010334265977940404,-0.04457986184146068
111,278.9,785.96,58.9296,-0.000617291,215.245,-1.39092,-0.370004,0.0784603,-0.0307258,-0.0461077,0.0607018,-0.000376181,-0.000104667,0.0826535,0.08162041397946496,0.06258200498449518,-0.00037611025279904453,-0.03025856027318441,-0.00010466152260057981,-0.045060890289907785
112,281.9,787.343,59.0402,-0.000627887,215.636,-1.39479,-0.37103,0.0793004,-0.0310599,-0.0466108,0.0613568,-0.000380917,-0.000105985,0.083576,0.08252946508269998,0.06327822418465678,-0.00038084446033048724,-0.030582496771592083,-0.00010597938378831273,-0.045541199324134474
113,285.0,788.712,59.1497,-0.000638537,216.024,-1.39862,-0.372045,0.0801398,-0.0313937,-0.0471135,0.0620111,-0.000385654,-0.000107304,0.0844977,0.08343852179341571,0.06397415477560586,-0.0003855796450548121,-0.030906034332746524,-0.00010729824313171488,-0.04602088518409164
114,288.1,790.068,59.2582,-0.000649241,216.408,-1.40241,-0.373049,0.0809784,-0.0317272,-0.0476158,0.062665,-0.00039039,-0.000108623,0.0854186,0.08434747440835477,0.06467011499480857,-0.0003903138077391288,-0.031229173283881417,-0.00010861710073550856,-0.04649994856662254
115,291.2,791.411,59.3657,-0.000659998,216.788,-1.40616,-0.374043,0.0818162,-0.0320604,-0.0481176,0.0633182,-0.000395127,-0.000109941,0.0863388,0.08525632138525197,0.06536578469491205,-0.0003950489476074459,-0.031551913951762045,-0.00010993495670974518,-0.046978294865308245
116,294.3,792.741,59.4722,-0.000670808,217.165,-1.40986,-0.375026,0.0826532,-0.0323933,-0.048619,0.0639709,-0.000399864,-0.00011126,0.0872581,0.08616506118080314,0.06606137592408556,-0.0003997840650453721,-0.031874256662686395,-0.00011125381083565422,-0.04745602017251982
117,297.4,794.059,59.5777,-0.000681672,217.538,-1.41353,-0.375999,0.0834894,-0.0327259,-0.0491199,0.064623,-0.000404601,-0.000112579,0.0881767,0.08707369225066741,0.06675678125959283,-0.0004045191600532405,-0.03219620174248572,-0.00011257266322217685,-0.04793302997493676
118,300.5,795.365,59.6822,-0.000692589,217.908,-1.41717,-0.376962,0.0843249,-0.0330582,-0.0496204,0.0652745,-0.000409337,-0.000113897,0.0890945,0.0879823218477005,0.06745199974541483,-0.00040925323304008554,-0.03251774951652531,-0.00011389051398291716,-0.04840942026681905
119,303.6,796.658,59.7858,-0.000703558,218.274,-1.42076,-0.377915,0.0851596,-0.0333902,-0.0501204,0.0659255,-0.000414074,-0.000115216,0.0900115,0.08889083980896917,0.06814713723995358,-0.00041398828319261227,-0.032838900309704044,-0.00011520936289155514,-0.0488850966276857
120,306.7,797.94,59.8885,-0.000714581,218.637,-1.42432,-0.378859,0.0859935,-0.0337218,-0.05062,0.0665759,-0.00041881,-0.000116534,0.0909277,0.08979924458701682,0.06884208611088916,-0.0004187223113339966,-0.033159557762417524,-0.00011652721017718637,-0.04936015495395929
121,309.0,798.901,59.9656,-0.000727098,218.909,-1.42699,-0.379566,0.0866231,-0.0339722,-0.0509971,0.067067,-0.000422387,-0.00011753,0.0916194,0.09048559823286428,0.06936712337172501,-0.0004222978071694028,-0.03340162430115834,-0.00011752309362011992,-0.04971857365543264
