,Time,S11,S22,S33,S12,S13,S23,LE11,LE22,LE33,LE12,LE13,LE23,SDV_EPBAR,E11,E12,E13,E22,E23,E33
0,0.000309,0.0019383,0.000139163,-7.79048e-12,0.000519365,9.3624e-20,3.36396e-20,9.1292e-09,-2.12864e-09,-3.00057e-09,6.49972e-09,9.45271e-25,4.67314e-25,0.0,9.129200062574228e-09,6.499720095476391e-09,0.0,-2.128640042009522e-09,0.0,-3.0005700146773506e-09
1,0.000618,0.00387659,0.000278327,3.25261e-19,0.00103873,3.61973e-20,-7.40724e-21,1.82584e-08,-4.2578e-09,-6.00057e-09,1.29997e-08,9.27189e-26,4.52981e-25,0.0,1.8258400125148455e-08,1.2999699983140545e-08,0.0,-4.257800001461476e-09,0.0,-6.000569929831556e-09
2,0.0010815,0.00678404,0.000487072,3.25261e-19,0.00181778,-8.55315e-21,3.19208e-20,3.19522e-08,-7.45077e-09,-1.05014e-08,2.27493e-08,2.14063e-25,-7.98907e-25,0.0,3.19522004410544e-08,2.2749300221391877e-08,0.0,-7.45077000097183e-09,0.0,-1.0501399971829528e-08
3,0.0017767,0.0111452,0.00080019,7.58942e-19,0.00298635,8.55315e-21,-3.19208e-20,5.24927e-08,-1.22421e-08,-1.72507e-08,3.73747e-08,4.28159e-25,-1.59792e-24,0.0,5.249270129681349e-08,3.737470066766946e-08,0.0,-1.2242099889370195e-08,0.0,-1.725069986857619e-08
4,0.0028196,0.017687,0.00126987,-2.27682e-18,0.00473921,-1.65988e-27,-4.44764e-28,8.33037e-08,-1.94275e-08,-2.73762e-08,5.93119e-08,1.2845e-24,-4.79383e-24,0.0,8.33037034908557e-08,5.931190183439128e-08,0.0,-1.9427499831081718e-08,0.0,-2.7376199640549714e-08
5,0.0043839,0.0274996,0.00197438,-4.01155e-18,0.00736849,1.71063e-20,-6.38416e-20,1.2952e-07,-3.02058e-08,-4.25643e-08,9.22178e-08,-1.48338e-24,-7.24799e-24,0.0,1.295200084960868e-07,9.221780428170234e-08,0.0,-3.0205799528282284e-08,0.0,-4.256429908533477e-08
6,0.0067304,0.0422185,0.00303115,-4.01155e-18,0.0113124,1.74418e-19,1.1516e-19,1.98845e-07,-4.63759e-08,-6.53437e-08,1.41578e-07,3.19598e-24,8.5636e-25,0.0,1.9884501978317815e-07,1.4157800998226833e-07,0.0,-4.637589889888716e-08,0.0,-6.534369789701344e-08
7,0.01025,0.0642969,0.00461631,8.13152e-18,0.0172283,2.08631e-19,-1.25227e-20,3.02832e-07,-7.06269e-08,-9.95172e-08,2.15616e-07,2.29126e-25,-1.36391e-23,0.0,3.0283204588421597e-07,2.156160232580362e-07,0.0,-7.062689755255036e-08,0.0,-9.951719504019962e-08
8,0.01553,0.0974145,0.00699405,2.92735e-18,0.0261021,-1.49373e-19,3.02101e-19,4.58812e-07,-1.07003e-07,-1.50778e-07,3.26673e-07,-3.42531e-24,1.27835e-23,0.0,4.5881210519738147e-07,3.266730532747175e-07,0.0,-1.0700299424293291e-07,0.0,-1.5077798865004155e-07
9,0.023449,0.147091,0.0105607,6.39679e-18,0.0394129,6.16725e-19,5.07377e-19,6.92782e-07,-1.61575e-07,-2.2766e-07,4.93263e-07,1.27839e-23,3.42544e-24,0.0,6.927822400193406e-07,4.932631216814087e-07,0.0,-1.6157498694546746e-07,0.0,-2.2765997409468497e-07
10,0.035328,0.221605,0.0159106,-7.48099e-18,0.059379,8.22001e-19,-2.58722e-19,1.04374e-06,-2.43427e-07,-3.4299e-07,7.43145e-07,1.27839e-23,3.42544e-24,0.0,1.0437405446594994e-06,7.43145276205226e-07,0.0,-2.4342697035883987e-07,0.0,-3.429899412266124e-07
11,0.053146,0.333377,0.0239354,-3.52366e-17,0.0893282,1.43291e-18,1.54718e-18,1.57017e-06,-3.66206e-07,-5.15985e-07,1.11797e-06,-4.82329e-29,-1.2924e-29,0.0,1.570171232812001e-06,1.1179706249642152e-06,0.0,-3.662059329112566e-07,0.0,-5.159848668334632e-07
12,0.079874,0.501035,0.0359727,-2.13588e-17,0.134252,1.15921e-18,2.56864e-18,2.35982e-06,-5.50367e-07,-7.75483e-07,1.6802e-06,-4.1105e-23,1.53406e-22,0.0,2.3598227842924757e-06,1.6802014115580022e-06,0.0,-5.503668485395963e-07,0.0,-7.754826992778519e-07
13,0.12,0.752521,0.0540286,-7.48099e-18,0.201637,2.25401e-18,-1.51722e-18,3.54429e-06,-8.26616e-07,-1.16472e-06,2.52354e-06,-1.0888e-28,-2.91744e-29,0.0,3.544296280910686e-06,2.523543184196342e-06,0.0,-8.266156583669471e-07,0.0,-1.1647193217667606e-06
14,0.1801,1.12975,0.0811124,2.02746e-17,0.302715,9.8783e-18,2.71531e-18,5.321e-06,-1.241e-06,-1.74857e-06,3.78857e-06,1.53406e-22,4.11051e-23,0.0,5.321014156622894e-06,3.788577176644381e-06,0.0,-1.2409992299344808e-06,0.0,-1.7485684712381655e-06
15,0.2703,1.69559,0.121738,-7.48099e-18,0.454332,-5.51699e-18,2.96936e-18,7.98605e-06,-1.86256e-06,-2.62435e-06,5.6861e-06,6.26956e-28,1.67992e-28,0.0,7.986081888677887e-06,5.686116165914967e-06,0.0,-1.862558265397496e-06,0.0,-2.6243465564013135e-06
16,0.4056,2.54435,0.182676,4.92119e-16,0.681756,-3.36327e-19,-2.16935e-20,1.19836e-05,-2.79488e-06,-3.93804e-06,8.53236e-06,2.19228e-22,-8.18169e-22,0.0,1.1983671803550422e-05,8.532396400751097e-06,0.0,-2.7948760943363737e-06,0.0,-3.938032245964784e-06
17,0.6086,3.81748,0.274083,3.81097e-16,1.02289,-3.36325e-19,-2.16927e-20,1.79799e-05,-4.19337e-06,-5.90853e-06,1.28018e-05,9.49301e-23,4.63893e-22,0.0,1.79800616393333e-05,1.2801881943413917e-05,0.0,-4.1933612078270954e-06,0.0,-5.908512544672284e-06
18,0.913,5.72716,0.411192,4.92119e-16,1.53459,3.23501e-17,8.73662e-18,2.69743e-05,-6.2911e-06,-8.86425e-06,1.92058e-05,4.09074e-22,1.09611e-22,0.0,2.697466380974234e-05,1.920598443261312e-05,0.0,-6.291080211107136e-06,0.0,-8.864210712666853e-06
19,1.37,8.59165,0.616853,-1.28424e-15,2.30213,-3.36733e-19,-2.18022e-20,4.04657e-05,-9.43765e-06,-1.32978e-05,2.88117e-05,4.38461e-22,-1.63636e-21,0.0,4.0466518747450664e-05,2.8812115061116472e-05,0.0,-9.4376054655676e-06,0.0,-1.3297711584647764e-05
20,2.055,12.8883,0.925338,-5.059e-15,3.45341,6.94144e-17,1.1511e-18,6.07025e-05,-1.41574e-05,-1.99479e-05,4.32204e-05,-7.0378e-26,-1.88577e-26,0.0,6.070434243410361e-05,4.322133401490902e-05,0.0,-1.4157299784489652e-05,0.0,-1.994770104196686e-05
21,3.082,19.3331,1.38805,-2.81516e-14,5.18029,7.817e-17,-3.15365e-17,9.10568e-05,-2.12368e-05,-2.99229e-05,6.48327e-05,8.76832e-22,-3.2728e-21,0.0,9.106094579625079e-05,6.483480168495426e-05,0.0,-2.123657450070482e-05,0.0,-2.992245231447921e-05
22,4.623,116.413,8.35811,-1.03265e-09,31.1929,9.83292e-16,7.71529e-16,0.000548295,-0.000127877,-0.000180179,0.000390388,3.49743e-21,-1.3096e-20,0.0,0.0005484453411794821,0.0003904642113123913,0.0,-0.00012786882408488687,0.0,-0.00018016276873877857
23,6.935,262.609,18.8545,-9.04826e-07,70.3658,1.26247e-15,-2.74743e-16,0.00123686,-0.000288468,-0.000406453,0.000880648,1.40118e-20,-5.23908e-20,0.0,0.0012376252267900512,0.0008810358843047705,0.0,-0.0002884263971069112,0.0,-0.00040637040916957634
24,10.03,446.41,32.0894,0.00269046,119.692,-0.0114983,-0.00307923,0.00215605,-0.000511133,-0.000723597,0.00153871,-1.48365e-07,-3.97873e-08,5.90155e-05,0.0021583759471202058,0.001539894421648036,-1.4836498896109163e-07,-0.0005110023937814345,-3.9787299233040585e-08,-0.000723335266824443
25,13.12,467.986,33.7862,0.000101929,125.744,-0.117905,-0.0315499,0.00307232,-0.000852516,-0.00125368,0.00223543,-2.13085e-06,-5.78413e-07,0.000957068,0.003077044412154173,0.0022379304364790187,-2.13084772970884e-06,-0.0008521527114786487,-5.78412832741293e-07,-0.0012528944715300971
26,16.21,485.752,35.182,8.42962e-05,130.729,-0.204819,-0.0547802,0.00398753,-0.00119627,-0.00178823,0.00293271,-4.32945e-06,-1.18022e-06,0.00187397,0.003995490775510424,0.0029370146009923825,-4.3294406278926445e-06,-0.001195554754280792,-1.1802193035093111e-06,-0.0017866320693645799
27,19.3,500.896,36.3712,3.41534e-05,134.977,-0.27748,-0.0741846,0.0049017,-0.00154152,-0.00232571,0.00363023,-6.71776e-06,-1.83707e-06,0.00280354,0.0049137329841042465,0.0036368272657081313,-6.717737435879556e-06,-0.0015403324683243014,-1.8370683125823462e-06,-0.0023230076318787596
28,22.39,514.123,37.4093,1.36522e-05,138.686,-0.339581,-0.0907569,0.00581484,-0.00188773,-0.00286517,0.00432783,-9.27492e-06,-2.54257e-06,0.00374209,0.00583177899871945,0.004337208581008056,-9.274876988096814e-06,-0.00188594935835662,-2.542566767682608e-06,-0.0028610693177544277
29,25.48,525.886,38.3319,4.07003e-06,141.984,-0.393608,-0.105165,0.00672696,-0.00223459,-0.00340601,0.00502536,-1.19819e-05,-3.29104e-06,0.00468727,0.006749636815580384,0.0050380083001093645,-1.198182821737781e-05,-0.002232095162424841,-3.291034584518293e-06,-0.003400216127802169
30,28.57,536.493,39.1634,-1.32603e-06,144.956,-0.441291,-0.117875,0.00763808,-0.00258186,-0.00394783,0.00572274,-1.48221e-05,-4.07756e-06,0.00563748,0.007667324543012777,0.00573914615768123,-1.4821990153235376e-05,-0.002578529866066659,-4.077551686743064e-06,-0.003940047563758875
31,31.66,546.161,39.921,-5.0174e-06,147.665,-0.483874,-0.129219,0.00854821,-0.0029294,-0.00449035,0.0064199,-1.7781e-05,-4.89789e-06,0.00659158,0.008584850275611844,0.006440551728361665,-1.7780841918946244e-05,-0.002925113494471332,-4.897878005394318e-06,-0.004480283451517297
32,34.75,555.052,40.6175,-8.02915e-06,150.156,-0.522278,-0.139446,0.00945735,-0.00327709,-0.00503334,0.00711677,-2.08461e-05,-5.74842e-06,0.00754872,0.009502212048346337,0.0071421543901748485,-2.0845882721554077e-05,-0.0032717262013826076,-5.748403477889852e-06,-0.005020693970374301
33,37.84,563.289,41.2626,-1.08174e-05,152.463,-0.557204,-0.148742,0.0103655,-0.00362485,-0.00557664,0.00781332,-2.40069e-05,-6.62606e-06,0.00850828,0.010419407894884936,0.007843923638126471,-2.4006611836657754e-05,-0.00361828816219234,-6.6260380476856895e-06,-0.005561119407476722
34,40.93,570.968,41.8638,-1.35956e-05,154.613,-0.589192,-0.157254,0.0112727,-0.00397261,-0.00612013,0.0085095,-2.7254e-05,-7.52815e-06,0.00946975,0.011336476301059717,0.008545808711711844,-2.725362861311087e-05,-0.003964729623568308,-7.528121663602505e-06,-0.0061014401519293715
35,44.02,578.162,42.427,-1.64658e-05,156.628,-0.618671,-0.165095,0.0121789,-0.00432033,-0.00666371,0.0092053,-3.05794e-05,-8.45238e-06,0.0104327,0.012253364795314692,0.009247799079540764,-3.0578932454949914e-05,-0.004311010799849302,-8.452344278708779e-06,-0.0066415567195100556
36,47.11,584.934,42.9571,-1.94769e-05,158.524,-0.645984,-0.172357,0.0130842,-0.00466795,-0.00720731,0.00990068,-3.39762e-05,-9.39676e-06,0.011397,0.013170172696945093,0.009949853883209459,-3.3975622815485274e-05,-0.00465707205388366,-9.39671585054036e-06,-0.007181399626681517
37,50.2,591.333,43.4579,-2.26507e-05,160.316,-0.67141,-0.179116,0.0139885,-0.00501545,-0.00775085,0.0105956,-3.74382e-05,-1.03595e-05,0.0123621,0.014086796873271856,0.010651932151531485,-3.7437499199377555e-05,-0.005002893631365857,-1.0359446340535428e-05,-0.00772088961825157
38,53.29,597.401,43.9328,-2.59953e-05,162.015,-0.695178,-0.185433,0.0148919,-0.0053628,-0.00829428,0.0112901,-4.096e-05,-1.13391e-05,0.013328,0.015003336824327862,0.011354073708844448,-4.0959161150655454e-05,-0.005348445859005513,-1.1339035712598644e-05,-0.008259977363712534
39,56.38,603.172,44.3845,-2.95151e-05,163.631,-0.71748,-0.191358,0.0157944,-0.00570998,-0.00883756,0.0119841,-4.45368e-05,-1.23342e-05,0.0142945,0.015919790823474278,0.012056197044615136,-4.453580825147796e-05,-0.005693709047867368,-1.2334123934087948e-05,-0.008798623552111362
40,59.47,608.677,44.8152,-3.32003e-05,165.172,-0.738476,-0.196935,0.0166959,-0.00605696,-0.00938065,0.0126776,-4.81643e-05,-1.33436e-05,0.0152613,0.016836055459132027,0.012758301443826614,-4.816314011868439e-05,-0.0060386535968113275,-1.3343510974594963e-05,-0.009336788958293707
41,62.56,613.939,45.2271,-3.70498e-05,166.645,-0.758302,-0.2022,0.0175964,-0.00640374,-0.00992351,0.0133706,-5.18388e-05,-1.43661e-05,0.0162284,0.017752128727158256,0.0134603861909941,-5.183745639258941e-05,-0.006383279754333948,-1.4365996808041182e-05,-0.00987443444272229
42,65.65,618.98,45.6217,-4.1058e-05,168.057,-0.777075,-0.207185,0.0184961,-0.00675029,-0.0104661,0.0140632,-5.55569e-05,-1.54009e-05,0.0171957,0.018668212355800184,0.01416255198641636,-5.555535674395262e-05,-0.006727557970481524,-1.5400781406715858e-05,-0.010411520951277176
43,68.74,623.821,46.0006,-4.5219e-05,169.413,-0.794896,-0.211916,0.0193948,-0.00709662,-0.0110085,0.0147552,-5.93154e-05,-1.64471e-05,0.0181631,0.019584100971149487,0.014864595351379739,-5.9313640876412776e-05,-0.007071498453438241,-1.6446964747229842e-05,-0.010948128201271112
44,71.83,628.476,46.365,-4.9527e-05,170.716,-0.81185,-0.216416,0.0202926,-0.0074427,-0.0115505,0.0154466,-6.31116e-05,-1.75037e-05,0.0191305,0.020499894615253922,0.015566515358390376,-6.310960850486325e-05,-0.0074150716939106465,-1.7503546811181714e-05,-0.011484049068111735
45,74.92,632.961,46.7162,-5.39764e-05,171.972,-0.828015,-0.220705,0.0211894,-0.00778853,-0.0120922,0.0161376,-6.69429e-05,-1.85703e-05,0.0200977,0.021415489412087707,0.01626851433321641,-6.694065937407068e-05,-0.0077582779907293675,-1.8570127573003248e-05,-0.012019383150404517
46,78.01,637.289,47.055,-5.85619e-05,173.184,-0.843457,-0.224803,0.0220854,-0.0081341,-0.0126336,0.016828,-7.08071e-05,-1.9646e-05,0.0210648,0.022331087817432094,0.01697038837455178,-7.080459323649535e-05,-0.008101107723356926,-1.9645807018631167e-05,-0.012554131087038733
47,81.1,641.47,47.3825,-6.32784e-05,174.355,-0.858235,-0.228723,0.0229804,-0.00847941,-0.0131747,0.0175178,-7.47021e-05,-2.07304e-05,0.0220317,0.02324648371959004,0.017672136553573914,-7.469930986758744e-05,-0.008443561200141225,-2.0730185126716094e-05,-0.013088293516029359
48,84.19,645.515,47.6993,-6.81213e-05,175.488,-0.8724,-0.23248,0.0238746,-0.00882445,-0.0137154,0.0182072,-7.86259e-05,-2.18228e-05,0.0229984,0.02416187993798591,0.01837396161581628,-7.862280906489882e-05,-0.008785628816885827,-2.1822561884432545e-05,-0.013621772436701707
49,87.28,649.433,48.0063,-7.3086e-05,176.586,-0.885998,-0.236087,0.0247678,-0.00916921,-0.0142557,0.0188959,-8.25768e-05,-2.29228e-05,0.0239647,0.0250770699921794,0.019075557329934156,-8.2573390629892e-05,-0.009127300982662678,-2.292253727464999e-05,-0.014154568645197152
50,90.37,653.233,48.304,-7.81686e-05,177.65,-0.899072,-0.239554,0.0256601,-0.00951369,-0.0147957,0.0195841,-8.65532e-05,-2.403e-05,0.0249307,0.025992154465955597,0.01977712651075403,-8.654945437980288e-05,-0.009468578025087604,-2.4029711281903232e-05,-0.014686781467733945
51,93.46,656.921,48.5931,-8.3365e-05,178.683,-0.911658,-0.242891,0.0265515,-0.00985788,-0.0153352,0.0202718,-9.05535e-05,-2.51438e-05,0.0258963,0.026907131617176727,0.02047866843819901,-9.054940015551516e-05,-0.009809450369425932,-2.5143483897260843e-05,-0.01521821458215955
52,96.55,660.504,48.874,-8.86717e-05,179.688,-0.92379,-0.246108,0.027442,-0.0102018,-0.0158744,0.0209588,-9.45765e-05,-2.62639e-05,0.0268614,0.027821999702439815,0.021179978155720702,-9.457202778373475e-05,-0.010149938149619953,-2.6263555106820213e-05,-0.01574906579050961
53,99.64,663.989,49.1473,-9.40854e-05,180.664,-0.935498,-0.249211,0.0283317,-0.0105454,-0.0164132,0.0216453,-9.86207e-05,-2.739e-05,0.0278262,0.028736859850764462,0.021881258897797684,-9.861583713854927e-05,-0.010489992206239251,-2.7389624897344866e-05,-0.016279237352816667
54,102.7,667.382,49.4133,-9.96029e-05,181.615,-0.946809,-0.25221,0.0292204,-0.0108887,-0.0169515,0.0223313,-0.000102685,-2.85216e-05,0.0287904,0.029651504660336947,0.0225825099430097,-0.00010267972807576076,-0.010829632689290158,-2.8521193263020272e-05,-0.01680863174006697
55,105.8,670.686,49.6726,-0.000105221,182.541,-0.957747,-0.255109,0.0301082,-0.0112318,-0.0174895,0.0230166,-0.000106768,-2.96586e-05,0.0297542,0.03056603516619738,0.023283525912760172,-0.00010676230049988522,-0.011168958827586839,-2.965816018807299e-05,-0.01733744643228341
56,108.9,673.908,49.9253,-0.000110938,183.445,-0.968337,-0.257916,0.0309952,-0.0115745,-0.018027,0.0237014,-0.00011087,-3.08006e-05,0.0307174,0.03148055276798689,0.02398451046102079,-0.00011086385414860178,-0.011507773166243629,-3.08001256663637e-05,-0.017865485631578526
57,112.0,677.051,50.172,-0.000116749,184.326,-0.978598,-0.260635,0.0318812,-0.0119169,-0.0185641,0.0243857,-0.000114988,-3.19474e-05,0.03168,0.0323948495113866,0.024685462865041696,-0.00011498138913323963,-0.01184617496701712,-3.1946889687217706e-05,-0.018392848443285037
58,115.1,680.119,50.4129,-0.000122654,185.186,-0.98855,-0.263272,0.0327664,-0.0122591,-0.0191008,0.0250693,-0.000119123,-3.30986e-05,0.0326422,0.03330913003303193,0.025386177324370873,-0.00011911590513713488,-0.012184263355720981,-3.309805224738227e-05,-0.01891953565237048
59,118.2,683.116,50.6482,-0.00012865,186.027,-0.998209,-0.265832,0.0336507,-0.0126009,-0.019637,0.0257524,-0.000123273,-3.42541e-05,0.0336037,0.03422328943272723,0.02608685791230969,-0.00012326540219587123,-0.012521841079186524,-3.425351333496973e-05,-0.019445449987119945
60,121.3,686.046,50.8783,-0.000134734,186.848,-1.00759,-0.268318,0.0345341,-0.0129424,-0.0201728,0.0264348,-0.000127437,-3.54136e-05,0.0345646,0.03513732595710217,0.026787298547312544,-0.0001274288802504131,-0.012859007296049718,-3.541297294584744e-05,-0.01997069039054722
61,124.4,688.911,51.1034,-0.000140905,187.652,-1.01671,-0.270734,0.0354167,-0.0132836,-0.0207082,0.0271168,-0.000131615,-3.6577e-05,0.035525,0.03605134145669853,0.02748780633092407,-0.00013160633912578934,-0.013195762349081042,-3.6576331069682055e-05,-0.020495257643727616
62,127.4,691.714,51.3237,-0.000147161,188.438,-1.02559,-0.273086,0.0362983,-0.0136245,-0.0212432,0.0277981,-0.000135806,-3.7744e-05,0.0364847,0.03696512705683497,0.02818807229189013,-0.0001357967787826153,-0.013532106580564807,-3.77432877042283e-05,-0.02101915252651121
63,130.5,694.459,51.5395,-0.000153499,189.209,-1.03423,-0.275374,0.0371791,-0.0139651,-0.0217776,0.0284788,-0.00014001,-3.89144e-05,0.0374437,0.037878888302123936,0.028888198173509405,-0.00014000019905735517,-0.013868040332298048,-3.891364284458465e-05,-0.021542180125979082
64,133.6,697.147,51.7509,-0.000159919,189.963,-1.04264,-0.277604,0.0380591,-0.0143054,-0.0223117,0.029159,-0.000144225,-4.00882e-05,0.0384021,0.038792623708442164,0.029588285998783492,-0.0001442146000746325,-0.01420356394559208,-4.008739647887172e-05,-0.022064634913603
65,136.7,699.782,51.9581,-0.000166418,190.702,-1.05085,-0.279777,0.0389381,-0.0146454,-0.0228453,0.0298385,-0.000148452,-4.1265e-05,0.0393599,0.03970612384917627,0.03028812898384614,-0.00014844098154698226,-0.014538677761273822,-4.126414861160832e-05,-0.022586322025913153
66,139.8,702.365,52.1613,-0.000172995,191.428,-1.05885,-0.281896,0.0398163,-0.0149851,-0.0233784,0.0305175,-0.000152689,-4.24449e-05,0.040317,0.04061959481353283,0.030987932179724842,-0.00015267734362789387,-0.014873382119684364,-4.2443999227925744e-05,-0.0231072423939801
67,142.9,704.898,52.3607,-0.000179648,192.139,-1.06666,-0.283965,0.0406936,-0.0153244,-0.0239111,0.0311959,-0.000156937,-4.36275e-05,0.0412734,0.041532930960383796,0.031687591690588324,-0.00015692468603312193,-0.015207578881444195,-4.362654833445223e-05,-0.02362749458448321
68,146.0,707.384,52.5564,-0.000186377,192.837,-1.07429,-0.285984,0.0415701,-0.0156635,-0.0244434,0.0318737,-0.000161194,-4.48128e-05,0.0422291,0.042446234771295055,0.032387106579051306,-0.00016118100894513265,-0.015541465377790775,-4.481179592141782e-05,-0.024147079369357116
69,149.1,709.824,52.7486,-0.000193179,193.522,-1.08174,-0.287957,0.0424457,-0.0160022,-0.0249751,0.032551,-0.00016546,-4.60007e-05,0.0431841,0.043359400420040384,0.03308657921600644,-0.00016544631224901796,-0.0158748450224373,-4.5999641984040274e-05,-0.024665802452504382
70,152.2,712.22,52.9373,-0.000200054,194.195,-1.08902,-0.289886,0.0433204,-0.0163407,-0.0255065,0.0332276,-0.000169736,-4.7191e-05,0.0441384,0.04427242614117355,0.033785802115936514,-0.00016972159566008838,-0.016207915012121155,-4.718988652230305e-05,-0.02518395735912904
71,155.3,714.574,53.1228,-0.000207001,194.856,-1.09614,-0.291772,0.0441943,-0.0166788,-0.0260373,0.0339036,-0.000174019,-4.83837e-05,0.045092,0.045185414686619296,0.03448487757905139,-0.00017400385957200282,-0.016540478892963617,-4.8382529527657425e-05,-0.025701252412310138
72,158.3,716.887,53.3051,-0.000214018,195.506,-1.10311,-0.293618,0.0450673,-0.0170166,-0.0265677,0.0345791,-0.000178311,-4.95785e-05,0.0460449,0.04609825995262362,0.03518390818486261,-0.00017829510353839506,-0.016872635414798443,-4.9577271006517876e-05,-0.026217883445368906
73,161.4,719.161,53.4844,-0.000221103,196.145,-1.10993,-0.295424,0.0459395,-0.0173541,-0.0270977,0.035254,-0.00018261,-5.07755e-05,0.0469971,0.04701106487131268,0.035882789615507615,-0.00018259332780867776,-0.01720438491446874,-5.077421094612511e-05,-0.026733851223603722
74,164.5,721.397,53.6607,-0.000228258,196.774,-1.11661,-0.297193,0.0468108,-0.0176913,-0.0276272,0.0359283,-0.000186916,-5.19744e-05,0.0479486,0.04792372315397797,0.03658152093133338,-0.00018689853229270081,-0.01753572772833778,-5.1973049354225864e-05,-0.027249059236022055
75,167.6,723.596,53.8342,-0.000235479,197.392,-1.12316,-0.298926,0.0476812,-0.0180281,-0.0281562,0.036602,-0.000191229,-5.31753e-05,0.0488993,0.04883623302929929,0.03728010119232361,-0.00019121071690009206,-0.01786656597895009,-5.317388621883801e-05,-0.027763508399885395
76,170.7,725.76,54.005,-0.000242766,198.0,-1.12957,-0.300625,0.0485509,-0.0183647,-0.0286848,0.0372751,-0.000195549,-5.43779e-05,0.0498493,0.049748802674554504,0.03797852945809965,-0.00019552988154047934,-0.01819709646144063,-5.43764215488185e-05,-0.028277296803106755
77,173.8,727.889,54.1731,-0.000250119,198.599,-1.13586,-0.302291,0.0494196,-0.0187009,-0.0292129,0.0379476,-0.000199875,-5.55823e-05,0.0507985,0.05066111566521303,0.03867680478792335,-0.00019985502632291485,-0.01852712311702076,-5.558075533251827e-05,-0.02879032808483184
78,176.9,729.986,54.3387,-0.000257537,199.189,-1.14203,-0.303925,0.0502876,-0.0190369,-0.0297405,0.0386196,-0.000204207,-5.67884e-05,0.051747,0.05157348542480289,0.039375030178196324,-0.00020418615116968297,-0.01885684260767717,-5.678678756937394e-05,-0.029302603157686846
79,180.0,732.05,54.5017,-0.000265018,199.769,-1.14809,-0.305528,0.0511547,-0.0193725,-0.0302677,0.0392909,-0.000208545,-5.7996e-05,0.0526948,0.05248570022758736,0.04007299688226795,-0.00020852325600295707,-0.019186059005696476,-5.7994318264475986e-05,-0.02981421995126554
80,183.1,734.084,54.6624,-0.000272562,200.341,-1.15403,-0.307102,0.0520209,-0.0197078,-0.0307944,0.0399617,-0.000212888,-5.92052e-05,0.0536418,0.05339775829644755,0.040770911903104334,-0.00021286534095765752,-0.019514870791735306,-5.920344740673045e-05,-0.030325082254219815
81,186.2,736.087,54.8208,-0.000280169,200.905,-1.15987,-0.308647,0.0528863,-0.0200428,-0.0313207,0.0406319,-0.000217236,-6.04157e-05,0.054588,0.054309763284117185,0.041468670361003435,-0.00021721240596861424,-0.01984327829869148,-6.041387500832496e-05,-0.030835287891039176
82,189.2,738.062,54.9769,-0.000287837,201.461,-1.1656,-0.310165,0.0537509,-0.0203775,-0.0318465,0.0413015,-0.000221589,-6.16276e-05,0.0555335,0.05522171368480144,0.04216627131341122,-0.00022156445097076816,-0.02017128185898709,-6.162570105849863e-05,-0.03134474074977245
83,192.3,740.008,55.1308,-0.000295566,202.009,-1.17123,-0.311657,0.0546146,-0.0207118,-0.0323718,0.0419705,-0.000225947,-6.28408e-05,0.0564782,0.05613350237817727,0.04286371381742504,-0.00022592147589894918,-0.02049878385445314,-6.283882555824238e-05,-0.03185344173544491
84,195.4,741.927,55.2826,-0.000303355,202.549,-1.17677,-0.313124,0.0554775,-0.0210459,-0.0328967,0.0426389,-0.000230309,-6.40553e-05,0.0574222,0.0570452332871072,0.0435609969297972,-0.0002302824809180537,-0.020825980549515788,-6.405324850311533e-05,-0.03236148851533582
85,198.5,743.819,55.4324,-0.000311203,203.081,-1.18222,-0.314566,0.0563396,-0.0213796,-0.0334211,0.0433068,-0.000234676,-6.52709e-05,0.0583654,0.05795690490230987,0.04425822413275182,-0.00023464846574139386,-0.021152676407570792,-6.526876990109454e-05,-0.03286878512596181
86,201.6,745.685,55.5801,-0.000319111,203.607,-1.18757,-0.315984,0.0572008,-0.0217131,-0.033945,0.043974,-0.000239047,-6.64876e-05,0.0593078,0.05886840982649577,0.04495518570041779,-0.00023901843054230376,-0.021479067561238963,-6.648538974851625e-05,-0.033375332467772134
87,204.7,747.526,55.7259,-0.000327077,204.125,-1.19284,-0.317379,0.0580613,-0.0220462,-0.0344684,0.0446407,-0.000243421,-6.77054e-05,0.0602494,0.05977995823060556,0.04565208960982847,-0.0002433913755121031,-0.021804958603667823,-6.770310804116164e-05,-0.03388113143962079
88,207.8,749.343,55.8698,-0.000335101,204.637,-1.19803,-0.318752,0.0589208,-0.022379,-0.0349914,0.0453068,-0.000247799,-6.89242e-05,0.0611903,0.060691230667935026,0.04634883049050642,-0.0002477683003635489,-0.02213044774904671,-6.8921824781909e-05,-0.03438627950014539
89,210.9,751.135,56.0119,-0.000343183,205.142,-1.20313,-0.320104,0.0597796,-0.0227115,-0.035514,0.0459723,-0.000252181,-7.0144e-05,0.0621304,0.06160254355857764,0.047045407397454886,-0.0002521492050443497,-0.02245553532636535,-7.01415399670946e-05,-0.03489077739369728
90,214.0,752.905,56.1522,-0.000351321,205.641,-1.20816,-0.321435,0.0606376,-0.0230437,-0.0360361,0.0466372,-0.000256566,-7.13647e-05,0.0630698,0.06251378940951846,0.04774181938534228,-0.00025653308975837064,-0.022780221664143285,-7.13621536003739e-05,-0.035394529402914765
91,217.1,754.652,56.2907,-0.000359516,206.133,-1.21311,-0.322747,0.0614947,-0.0233756,-0.0365577,0.0473016,-0.000260954,-7.25862e-05,0.0640083,0.06342486036210393,0.04843817035231757,-0.0002609199544664209,-0.02310450709042955,-7.258356568551338e-05,-0.03589753642074378
92,220.1,756.378,56.4276,-0.000367767,206.62,-1.21799,-0.324038,0.062351,-0.0237072,-0.0370788,0.0479654,-0.000265345,-7.38086e-05,0.0649461,0.06433586105931455,0.04913435464780158,-0.00026530979912897656,-0.02342839193280366,-7.380587621230728e-05,-0.03639979933854598
93,223.2,758.082,56.5628,-0.000376073,207.1,-1.2228,-0.325312,0.0632065,-0.0240384,-0.0375995,0.0486285,-0.000269739,-7.50318e-05,0.0658831,0.06524678998274025,0.049830266342391294,-0.0002697026237066247,-0.02375177889355884,-7.502898518485512e-05,-0.036901415355966805
94,226.3,759.765,56.6963,-0.000384435,207.574,-1.22754,-0.326567,0.0640611,-0.0243694,-0.0381197,0.0492911,-0.000274136,-7.62557e-05,0.0668193,0.06615753899708343,0.05052611438586796,-0.00027409842816006336,-0.024074863581279304,-7.625279260803364e-05,-0.03740228895118136
95,229.4,761.428,56.8284,-0.000392851,208.043,-1.23221,-0.327804,0.064915,-0.0247,-0.0386394,0.0499532,-0.000278535,-7.74802e-05,0.0677547,0.0670683197221229,0.05122189803996391,-0.00027849621272812985,-0.02439745110472369,-7.747719848683055e-05,-0.03790242101104113
96,232.5,763.071,56.9589,-0.000401322,208.507,-1.23682,-0.329024,0.065768,-0.0250304,-0.0391587,0.0506146,-0.000282937,-7.87055e-05,0.0686894,0.06797891731350525,0.051917406182515835,-0.0002828969771017098,-0.02471973694232632,-7.87024028033878e-05,-0.038401908580637745
97,235.6,764.695,57.0879,-0.000409847,208.965,-1.24137,-0.330228,0.0666202,-0.0253604,-0.0396775,0.0512755,-0.000287341,-7.99314e-05,0.0696232,0.0688894368641153,0.05261284817975653,-0.00028729972152863326,-0.025041526330966124,-7.99282055707895e-05,-0.03890065628412531
98,238.7,766.3,57.2154,-0.000418425,209.418,-1.24585,-0.331416,0.0674717,-0.0256901,-0.0401959,0.0519358,-0.000291747,-8.11579e-05,0.0705563,0.06979998382995967,0.05330811796146695,-0.0002917044459824769,-0.02536291715554595,-8.115460678670416e-05,-0.03939876106399365
99,241.8,767.886,57.3415,-0.000427057,209.865,-1.25028,-0.332588,0.0683223,-0.0260196,-0.0407138,0.0525955,-0.000296155,-8.23849e-05,0.0714886,0.07071034281699373,0.054003214579296355,-0.00029611115043681746,-0.025684007171857925,-8.238150645734077e-05,-0.039896127641446344
100,244.9,769.455,57.4663,-0.000435742,210.308,-1.25465,-0.333745,0.0691721,-0.0263487,-0.0412312,0.0532546,-0.000300565,-8.36125e-05,0.0724201,0.07162061918796958,0.054698137084580045,-0.00030051983486556466,-0.02600460180835662,-8.36090045722715e-05,-0.040392756895937354
101,248.0,771.006,57.5897,-0.00044448,210.746,-1.25896,-0.334888,0.0700211,-0.0266775,-0.0417482,0.0539132,-0.000304977,-8.48406e-05,0.0733508,0.07253081141558804,0.055392990067635095,-0.00030493049924207316,-0.02632479885200345,-8.483700113803838e-05,-0.04088874561649014
102,251.0,772.54,57.7117,-0.00045327,211.179,-1.26322,-0.336016,0.0708693,-0.027006,-0.0422647,0.0545711,-0.000309391,-8.60692e-05,0.0742808,0.07344091797145724,0.056087561570043576,-0.0003093431435401417,-0.026644598625591875,-8.606549615264303e-05,-0.04138399866926856
103,254.1,774.057,57.8325,-0.000462112,211.607,-1.26743,-0.33713,0.0717167,-0.0273342,-0.0427808,0.0552285,-0.000313806,-8.72982e-05,0.0752099,0.07435093732609066,0.05678206179022993,-0.00031375676804712427,-0.02696400145145217,-8.729438962296054e-05,-0.041878612741415244
104,257.2,775.558,57.952,-0.000471007,212.031,-1.27159,-0.338231,0.0725633,-0.027662,-0.0432963,0.0558854,-0.000318223,-8.85276e-05,0.0761383,0.07526086794891573,0.057476489986589385,-0.000318172372431591,-0.027282910379747505,-8.852368154765866e-05,-0.04237239703271101
105,260.3,777.043,58.0703,-0.000479953,212.451,-1.27569,-0.339319,0.073409,-0.0279896,-0.0438115,0.0565416,-0.000322641,-8.97574e-05,0.0770659,0.07617060069120951,0.058170633782990366,-0.00032258895698988876,-0.02760152030715135,-8.975337192507205e-05,-0.04286563970353774
106,263.4,778.512,58.1873,-0.000488951,212.866,-1.27975,-0.340395,0.074254,-0.0283169,-0.0443261,0.0571973,-0.000327061,-9.09876e-05,0.0779926,0.07708034916339113,0.058864703793547246,-0.00032700752138159483,-0.02791973425100225,-9.098346075386843e-05,-0.043358054336194995
107,266.5,779.966,58.3032,-0.000497999,213.276,-1.28377,-0.341458,0.0750982,-0.0286439,-0.0448403,0.0578524,-0.000331482,-9.22181e-05,0.0789186,0.07799000430556635,0.059558593319700925,-0.00033142706591204885,-0.028237552531781174,-9.221384804170007e-05,-0.04384983317747948
108,269.6,781.405,58.4179,-0.000507099,213.683,-1.28773,-0.342509,0.0759417,-0.0289705,-0.0453541,0.058507,-0.000335904,-9.34489e-05,0.0798438,0.0788996724728126,0.06025240743547333,-0.0003358475905677061,-0.028554878325001587,-9.344453378756779e-05,-0.04434097694755357
109,272.7,782.829,58.5315,-0.00051625,214.086,-1.29166,-0.343548,0.0767843,-0.0292969,-0.0458674,0.059161,-0.000340327,-9.468e-05,0.0807683,0.07980913644019938,0.0609460393028336,-0.0003402690953355769,-0.02887190627094094,-9.467551799025031e-05,-0.04483139084859089
110,275.8,784.239,58.6439,-0.000525452,214.484,-1.29554,-0.344576,0.0776261,-0.029623,-0.0463802,0.0598144,-0.000344751,-9.59114e-05,0.0816919,0.08071850246971657,0.061639487969922246,-0.00034469158020267177,-0.02918853951245004,-9.590680064863744e-05,-0.04532107574542554
111,278.9,785.635,58.7553,-0.000534704,214.879,-1.29938,-0.345593,0.0784671,-0.0299487,-0.0468926,0.0604672,-0.000349176,-9.71431e-05,0.0826147,0.08162776902328717,0.06233275248458736,-0.0003491150451554459,-0.029504681318643033,-9.713838176184098e-05,-0.045810127920346
112,281.9,787.017,58.8656,-0.000544006,215.27,-1.30318,-0.346599,0.0793074,-0.0302742,-0.0474045,0.0611195,-0.000353602,-9.8375e-05,0.0835368,0.08253704281547769,0.06302593819697422,-0.0003535394901810207,-0.02982052613834063,-9.837016133829035e-05,-0.04629845271846811
113,285.0,788.385,58.9749,-0.000553358,215.657,-1.30694,-0.347595,0.0801469,-0.0305994,-0.047916,0.0617712,-0.000358029,-9.96071e-05,0.084458,0.08344621423422871,0.06371893799035244,-0.0003579649152659625,-0.03013597720811645,-9.960213937754148e-05,-0.04678614632163047
114,288.1,789.741,59.0831,-0.000562761,216.04,-1.31066,-0.348581,0.0809855,-0.0309242,-0.048427,0.0624223,-0.000362456,-0.000100839,0.0853785,0.0843551733027541,0.06441175091164908,-0.0003623903207595758,-0.030450937890335705,-0.00010083391591886315,-0.0472731141699787
115,291.2,791.083,59.1904,-0.000572213,216.42,-1.31434,-0.349557,0.0818234,-0.0312488,-0.0489375,0.0630728,-0.000366884,-0.000102072,0.0862982,0.08526413525889587,0.06510437600750585,-0.00036681670629523655,-0.03076560244307669,-0.00010206679083057946,-0.04775935712112145
116,294.3,792.413,59.2966,-0.000581715,216.796,-1.31799,-0.350523,0.0826605,-0.031573,-0.0494476,0.0637228,-0.000371313,-0.000103304,0.0872171,0.08617299021469083,0.06579691890396888,-0.00037124407185951114,-0.03107977730426781,-0.00010329866432545742,-0.04824497120665161
117,297.4,793.73,59.4019,-0.000591267,217.168,-1.3216,-0.35148,0.0834969,-0.031897,-0.0499572,0.0643723,-0.000375742,-0.000104537,0.0881352,0.08708184533393348,0.06648937885482309,-0.0003756714178152487,-0.03139365660522864,-0.00010453153619816025,-0.04872986200865481
118,300.5,795.035,59.5062,-0.000600868,217.538,-1.32517,-0.352427,0.0843324,-0.0322206,-0.0504664,0.0650211,-0.000380172,-0.00010577,0.0890525,0.087990481745714,0.06718154167716373,-0.0003800997437820586,-0.031707046908665326,-0.0001057644065507457,-0.04921412545898218
119,303.6,796.328,59.6097,-0.000610519,217.904,-1.32872,-0.353366,0.0851672,-0.032544,-0.0509752,0.0656695,-0.000384602,-0.000107003,0.0899691,0.08889911541079898,0.06787372657087887,-0.0003845280501316717,-0.032020142219454595,-0.00010699727538310277,-0.04969776226431177
120,306.7,797.609,59.7122,-0.000620219,218.266,-1.33223,-0.354296,0.0860012,-0.0328671,-0.0514834,0.0663172,-0.000389033,-0.000108236,0.0908848,0.08980763607350739,0.06856561242662518,-0.00038895733647470454,-0.03233284599148878,-0.0001082301426954535,-0.05018058316634644
121,309.0,798.569,59.789,-0.000631374,218.538,-1.33486,-0.354993,0.0866308,-0.033111,-0.0518672,0.0668062,-0.00039238,-0.000109168,0.0915762,0.09049399500429822,0.06908826879016794,-0.000392303029035479,-0.03256883123078169,-0.00010916204139066465,-0.050545053912116944
