,Time,S11,S22,S33,S12,S13,S23,LE11,LE22,LE33,LE12,LE13,LE23,SDV_EPBAR,E11,E12,E13,E22,E23,E33
0,0.000309,0.0019383,0.000139163,-7.79048e-12,0.000519365,9.3624e-20,3.36396e-20,9.1292e-09,-2.12864e-09,-3.00057e-09,6.49972e-09,9.45271e-25,4.67314e-25,0.0,9.129200062574228e-09,6.499720095476391e-09,0.0,-2.128640042009522e-09,0.0,-3.0005700146773506e-09
1,0.000618,0.00387659,0.000278327,3.25261e-19,0.00103873,3.61973e-20,-7.40724e-21,1.82584e-08,-4.2578e-09,-6.00057e-09,1.29997e-08,9.27189e-26,4.52981e-25,0.0,1.8258400125148455e-08,1.2999699983140545e-08,0.0,-4.257800001461476e-09,0.0,-6.000569929831556e-09
2,0.0010815,0.00678404,0.000487072,3.25261e-19,0.00181778,-8.55315e-21,3.19208e-20,3.19522e-08,-7.45077e-09,-1.05014e-08,2.27493e-08,2.14063e-25,-7.98907e-25,0.0,3.19522004410544e-08,2.2749300221391877e-08,0.0,-7.45077000097183e-09,0.0,-1.0501399971829528e-08
3,0.0017767,0.0111452,0.00080019,7.58942e-19,0.00298635,8.55315e-21,-3.19208e-20,5.24927e-08,-1.22421e-08,-1.72507e-08,3.73747e-08,4.28159e-25,-1.59792e-24,0.0,5.249270129681349e-08,3.737470066766946e-08,0.0,-1.2242099889370195e-08,0.0,-1.725069986857619e-08
4,0.0028196,0.017687,0.00126987,-2.27682e-18,0.00473921,-1.65988e-27,-4.44764e-28,8.33037e-08,-1.94275e-08,-2.73762e-08,5.93119e-08,1.2845e-24,-4.79383e-24,0.0,8.33037034908557e-08,5.931190183439128e-08,0.0,-1.9427499831081718e-08,0.0,-2.7376199640549714e-08
5,0.0043839,0.0274996,0.00197438,-4.01155e-18,0.00736849,1.71063e-20,-6.38416e-20,1.2952e-07,-3.02058e-08,-4.25643e-08,9.22178e-08,-1.48338e-24,-7.24799e-24,0.0,1.295200084960868e-07,9.221780428170234e-08,0.0,-3.0205799528282284e-08,0.0,-4.256429908533477e-08
6,0.0067304,0.0422185,0.00303115,-4.01155e-18,0.0113124,1.74418e-19,1.1516e-19,1.98845e-07,-4.63759e-08,-6.53437e-08,1.41578e-07,3.19598e-24,8.5636e-25,0.0,1.9884501978317815e-07,1.4157800998226833e-07,0.0,-4.637589889888716e-08,0.0,-6.534369789701344e-08
7,0.01025,0.0642969,0.00461631,8.13152e-18,0.0172283,2.08631e-19,-1.25227e-20,3.02832e-07,-7.06269e-08,-9.95172e-08,2.15616e-07,2.29126e-25,-1.36391e-23,0.0,3.0283204588421597e-07,2.156160232580362e-07,0.0,-7.062689755255036e-08,0.0,-9.951719504019962e-08
8,0.01553,0.0974145,0.00699405,2.92735e-18,0.0261021,-1.49373e-19,3.02101e-19,4.58812e-07,-1.07003e-07,-1.50778e-07,3.26673e-07,-3.42531e-24,1.27835e-23,0.0,4.5881210519738147e-07,3.266730532747175e-07,0.0,-1.0700299424293291e-07,0.0,-1.5077798865004155e-07
9,0.023449,0.147091,0.0105607,6.39679e-18,0.0394129,6.16725e-19,5.07377e-19,6.92782e-07,-1.61575e-07,-2.2766e-07,4.93263e-07,1.27839e-23,3.42544e-24,0.0,6.927822400193406e-07,4.932631216814087e-07,0.0,-1.6157498694546746e-07,0.0,-2.2765997409468497e-07
10,0.035328,0.221605,0.0159106,-7.48099e-18,0.059379,8.22001e-19,-2.58722e-19,1.04374e-06,-2.43427e-07,-3.4299e-07,7.43145e-07,1.27839e-23,3.42544e-24,0.0,1.0437405446594994e-06,7.43145276205226e-07,0.0,-2.4342697035883987e-07,0.0,-3.429899412266124e-07
11,0.053146,0.333377,0.0239354,-3.52366e-17,0.0893282,1.43291e-18,1.54718e-18,1.57017e-06,-3.66206e-07,-5.15985e-07,1.11797e-06,-4.82329e-29,-1.2924e-29,0.0,1.570171232812001e-06,1.1179706249642152e-06,0.0,-3.662059329112566e-07,0.0,-5.159848668334632e-07
12,0.079874,0.501035,0.0359727,-2.13588e-17,0.134252,1.15921e-18,2.56864e-18,2.35982e-06,-5.50367e-07,-7.75483e-07,1.6802e-06,-4.1105e-23,1.53406e-22,0.0,2.3598227842924757e-06,1.6802014115580022e-06,0.0,-5.503668485395963e-07,0.0,-7.754826992778519e-07
13,0.12,0.752521,0.0540286,-7.48099e-18,0.201637,2.25401e-18,-1.51722e-18,3.54429e-06,-8.26616e-07,-1.16472e-06,2.52354e-06,-1.0888e-28,-2.91744e-29,0.0,3.544296280910686e-06,2.523543184196342e-06,0.0,-8.266156583669471e-07,0.0,-1.1647193217667606e-06
14,0.1801,1.12975,0.0811124,2.02746e-17,0.302715,9.8783e-18,2.71531e-18,5.321e-06,-1.241e-06,-1.74857e-06,3.78857e-06,1.53406e-22,4.11051e-23,0.0,5.321014156622894e-06,3.788577176644381e-06,0.0,-1.2409992299344808e-06,0.0,-1.7485684712381655e-06
15,0.2703,1.69559,0.121738,-7.48099e-18,0.454332,-5.51699e-18,2.96936e-18,7.98605e-06,-1.86256e-06,-2.62435e-06,5.6861e-06,6.26956e-28,1.67992e-28,0.0,7.986081888677887e-06,5.686116165914967e-06,0.0,-1.862558265397496e-06,0.0,-2.6243465564013135e-06
16,0.4056,2.54435,0.182676,4.92119e-16,0.681756,-3.36327e-19,-2.16935e-20,1.19836e-05,-2.79488e-06,-3.93804e-06,8.53236e-06,2.19228e-22,-8.18169e-22,0.0,1.1983671803550422e-05,8.532396400751097e-06,0.0,-2.7948760943363737e-06,0.0,-3.938032245964784e-06
17,0.6086,3.81748,0.274083,3.81097e-16,1.02289,-3.36325e-19,-2.16927e-20,1.79799e-05,-4.19337e-06,-5.90853e-06,1.28018e-05,9.49301e-23,4.63893e-22,0.0,1.79800616393333e-05,1.2801881943413917e-05,0.0,-4.1933612078270954e-06,0.0,-5.908512544672284e-06
18,0.913,5.72716,0.411192,4.92119e-16,1.53459,3.23501e-17,8.73662e-18,2.69743e-05,-6.2911e-06,-8.86425e-06,1.92058e-05,4.09074e-22,1.09611e-22,0.0,2.697466380974234e-05,1.920598443261312e-05,0.0,-6.291080211107136e-06,0.0,-8.864210712666853e-06
19,1.37,8.59165,0.616853,-1.28424e-15,2.30213,-3.36733e-19,-2.18022e-20,4.04657e-05,-9.43765e-06,-1.32978e-05,2.88117e-05,4.38461e-22,-1.63636e-21,0.0,4.0466518747450664e-05,2.8812115061116472e-05,0.0,-9.4376054655676e-06,0.0,-1.3297711584647764e-05
20,2.055,12.8883,0.925338,-5.059e-15,3.45341,6.94144e-17,1.1511e-18,6.07025e-05,-1.41574e-05,-1.99479e-05,4.32204e-05,-7.0378e-26,-1.88577e-26,0.0,6.070434243410361e-05,4.322133401490902e-05,0.0,-1.4157299784489652e-05,0.0,-1.994770104196686e-05
21,3.082,19.3331,1.38805,-2.81516e-14,5.18029,7.817e-17,-3.15365e-17,9.10568e-05,-2.12368e-05,-2.99229e-05,6.48327e-05,8.76832e-22,-3.2728e-21,0.0,9.106094579625079e-05,6.483480168495426e-05,0.0,-2.123657450070482e-05,0.0,-2.992245231447921e-05
22,4.623,116.413,8.35811,-1.03265e-09,31.1929,9.83292e-16,7.71529e-16,0.000548295,-0.000127877,-0.000180179,0.000390388,3.49743e-21,-1.3096e-20,0.0,0.0005484453411794821,0.0003904642113123913,0.0,-0.00012786882408488687,0.0,-0.00018016276873877857
23,6.935,262.609,18.8545,-9.04826e-07,70.3658,1.26247e-15,-2.74743e-16,0.00123686,-0.000288468,-0.000406453,0.000880648,1.40118e-20,-5.23908e-20,0.0,0.0012376252267900512,0.0008810358843047705,0.0,-0.0002884263971069112,0.0,-0.00040637040916957634
24,10.03,446.441,32.093,0.00246193,119.702,-0.0118222,-0.00316599,0.00215605,-0.000511254,-0.000723408,0.00153874,-1.52533e-07,-4.09048e-08,5.88521e-05,0.0021583759471202058,0.0015399244678453439,-1.525329883511617e-07,-0.0005111233319429198,-4.090479921448065e-08,-0.0007231464035168944
25,13.12,468.018,33.794,8.54548e-05,125.763,-0.121426,-0.0324922,0.00307237,-0.00085495,-0.00125121,0.00223591,-2.1945e-06,-5.95692e-07,0.000956955,0.0030770945660076876,0.002238411510800953,-2.1944975920895615e-06,-0.0008545846343792629,-5.956918225358265e-07,-0.001250427563132872
26,16.21,485.783,35.1933,7.84214e-05,130.754,-0.210982,-0.0564285,0.00398762,-0.00120107,-0.00178345,0.00293364,-4.45967e-06,-1.21572e-06,0.00187392,0.003995581135108672,0.0029379473328496886,-4.459660055688985e-06,-0.0012003490041118114,-1.2157192610384726e-06,-0.0017818605980619573
27,19.3,500.927,36.3856,3.15515e-05,135.008,-0.285835,-0.0764184,0.00490183,-0.00154871,-0.00231856,0.00363165,-6.92005e-06,-1.89238e-06,0.00280355,0.004913863622898029,0.003638252431014788,-6.920026056511652e-06,-0.0015475113675258445,-1.8923782094670827e-06,-0.0023158742158813084
28,22.39,514.155,37.4263,1.23785e-05,138.722,-0.349795,-0.0934868,0.00581502,-0.00189735,-0.00285564,0.00432973,-9.55413e-06,-2.61911e-06,0.00374217,0.005831960048455986,0.004339116823517397,-9.554084359431059e-06,-0.001895551169338927,-2.6191065701786087e-06,-0.0028515665384641897
29,25.48,525.918,38.3512,3.33514e-06,142.024,-0.405427,-0.108323,0.00672718,-0.00224665,-0.00339408,0.00502777,-1.23423e-05,-3.39004e-06,0.00468742,0.006749858300524769,0.005040430444628319,-1.234222383417194e-05,-0.0022441281707979988,-3.3900342538695227e-06,-0.003388326621459825
30,28.57,536.523,39.1847,-1.86047e-06,145.0,-0.454515,-0.121407,0.00763834,-0.00259638,-0.00393348,0.00572566,-1.52675e-05,-4.20009e-06,0.0056377,0.007667586536551418,0.005742082920275671,-1.5267383452366445e-05,-0.002593012320669996,-4.200081179628334e-06,-0.003925754000885462
31,31.66,546.191,39.9441,-5.51544e-06,147.712,-0.498343,-0.133083,0.0085485,-0.00294638,-0.00447356,0.00642334,-1.83147e-05,-5.0449e-06,0.00659187,0.00858514276526079,0.006444013889814526,-1.831453228695601e-05,-0.002942043682306439,-5.04488727448571e-06,-0.00446356853515506
32,34.75,555.083,40.6423,-8.57905e-06,150.206,-0.537862,-0.143607,0.00945768,-0.00329655,-0.00501411,0.00712074,-2.14711e-05,-5.92076e-06,0.00754908,0.009502545184131295,0.007146152752464552,-2.1470869497552947e-05,-0.0032911223448657267,-5.920742472298457e-06,-0.005001560334350064
33,37.84,563.32,41.2889,-1.14715e-05,152.516,-0.573792,-0.153171,0.0103659,-0.00364679,-0.00555496,0.00781783,-2.47257e-05,-6.82447e-06,0.00850871,0.010419812062728795,0.007848469024472005,-2.4725394322411276e-05,-0.003640148537140897,-6.824446713404875e-06,-0.005539559738839572
34,40.93,570.998,41.8914,-1.4388e-05,154.669,-0.606694,-0.161925,0.0112731,-0.00399704,-0.006096,0.00851456,-2.8069e-05,-7.75328e-06,0.00947026,0.011336880835731256,0.008550911966415331,-2.8068606069298063e-05,-0.003989062467996796,-7.753249943398544e-06,-0.0060774570903257
35,44.02,578.192,42.4559,-1.74209e-05,156.686,-0.637007,-0.169988,0.0121794,-0.00434724,-0.00663712,0.0092109,-3.14927e-05,-8.70484e-06,0.0104333,0.0122538709221236,0.009253450883040637,-3.149220411013953e-05,-0.0043378044300387275,-8.704802113013166e-06,-0.00661514296733412
36,47.11,584.964,42.9872,-2.06126e-05,158.585,-0.665088,-0.177455,0.0130847,-0.00469736,-0.00717825,0.00990684,-3.49896e-05,-9.67707e-06,0.0113976,0.013170679282158204,0.009956075193470859,-3.4988987871131805e-05,-0.004686344658938912,-9.677023177334654e-06,-0.007152547898941264
37,50.2,591.363,43.4891,-2.39815e-05,160.378,-0.691221,-0.184402,0.013989,-0.00504735,-0.00771932,0.0106023,-3.85535e-05,-1.06682e-05,0.0123628,0.014087303916797023,0.01065870354216103,-3.855275682340675e-05,-0.005034633532804977,-1.066814309491626e-05,-0.007689602564663223
38,53.29,597.431,43.965,-2.75336e-05,162.079,-0.715646,-0.190893,0.0148924,-0.0053972,-0.00826028,0.0112974,-4.21786e-05,-1.16765e-05,0.0133288,0.015003844326123339,0.01136145662053023,-4.217771049530583e-05,-0.005382661283959256,-1.1676431829976686e-05,-0.008226257629710743
39,56.38,603.202,44.4177,-3.12682e-05,163.697,-0.738559,-0.196981,0.0157949,-0.00574688,-0.00880108,0.011992,-4.58602e-05,-1.27008e-05,0.0142953,0.015920298783496545,0.012064192320152989,-4.58591484371329e-05,-0.005730398273083193,-1.2700719345226652e-05,-0.008762463866349934
40,59.47,608.706,44.8494,-3.51815e-05,165.24,-0.760125,-0.20271,0.0166964,-0.00609636,-0.0093417,0.012686,-4.95938e-05,-1.37397e-05,0.0152623,0.016836563877286936,0.012766808649288919,-4.959257024783614e-05,-0.006077814902376799,-1.3739605610796346e-05,-0.00929820187474506
41,62.56,613.968,45.2621,-3.92679e-05,166.715,-0.780486,-0.208117,0.017597,-0.00644564,-0.00988208,0.0133797,-5.33754e-05,-1.47921e-05,0.0162295,0.017752739378618543,0.01346960872247105,-5.3373975558712594e-05,-0.006424911422722612,-1.4791990597395888e-05,-0.009833412690781529
42,65.65,619.01,45.6575,-4.35213e-05,168.128,-0.799761,-0.213235,0.0184967,-0.0067947,-0.0104222,0.0140727,-5.72017e-05,-1.5857e-05,0.0171969,0.018668823556910796,0.014172186576424384,-5.72000640139958e-05,-0.006771668220156735,-1.5856874278408206e-05,-0.010368077063460324
43,68.74,623.85,46.0372,-4.79353e-05,169.485,-0.818053,-0.218091,0.0193954,-0.00714353,-0.0109621,0.0147653,-6.10693e-05,-1.69335e-05,0.0181643,0.019584712721793407,0.01487484553555607,-6.106743530820413e-05,-0.007118075636969312,-1.6933356629111884e-05,-0.01090223512970867
44,71.83,628.505,46.4024,-5.25037e-05,170.79,-0.835454,-0.222709,0.0202932,-0.00749211,-0.0115016,0.0154574,-6.49756e-05,-1.80208e-05,0.0191317,0.020500506915374306,0.015577483535984316,-6.497348913137024e-05,-0.007464114103615471,-1.802063762634809e-05,-0.011435709456217191
45,74.92,632.99,46.7543,-5.72205e-05,172.047,-0.85204,-0.227111,0.0211901,-0.00784045,-0.0120409,0.0161489,-6.89177e-05,-1.91183e-05,0.0200991,0.021416204403180705,0.016279998232312298,-6.891532522990129e-05,-0.007809793843572832,-1.911811724641943e-05,-0.011968698444708603
46,78.01,637.317,47.0939,-6.20801e-05,173.26,-0.867881,-0.231314,0.0220861,-0.00818852,-0.0125798,0.0168399,-7.28935e-05,-2.02251e-05,0.0210663,0.022331803449443965,0.016982490394180427,-7.289084333339524e-05,-0.008155085392328898,-2.0224895474041382e-05,-0.012501005070214122
47,81.1,641.499,47.422,-6.70771e-05,174.432,-0.883037,-0.235335,0.0229812,-0.00853633,-0.0131184,0.0175304,-7.69007e-05,-2.13407e-05,0.0220332,0.02324730231710448,0.017684959303277514,-7.689774321695264e-05,-0.008499998986402968,-2.1340472288855494e-05,-0.013032728822822803
48,84.19,645.544,47.7395,-7.22066e-05,175.567,-0.897561,-0.239188,0.0238753,-0.00888387,-0.0136566,0.0182203,-8.09373e-05,-2.24646e-05,0.023,0.024162596851552864,0.018387302402095518,-8.093402466502475e-05,-0.008844525024997885,-2.246434767272376e-05,-0.013563771691715854
49,87.28,649.462,48.047,-7.74638e-05,176.665,-0.911502,-0.242885,0.0247686,-0.00923113,-0.0141944,0.0189096,-8.50016e-05,-2.35961e-05,0.0239664,0.0250778900541635,0.019089518760705193,-8.499798746630649e-05,-0.009188653920679357,-2.359582161426399e-05,-0.01409413446796648
50,90.37,653.261,48.3454,-8.28444e-05,177.731,-0.924902,-0.246439,0.0256609,-0.00957811,-0.0147319,0.0195984,-8.90919e-05,-2.4735e-05,0.0249324,0.025992975260007656,0.019791709427930737,-8.90879314344728e-05,-0.00953238600401407,-2.4734694092365395e-05,-0.014623916479019727
51,93.46,656.949,48.635,-8.83444e-05,178.765,-0.9378,-0.249859,0.0265523,-0.00992481,-0.015269,0.0202867,-9.32066e-05,-2.58807e-05,0.0258981,0.026907953143210595,0.02049387368363753,-9.320225639974922e-05,-0.009875721605120957,-2.5880365097541436e-05,-0.015153019870043694
52,96.55,660.533,48.9165,-9.39599e-05,179.77,-0.950229,-0.253155,0.0274429,-0.0102712,-0.0158057,0.0209743,-9.73443e-05,-2.70328e-05,0.0268633,0.027822924742655797,0.0211958065680522,-9.733956219737383e-05,-0.010218631360230268,-2.7032434617102474e-05,-0.015681445428596508
53,99.64,664.018,49.1903,-9.96874e-05,180.748,-0.962221,-0.256334,0.0283325,-0.0106173,-0.016342,0.0216614,-0.000101504,-2.81909e-05,0.0278281,0.028737682840581646,0.021897711318507485,-0.00010149884864329994,-0.010561135418170386,-2.8190502640357273e-05,-0.0162091939410004
54,102.7,667.41,49.4568,-0.000105524,181.7,-0.973804,-0.259404,0.0292213,-0.0109631,-0.0168778,0.022348,-0.000105684,-2.93548e-05,0.0287925,0.029652431347108266,0.02259958721352051,-0.0001056784156427959,-0.01090322422697898,-2.935436915207923e-05,-0.016736167865965212
55,105.8,670.715,49.7165,-0.000111465,182.627,-0.985004,-0.262373,0.0301091,-0.0113087,-0.0174133,0.023034,-0.000109883,-3.05241e-05,0.0297563,0.030566962676046527,0.02330133120101685,-0.00010987696308428774,-0.011244997010947277,-3.052363414435266e-05,-0.017262564692743676
56,108.9,673.936,49.9698,-0.00011751,183.531,-0.995844,-0.265246,0.0309961,-0.0116539,-0.0179484,0.0237194,-0.0001141,-3.16984e-05,0.0307196,0.0314814811009021,0.024002942348095635,-0.00011409349084257059,-0.011586256333231293,-3.169789761103825e-05,-0.017788286824875987
57,112.0,677.079,50.2169,-0.000123654,184.413,-1.00635,-0.268029,0.0318822,-0.0119988,-0.018483,0.0244042,-0.000118335,-3.28776e-05,0.0316823,0.032395881906752244,0.024704419721454984,-0.00011832799869004873,-0.01192710145130238,-3.28770595375838e-05,-0.018313236875088235
58,115.1,680.147,50.4582,-0.000129896,185.274,-1.01653,-0.270728,0.0327674,-0.0123434,-0.0190172,0.0250884,-0.000122586,-3.40614e-05,0.0326445,0.03331016334267867,0.02540576238739467,-0.00012257848664332105,-0.012267532712467277,-3.40608199170811e-05,-0.01883751389708943
59,118.2,683.144,50.694,-0.000136232,186.116,-1.02641,-0.273346,0.0336517,-0.0126878,-0.019551,0.0257721,-0.000126853,-3.52494e-05,0.0336061,0.034224323656533606,0.02610707202251894,-0.00012684495449832855,-0.012607649202779792,-3.524877874716559e-05,-0.01936111866962409
60,121.3,686.074,50.9246,-0.000142661,186.938,-1.03601,-0.275889,0.0345351,-0.0130318,-0.0200843,0.0264552,-0.000131135,-3.64416e-05,0.0345672,0.035138361094945614,0.026808245221858318,-0.00013112640218171379,-0.012947253756121824,-3.644093601296028e-05,-0.019883953958616307
61,124.4,688.939,51.1501,-0.000149181,187.742,-1.04533,-0.278361,0.0354177,-0.0133755,-0.0206172,0.0271377,-0.00013543,-3.76377e-05,0.0355276,0.036052377508558164,0.027509281050486445,-0.00013542082977147096,-0.01328644549156699,-3.763699171066559e-05,-0.020406118656410954
62,127.4,691.742,51.3708,-0.000155789,188.53,-1.05441,-0.280764,0.0362993,-0.0137189,-0.0211497,0.0278196,-0.000139739,-3.88374e-05,0.0364873,0.03696616402248054,0.028210178573085942,-0.00013972923696059514,-0.01362522475445671,-3.883664583792523e-05,-0.0209276135378913
63,130.5,694.487,51.5869,-0.000162484,189.301,-1.06324,-0.283104,0.0371802,-0.0140619,-0.0216817,0.028501,-0.00014406,-4.00406e-05,0.0374465,0.03788002996952877,0.028911039745049383,-0.00014404962385639042,-0.013963493285996331,-4.0039798385849146e-05,-0.02144834152156405
64,133.6,697.175,51.7987,-0.000169263,190.056,-1.07184,-0.285382,0.0380601,-0.0144047,-0.0222133,0.0291818,-0.000148393,-4.12471e-05,0.038405,0.038793662501585,0.02961176087931694,-0.00014838199030331456,-0.014301448671635297,-4.124624935009091e-05,-0.021968401339064414
65,136.7,699.81,52.0063,-0.000176126,190.796,-1.08022,-0.287603,0.0389392,-0.0147472,-0.0227444,0.0298619,-0.000152737,-4.24568e-05,0.0393628,0.0397072675265413,0.03031223800813887,-0.0001527253362981762,-0.014638992617764912,-4.24558987228707e-05,-0.022487696010206948
66,139.8,702.392,52.2099,-0.00018307,191.522,-1.08839,-0.289768,0.0398173,-0.0150893,-0.0232751,0.0305415,-0.000157093,-4.36695e-05,0.04032,0.0406206354336478,0.03101267618702419,-0.00015708066154074274,-0.014976026965378142,-4.366854650128538e-05,-0.023006324159782543
67,142.9,704.926,52.4096,-0.000190094,192.233,-1.09637,-0.291881,0.0406947,-0.0154312,-0.0238053,0.0312206,-0.000161458,-4.4885e-05,0.0412765,0.04153407664723807,0.03171307468881679,-0.0001614449663585038,-0.015312749095830358,-4.488399268343102e-05,-0.02352418890863639
68,146.0,707.412,52.6057,-0.000197196,192.932,-1.10416,-0.293943,0.0415712,-0.0157727,-0.0243351,0.031899,-0.000165833,-4.61033e-05,0.0422323,0.04244738146278415,0.03241322630326082,-0.00016581925046799117,-0.015648962380328313,-4.610223725920459e-05,-0.024041388775010608
69,149.1,709.852,52.7982,-0.000204375,193.618,-1.11176,-0.295957,0.0424468,-0.0161139,-0.0248644,0.0325768,-0.000170218,-4.7324e-05,0.0431874,0.04336054811601198,0.03311323319358506,-0.0001702035137380875,-0.01598476566306617,-4.732288023712172e-05,-0.024557826980503794
70,152.2,712.248,52.9872,-0.00021163,194.292,-1.1192,-0.297926,0.0433215,-0.0164548,-0.0253933,0.0332541,-0.000174611,-4.85473e-05,0.0441418,0.044273574841474206,0.03381319780268388,-0.0001745957563865641,-0.01632015928536057,-4.8546121598880276e-05,-0.025073601937103063
71,155.3,714.602,53.173,-0.00021896,194.954,-1.12646,-0.299851,0.0441954,-0.0167954,-0.0259217,0.0339307,-0.000179013,-4.97729e-05,0.0450955,0.04518656439120772,0.034512912499105264,-0.00017899697812895354,-0.016655143588042987,-4.97716613497845e-05,-0.025588616966885525
72,158.3,716.915,53.3557,-0.000226362,195.604,-1.13357,-0.301734,0.0450684,-0.0171357,-0.0264496,0.0346068,-0.000183422,-5.10006e-05,0.0460484,0.0460994106613426,0.03521258317626619,-0.0001834051792133362,-0.01698971891145984,-5.0999299491483185e-05,-0.026102872986169867
73,161.4,719.189,53.5352,-0.000233837,196.243,-1.14053,-0.303577,0.0459406,-0.0174757,-0.0269771,0.0352823,-0.00018784,-5.22305e-05,0.0470007,0.04701221658411736,0.03591210551327184,-0.00018782235917169654,-0.01732388559547471,-5.222913601121704e-05,-0.026616468248010117
74,164.5,721.425,53.7119,-0.000241383,196.872,-1.14734,-0.305381,0.0468119,-0.0178153,-0.0275042,0.0359572,-0.000192264,-5.34624e-05,0.0479522,0.04792487587070737,0.036611478570174105,-0.00019224551846153126,-0.017657545745226266,-5.3460970911300976e-05,-0.027129403511632066
75,167.6,723.624,53.8857,-0.000248999,197.491,-1.15402,-0.307149,0.0476824,-0.0181546,-0.0280307,0.0366316,-0.000196695,-5.46962e-05,0.048903,0.048837491633534125,0.037310805137735326,-0.00019667565680669963,-0.017990798000512842,-5.4694704190061394e-05,-0.027641485063385485
76,170.7,725.788,54.0567,-0.000256684,198.1,-1.16056,-0.308881,0.0485521,-0.0184937,-0.0285569,0.0373053,-0.000201133,-5.59318e-05,0.0498531,0.04975006237387358,0.038009876883033034,-0.00020111277411416495,-0.018323740867257188,-5.593023584604673e-05,-0.028153005521109886
77,173.8,727.917,54.2251,-0.000264437,198.699,-1.16697,-0.310578,0.0494208,-0.0188324,-0.0290825,0.0379784,-0.000205577,-5.71692e-05,0.0508024,0.050662376459308156,0.03870879652618098,-0.0002055558704964211,-0.018656178314765848,-5.7167565872373594e-05,-0.02866367408595294
78,176.9,730.014,54.3909,-0.000272257,199.289,-1.17326,-0.312243,0.0502888,-0.0191707,-0.0296077,0.038651,-0.000210028,-5.84081e-05,0.051751,0.051574747313742675,0.03940766706654042,-0.00021000594566356057,-0.018988110780099654,-5.84063942801194e-05,-0.02917368598347536
79,180.0,732.078,54.5543,-0.000280144,199.871,-1.17943,-0.313877,0.0511559,-0.0195088,-0.0301325,0.039323,-0.000214483,-5.96487e-05,0.0526988,0.05248696321118551,0.04010638376132447,-0.00021446000016567268,-0.01931973483563909,-5.964692105164815e-05,-0.02968304196637117
80,183.1,734.112,54.7152,-0.000288096,200.443,-1.18548,-0.31548,0.0520221,-0.0198466,-0.0306567,0.0399944,-0.000218944,-6.08907e-05,0.0536459,0.05339902237451599,0.04080494566837278,-0.00021892003351153821,-0.019650952683367584,-6.088884619892543e-05,-0.030191548824480385
81,186.2,736.115,54.8738,-0.000296112,201.007,-1.19142,-0.317055,0.0528876,-0.020184,-0.0311805,0.0406652,-0.000223411,-6.21342e-05,0.0545922,0.05431113388770026,0.041503351845169956,-0.00022338604562088804,-0.019981666657347574,-6.213226971052421e-05,-0.03069940147298622
82,189.2,738.09,55.0302,-0.000304193,201.563,-1.19726,-0.318601,0.0537522,-0.0205212,-0.0317039,0.0413354,-0.000227882,-6.33789e-05,0.0555378,0.055223085473921074,0.042201601348849316,-0.00022785603686914513,-0.020312073129688746,-6.33768915999644e-05,-0.031206600660648842
83,192.3,740.036,55.1843,-0.000312337,202.112,-1.203,-0.320119,0.0546159,-0.020858,-0.0322268,0.042005,-0.000232357,-6.4625e-05,0.0564826,0.05613487535262274,0.04289969323619314,-0.00023233000720290775,-0.02064197646461874,-6.462291184961e-05,-0.031713050306363844
84,195.4,741.955,55.3364,-0.000320544,202.652,-1.20863,-0.321612,0.0554788,-0.0211945,-0.0327492,0.0426741,-0.000236838,-6.58723e-05,0.0574266,0.0570466074468039,0.04359773092340369,-0.0002368099560947634,-0.020971474998300765,-6.58701304676601e-05,-0.03221875130828167
85,198.5,743.847,55.4864,-0.000328813,203.185,-1.21417,-0.32308,0.0563409,-0.0215307,-0.0332711,0.0433425,-0.000241322,-6.71207e-05,0.0583699,0.05795828024718008,0.04429550481680966,-0.0002412928841882822,-0.02130056906459421,-6.711844745621587e-05,-0.032723704562960476
86,201.6,745.713,55.6343,-0.000337143,203.711,-1.21962,-0.324523,0.0572022,-0.0218666,-0.0337926,0.0440104,-0.00024581,-6.83702e-05,0.0593124,0.0588698922433073,0.04499322276144735,-0.00024577979119710935,-0.021629258996880618,-6.836786281116947e-05,-0.03322800764257372
87,204.7,747.554,55.7803,-0.000345533,204.23,-1.22498,-0.325942,0.0580626,-0.0222021,-0.0343137,0.0446777,-0.000250302,-6.96208e-05,0.0602541,0.05978133594544688,0.045690779452901786,-0.0002502706770678431,-0.02195744732381688,-6.961837652830205e-05,-0.03373166128943628
88,207.8,749.371,55.9245,-0.000353984,204.742,-1.23026,-0.327339,0.0589222,-0.0225374,-0.0348342,0.0453444,-0.000254798,-7.08723e-05,0.0611951,0.060692715636697425,0.04638817394618533,-0.00025476554174641564,-0.022285330019123473,-7.086978861781112e-05,-0.03423447309161187
89,210.9,751.164,56.0668,-0.000362494,205.248,-1.23545,-0.328714,0.059781,-0.0228723,-0.0353543,0.0460105,-0.000259297,-7.21248e-05,0.0621353,0.061604029803178806,0.04708540529597238,-0.00025926338543824645,-0.022612711838954636,-7.212219906915784e-05,-0.03473663714307551
90,214.0,752.933,56.2073,-0.000371064,205.747,-1.24056,-0.330067,0.0606389,-0.023207,-0.035874,0.0466761,-0.000263799,-7.33782e-05,0.0630747,0.06251517067834245,0.04778257733485347,-0.0002637642081031455,-0.022939788624948387,-7.33755078856646e-05,-0.03523815418226173
91,217.1,754.681,56.346,-0.000379692,206.24,-1.24559,-0.3314,0.061496,-0.0235413,-0.0363932,0.047341,-0.000268304,-7.46324e-05,0.0640133,0.06342624281532094,0.04847947963001675,-0.0002682680097005896,-0.023266365263284516,-7.4629615071653e-05,-0.03573892852034277
92,220.1,756.406,56.4831,-0.000388378,206.726,-1.25055,-0.332713,0.0623523,-0.0238753,-0.0369119,0.0480054,-0.000272812,-7.58874e-05,0.0649512,0.0643372446968331,0.0491763208613063,-0.0002727747901901667,-0.023592539823102943,-7.588452062412543e-05,-0.03623896104347346
93,223.2,758.11,56.6185,-0.000397122,207.207,-1.25544,-0.334007,0.0632078,-0.024209,-0.0374301,0.0486692,-0.000277323,-7.71432e-05,0.0658882,0.06524817480446732,0.04987299530375999,-0.0002772845495312426,-0.023918312634347405,-7.714022453986225e-05,-0.03673825263623587
94,226.3,759.793,56.7522,-0.000405924,207.682,-1.26025,-0.335282,0.0640625,-0.0245424,-0.0379479,0.0493324,-0.000281837,-7.83997e-05,0.0668245,0.06615903161868286,0.050569502010340495,-0.0002817972876836272,-0.02424368402649002,-7.839662682385118e-05,-0.037236900457958466
95,229.4,761.456,56.8844,-0.000414782,208.151,-1.265,-0.336539,0.0649164,-0.0248755,-0.0384653,0.0499951,-0.000286353,-7.96568e-05,0.06776,0.06706981361881614,0.051265945160272386,-0.00028631200489281916,-0.02456865432853239,-7.9653627481302e-05,-0.037734905240714434
96,232.5,763.099,57.0151,-0.000423696,208.615,-1.26968,-0.337779,0.0657694,-0.0252082,-0.0389821,0.0506571,-0.000290871,-8.09146e-05,0.0686948,0.06798041248503606,0.05196211362230496,-0.00029082870113195103,-0.024893126358322193,-8.091132650200894e-05,-0.03823207536186135
97,235.6,764.723,57.1443,-0.000432666,209.073,-1.27429,-0.339001,0.0666217,-0.0255407,-0.0394985,0.0513186,-0.000295391,-8.21729e-05,0.0696287,0.06889104019947312,0.05265821677119931,-0.0002953473763740444,-0.025217295497701908,-8.216952389972221e-05,-0.0387286041033893
98,238.7,766.328,57.272,-0.000441693,209.526,-1.27885,-0.340207,0.0674731,-0.0258728,-0.0400145,0.0519795,-0.000299914,-8.34319e-05,0.0705619,0.06980148155098553,0.053354148531982615,-0.0002998690302921103,-0.02554096708522524,-8.342841965580661e-05,-0.03922449219354207
99,241.8,767.915,57.3983,-0.000450774,209.974,-1.28334,-0.341397,0.0683237,-0.0262047,-0.04053,0.0526399,-0.000304438,-8.46913e-05,0.0714942,0.07071184181252321,0.054050013360948945,-0.0003043916634544175,-0.025864336372148022,-8.468771379310791e-05,-0.039719644331387416
100,244.9,769.483,57.5232,-0.000459911,210.418,-1.28777,-0.342572,0.0691735,-0.0265362,-0.041045,0.0532996,-0.000308964,-8.59513e-05,0.0724258,0.07162211945788655,0.054745599568646774,-0.00030891627553852885,-0.02618720882557468,-8.594760629276887e-05,-0.04021406139123629
101,248.0,771.035,57.6468,-0.000469102,210.856,-1.29215,-0.343731,0.0700225,-0.0268674,-0.0415596,0.0539588,-0.000313492,-8.72117e-05,0.0733566,0.07253231295977525,0.055441117085269775,-0.000313442866517466,-0.0265096822174703,-8.720789717020505e-05,-0.04070784017506668
102,251.0,772.569,57.769,-0.000478347,211.289,-1.29647,-0.344876,0.0708707,-0.0271983,-0.0420737,0.0546174,-0.000318022,-8.84726e-05,0.0742866,0.07344242078979435,0.05613645955612401,-0.00031797143636402847,-0.026831756873433865,-8.84686864148776e-05,-0.041200885526265885
103,254.1,774.086,57.8899,-0.000487647,211.718,-1.30074,-0.346006,0.0717181,-0.0275289,-0.0425873,0.0552754,-0.000322553,-8.97338e-05,0.0752159,0.07435244141845598,0.05683162603120029,-0.0003225009853737859,-0.027153433118598413,-8.972977404297922e-05,-0.04169319831471352
104,257.2,775.587,58.0096,-0.000497,212.142,-1.30495,-0.347123,0.0725647,-0.0278592,-0.0431005,0.0559328,-0.000327085,-9.09955e-05,0.0761443,0.0752623733151847,0.05752661556018168,-0.0003270315135331936,-0.02747471127763046,-9.099136003498653e-05,-0.04218487519026082
105,260.3,777.072,58.128,-0.000506407,212.562,-1.30912,-0.348227,0.0734105,-0.0281892,-0.0436132,0.0565897,-0.000331619,-9.22575e-05,0.077072,0.07617221494832105,0.0582215330145921,-0.00033156402049716593,-0.027795591674731335,-9.225324440764737e-05,-0.042675821140002346
106,263.4,778.541,58.2452,-0.000515868,212.977,-1.31323,-0.349317,0.0742556,-0.0285189,-0.0441255,0.057246,-0.000336154,-9.35198e-05,0.0779988,0.07708207249332832,0.058916271760291794,-0.00033609750657459525,-0.02811607463363719,-9.351542715974048e-05,-0.043166132712799454
107,266.5,779.995,58.3612,-0.000525381,213.388,-1.3173,-0.350394,0.0750998,-0.0288483,-0.0446373,0.0579017,-0.00034069,-9.47824e-05,0.0789249,0.07799172909095309,0.059610830845996166,-0.00034063197175215887,-0.02843616047762021,-9.477790829015564e-05,-0.04365571499128529
108,269.6,781.434,58.4761,-0.000534947,213.795,-1.32132,-0.35146,0.0759432,-0.0291773,-0.0451487,0.0585569,-0.000345227,-9.60453e-05,0.0798502,0.07890129082353492,0.06030531535064565,-0.00034516741601620105,-0.028755752405068224,-9.604068779778263e-05,-0.04414466442361242
109,272.7,782.858,58.5898,-0.000544566,214.198,-1.3253,-0.352513,0.0767858,-0.0295061,-0.0456596,0.0592115,-0.000349765,-9.73085e-05,0.0807747,0.0798107561551189,0.0609996184306798,-0.0003497038393532881,-0.02907504501909508,-9.73037656814002e-05,-0.04463288618768935
110,275.8,784.268,58.7024,-0.000554238,214.596,-1.32923,-0.353555,0.0776277,-0.0298346,-0.04617,0.0598655,-0.000354303,-9.85719e-05,0.0816984,0.08072023162070385,0.061693739133863,-0.00035424024210428673,-0.02939394148519414,-9.856704194988186e-05,-0.04512038114328343
111,278.9,785.664,58.8139,-0.000563961,214.991,-1.33312,-0.354585,0.0784687,-0.0301627,-0.04668,0.0605189,-0.000358843,-9.98355e-05,0.0826213,0.08162949962910204,0.062387676507664525,-0.0003587786235512702,-0.029712345096024162,-9.983051660222841e-05,-0.04560724558791429
112,281.9,787.046,58.9244,-0.000573737,215.382,-1.33697,-0.355604,0.079309,-0.0304906,-0.0471895,0.0611718,-0.000363383,-0.000101099,0.0835434,0.08253877487613193,0.06308153590740928,-0.00036331698439440174,-0.030030450261875008,-0.00010109388966828003,-0.046093384841795704
113,285.0,788.415,59.0338,-0.000583565,215.769,-1.34077,-0.356613,0.0801484,-0.0308181,-0.0476986,0.0618241,-0.000367924,-0.000102363,0.0844648,0.08344783940476863,0.06377521021055932,-0.00036785632426528103,-0.030348063277444215,-0.00010235776108680206,-0.04657889510244961
114,288.1,789.77,59.1421,-0.000593444,216.153,-1.34454,-0.357611,0.0809871,-0.0311454,-0.0482072,0.0624759,-0.000372466,-0.000103627,0.0853853,0.08435690827241937,0.06446880491053153,-0.0003723966431506964,-0.030665378424876932,-0.00010362163090782417,-0.04706368178469711
115,291.2,791.112,59.2495,-0.000603375,216.533,-1.34827,-0.358599,0.081825,-0.0314723,-0.0487154,0.063127,-0.000377008,-0.000104892,0.0863051,0.08526587168290134,0.06516210622916052,-0.00037693694141416323,-0.03098220212501479,-0.00010488649902651304,-0.047547840986340795
116,294.3,792.442,59.3559,-0.000613358,216.909,-1.35196,-0.359577,0.0826622,-0.031799,-0.0492231,0.0637777,-0.000381551,-0.000106156,0.0872241,0.08617483671034365,0.06585543276100747,-0.0003814782186739585,-0.03129872853217652,-0.00010615036565120306,-0.04803127821654685
117,297.4,793.759,59.4613,-0.000623391,217.282,-1.35561,-0.360546,0.0834985,-0.0321253,-0.0497303,0.0644277,-0.000386094,-0.000107421,0.0881423,0.08708358466627741,0.06654846400305514,-0.0003860194753031454,-0.03161476419303433,-0.0001074152305708953,-0.04851399432508208
118,300.5,795.064,59.5657,-0.000633476,217.652,-1.35923,-0.361505,0.0843341,-0.0324514,-0.0502372,0.0650772,-0.000390637,-0.000108685,0.0890597,0.08799233133110507,0.06724141224100544,-0.0003905607113012799,-0.03193050313439838,-0.00010867909399936426,-0.04899618036098319
119,303.6,796.357,59.6693,-0.000643612,218.018,-1.36282,-0.362455,0.0851689,-0.0327771,-0.0507435,0.0657261,-0.00039518,-0.00010995,0.0899763,0.08890096654086865,0.06793416993433388,-0.000395101926668584,-0.032245752028458474,-0.00010994395572028193,-0.049477551725422675
120,306.7,797.638,59.7719,-0.000653799,218.381,-1.36637,-0.363396,0.0860029,-0.0331026,-0.0512494,0.0663744,-0.000399724,-0.000111214,0.0908921,0.0898094887480636,0.06862673612777725,-0.0003996441210054602,-0.03256070477483297,-0.00011120781595230778,-0.04995829941662289
121,309.0,798.598,59.8488,-0.000665463,218.653,-1.36903,-0.364101,0.0866325,-0.0333483,-0.0516314,0.0668639,-0.000403156,-0.00011217,0.0915835,0.0904958488456653,0.06914995696296367,-0.00040307474353973305,-0.03279837541063635,-0.00011216370918076812,-0.05032114603812865
