,Time,S11,S22,S33,S12,S13,S23,LE11,LE22,LE33,LE12,LE13,LE23,SDV_EPBAR,E11,E12,E13,E22,E23,E33
0,0.000309,0.0019383,0.000139163,-7.79048e-12,0.000519365,9.3624e-20,3.36396e-20,9.1292e-09,-2.12864e-09,-3.00057e-09,6.49972e-09,9.45271e-25,4.67314e-25,0.0,9.129200062574228e-09,6.499720095476391e-09,0.0,-2.128640042009522e-09,0.0,-3.0005700146773506e-09
1,0.000618,0.00387659,0.000278327,3.25261e-19,0.00103873,3.61973e-20,-7.40724e-21,1.82584e-08,-4.2578e-09,-6.00057e-09,1.29997e-08,9.27189e-26,4.52981e-25,0.0,1.8258400125148455e-08,1.2999699983140545e-08,0.0,-4.257800001461476e-09,0.0,-6.000569929831556e-09
2,0.0010815,0.00678404,0.000487072,3.25261e-19,0.00181778,-8.55315e-21,3.19208e-20,3.19522e-08,-7.45077e-09,-1.05014e-08,2.27493e-08,2.14063e-25,-7.98907e-25,0.0,3.19522004410544e-08,2.2749300221391877e-08,0.0,-7.45077000097183e-09,0.0,-1.0501399971829528e-08
3,0.0017767,0.0111452,0.00080019,7.58942e-19,0.00298635,8.55315e-21,-3.19208e-20,5.24927e-08,-1.22421e-08,-1.72507e-08,3.73747e-08,4.28159e-25,-1.59792e-24,0.0,5.249270129681349e-08,3.737470066766946e-08,0.0,-1.2242099889370195e-08,0.0,-1.725069986857619e-08
4,0.0028196,0.017687,0.00126987,-2.27682e-18,0.00473921,-1.65988e-27,-4.44764e-28,8.33037e-08,-1.94275e-08,-2.73762e-08,5.93119e-08,1.2845e-24,-4.79383e-24,0.0,8.33037034908557e-08,5.931190183439128e-08,0.0,-1.9427499831081718e-08,0.0,-2.7376199640549714e-08
5,0.0043839,0.0274996,0.00197438,-4.01155e-18,0.00736849,1.71063e-20,-6.38416e-20,1.2952e-07,-3.02058e-08,-4.25643e-08,9.22178e-08,-1.48338e-24,-7.24799e-24,0.0,1.295200084960868e-07,9.221780428170234e-08,0.0,-3.0205799528282284e-08,0.0,-4.256429908533477e-08
6,0.0067304,0.0422185,0.00303115,-4.01155e-18,0.0113124,1.74418e-19,1.1516e-19,1.98845e-07,-4.63759e-08,-6.53437e-08,1.41578e-07,3.19598e-24,8.5636e-25,0.0,1.9884501978317815e-07,1.4157800998226833e-07,0.0,-4.637589889888716e-08,0.0,-6.534369789701344e-08
7,0.01025,0.0642969,0.00461631,8.13152e-18,0.0172283,2.08631e-19,-1.25227e-20,3.02832e-07,-7.06269e-08,-9.95172e-08,2.15616e-07,2.29126e-25,-1.36391e-23,0.0,3.0283204588421597e-07,2.156160232580362e-07,0.0,-7.062689755255036e-08,0.0,-9.951719504019962e-08
8,0.01553,0.0974145,0.00699405,2.92735e-18,0.0261021,-1.49373e-19,3.02101e-19,4.58812e-07,-1.07003e-07,-1.50778e-07,3.26673e-07,-3.42531e-24,1.27835e-23,0.0,4.5881210519738147e-07,3.266730532747175e-07,0.0,-1.0700299424293291e-07,0.0,-1.5077798865004155e-07
9,0.023449,0.147091,0.0105607,6.39679e-18,0.0394129,6.16725e-19,5.07377e-19,6.92782e-07,-1.61575e-07,-2.2766e-07,4.93263e-07,1.27839e-23,3.42544e-24,0.0,6.927822400193406e-07,4.932631216814087e-07,0.0,-1.6157498694546746e-07,0.0,-2.2765997409468497e-07
10,0.035328,0.221605,0.0159106,-7.48099e-18,0.059379,8.22001e-19,-2.58722e-19,1.04374e-06,-2.43427e-07,-3.4299e-07,7.43145e-07,1.27839e-23,3.42544e-24,0.0,1.0437405446594994e-06,7.43145276205226e-07,0.0,-2.4342697035883987e-07,0.0,-3.429899412266124e-07
11,0.053146,0.333377,0.0239354,-3.52366e-17,0.0893282,1.43291e-18,1.54718e-18,1.57017e-06,-3.66206e-07,-5.15985e-07,1.11797e-06,-4.82329e-29,-1.2924e-29,0.0,1.570171232812001e-06,1.1179706249642152e-06,0.0,-3.662059329112566e-07,0.0,-5.159848668334632e-07
12,0.079874,0.501035,0.0359727,-2.13588e-17,0.134252,1.15921e-18,2.56864e-18,2.35982e-06,-5.50367e-07,-7.75483e-07,1.6802e-06,-4.1105e-23,1.53406e-22,0.0,2.3598227842924757e-06,1.6802014115580022e-06,0.0,-5.503668485395963e-07,0.0,-7.754826992778519e-07
13,0.12,0.752521,0.0540286,-7.48099e-18,0.201637,2.25401e-18,-1.51722e-18,3.54429e-06,-8.26616e-07,-1.16472e-06,2.52354e-06,-1.0888e-28,-2.91744e-29,0.0,3.544296280910686e-06,2.523543184196342e-06,0.0,-8.266156583669471e-07,0.0,-1.1647193217667606e-06
14,0.1801,1.12975,0.0811124,2.02746e-17,0.302715,9.8783e-18,2.71531e-18,5.321e-06,-1.241e-06,-1.74857e-06,3.78857e-06,1.53406e-22,4.11051e-23,0.0,5.321014156622894e-06,3.788577176644381e-06,0.0,-1.2409992299344808e-06,0.0,-1.7485684712381655e-06
15,0.2703,1.69559,0.121738,-7.48099e-18,0.454332,-5.51699e-18,2.96936e-18,7.98605e-06,-1.86256e-06,-2.62435e-06,5.6861e-06,6.26956e-28,1.67992e-28,0.0,7.986081888677887e-06,5.686116165914967e-06,0.0,-1.862558265397496e-06,0.0,-2.6243465564013135e-06
16,0.4056,2.54435,0.182676,4.92119e-16,0.681756,-3.36327e-19,-2.16935e-20,1.19836e-05,-2.79488e-06,-3.93804e-06,8.53236e-06,2.19228e-22,-8.18169e-22,0.0,1.1983671803550422e-05,8.532396400751097e-06,0.0,-2.7948760943363737e-06,0.0,-3.938032245964784e-06
17,0.6086,3.81748,0.274083,3.81097e-16,1.02289,-3.36325e-19,-2.16927e-20,1.79799e-05,-4.19337e-06,-5.90853e-06,1.28018e-05,9.49301e-23,4.63893e-22,0.0,1.79800616393333e-05,1.2801881943413917e-05,0.0,-4.1933612078270954e-06,0.0,-5.908512544672284e-06
18,0.913,5.72716,0.411192,4.92119e-16,1.53459,3.23501e-17,8.73662e-18,2.69743e-05,-6.2911e-06,-8.86425e-06,1.92058e-05,4.09074e-22,1.09611e-22,0.0,2.697466380974234e-05,1.920598443261312e-05,0.0,-6.291080211107136e-06,0.0,-8.864210712666853e-06
19,1.37,8.59165,0.616853,-1.28424e-15,2.30213,-3.36733e-19,-2.18022e-20,4.04657e-05,-9.43765e-06,-1.32978e-05,2.88117e-05,4.38461e-22,-1.63636e-21,0.0,4.0466518747450664e-05,2.8812115061116472e-05,0.0,-9.4376054655676e-06,0.0,-1.3297711584647764e-05
20,2.055,12.8883,0.925338,-5.059e-15,3.45341,6.94144e-17,1.1511e-18,6.07025e-05,-1.41574e-05,-1.99479e-05,4.32204e-05,-7.0378e-26,-1.88577e-26,0.0,6.070434243410361e-05,4.322133401490902e-05,0.0,-1.4157299784489652e-05,0.0,-1.994770104196686e-05
21,3.082,19.3331,1.38805,-2.81516e-14,5.18029,7.817e-17,-3.15365e-17,9.10568e-05,-2.12368e-05,-2.99229e-05,6.48327e-05,8.76832e-22,-3.2728e-21,0.0,9.106094579625079e-05,6.483480168495426e-05,0.0,-2.123657450070482e-05,0.0,-2.992245231447921e-05
22,4.623,116.413,8.35811,-1.03265e-09,31.1929,9.83292e-16,7.71529e-16,0.000548295,-0.000127877,-0.000180179,0.000390388,3.49743e-21,-1.3096e-20,0.0,0.0005484453411794821,0.0003904642113123913,0.0,-0.00012786882408488687,0.0,-0.00018016276873877857
23,6.935,262.609,18.8545,-9.04826e-07,70.3658,1.26247e-15,-2.74743e-16,0.00123686,-0.000288468,-0.000406453,0.000880648,1.40118e-20,-5.23908e-20,0.0,0.0012376252267900512,0.0008810358843047705,0.0,-0.0002884263971069112,0.0,-0.00040637040916957634
24,10.03,446.439,32.0927,0.00248926,119.701,-0.011787,-0.00315656,0.00215605,-0.000511242,-0.000723425,0.00153874,-1.52079e-07,-4.07832e-08,5.88627e-05,0.0021583759471202058,0.0015399244678453439,-1.520789884024154e-07,-0.0005111113380762422,-4.078319915112871e-08,-0.0007231633912232471
25,13.12,468.016,33.7933,8.97976e-05,125.761,-0.121053,-0.0323921,0.00307236,-0.000854717,-0.00125145,0.00223587,-2.18774e-06,-5.93858e-07,0.000956963,0.003077084535236807,0.0022383714212652617,-2.1877376068513144e-06,-0.0008543518334702682,-5.938578236941439e-07,-0.0012506672630016036
26,16.21,485.782,35.1923,7.94763e-05,130.752,-0.210326,-0.0562531,0.00398761,-0.00120061,-0.0017839,0.00293357,-4.44582e-06,-1.21194e-06,0.00187392,0.003995571095152917,0.0029378771271957316,-4.4458101173816544e-06,-0.0011998895561666778,-1.2119392656106953e-06,-0.0017823097961235934
27,19.3,500.926,36.3842,3.20309e-05,135.005,-0.284944,-0.0761802,0.00490181,-0.00154802,-0.00231924,0.00363154,-6.8985e-06,-1.88649e-06,0.00280355,0.004913843524620987,0.0036381420308131407,-6.898476205385862e-06,-0.0015468224350708715,-1.8864882205260614e-06,-0.002316552640856173
28,22.39,514.153,37.4246,1.26169e-05,138.719,-0.348704,-0.0931952,0.00581499,-0.00189643,-0.00285654,0.00432958,-9.52435e-06,-2.61095e-06,0.00374216,0.0058319298734976766,0.004338966172661163,-9.524304643515613e-06,-0.0018946329128236572,-2.610946591485863e-06,-0.0028524639716505096
29,25.48,525.916,38.3492,3.46851e-06,142.02,-0.404162,-0.107985,0.00672715,-0.00224549,-0.00339521,0.00502758,-1.23039e-05,-3.37947e-06,0.00468741,0.006749828098029598,0.005040239486964415,-1.2303824307280387e-05,-0.002242970773315367,-3.379464289632317e-06,-0.0033894527920143025
30,28.57,536.522,39.1825,-1.7731e-06,144.996,-0.453098,-0.121029,0.0076383,-0.00259498,-0.00393484,0.00572543,-1.52199e-05,-4.18699e-06,0.00563768,0.007667546229848554,0.00574185159962326,-1.5219784177955553e-05,-0.0025916159499097535,-4.186981234610698e-06,-0.003927108660938816
31,31.66,546.19,39.9418,-5.44541e-06,147.708,-0.49679,-0.132669,0.00854846,-0.00294475,-0.00447516,0.00642306,-1.82575e-05,-5.02917e-06,0.00659185,0.008585102421855728,0.006443732085530174,-1.8257333332827308e-05,-0.0029404184765130514,-5.029157353786395e-06,-0.004465161392171124
32,34.75,555.082,40.6398,-8.51106e-06,150.201,-0.536186,-0.143159,0.00945763,-0.00329467,-0.00501594,0.00712043,-2.14041e-05,-5.90229e-06,0.00754906,0.009502494709005216,0.007145840537205794,-2.1403870933855984e-05,-0.003289248530414235,-5.9022725815705e-06,-0.005003381179828459
33,37.84,563.319,41.2862,-1.13967e-05,152.511,-0.572006,-0.152694,0.0103658,-0.00364468,-0.00555703,0.00781747,-2.46486e-05,-6.80319e-06,0.00850869,0.010419711020752898,0.00784810619908849,-2.4648296225726618e-05,-0.003638046215636459,-6.803166858304621e-06,-0.005541618269820359
34,40.93,570.997,41.8886,-1.43005e-05,154.664,-0.604807,-0.161422,0.011273,-0.00399468,-0.0060983,0.00851416,-2.79815e-05,-7.72913e-06,0.00947023,0.011336779702048272,0.008550508546131041,-2.7981108521424325e-05,-0.003986711879410465,-7.729100130360322e-06,-0.00607974310954551
35,44.02,578.191,42.453,-1.73178e-05,156.68,-0.635029,-0.16946,0.0121793,-0.00434464,-0.00663966,0.00921046,-3.13946e-05,-8.67773e-06,0.0104333,0.012253769696741523,0.00925300681161989,-3.139410719465996e-05,-0.004335215704964979,-8.677692348579846e-06,-0.00661766616166648
36,47.11,584.963,42.9841,-2.04907e-05,158.579,-0.663024,-0.176904,0.0130846,-0.00469452,-0.00718102,0.00990634,-3.48807e-05,-9.64695e-06,0.0113976,0.013170577965095243,0.009955570215559595,-3.48800916754044e-05,-0.00468351796414368,-9.64690346827446e-06,-0.007155298082574535
37,50.2,591.362,43.4859,-2.38389e-05,160.372,-0.689079,-0.183831,0.013989,-0.00504427,-0.00772233,0.0106018,-3.84335e-05,-1.0635e-05,0.0123628,0.014087303916797023,0.010658198212935455,-3.843276144244179e-05,-0.005031569034756989,-1.0634943448550871e-05,-0.007692589414464379
38,53.29,597.43,43.9617,-2.73686e-05,162.073,-0.713431,-0.190302,0.0148924,-0.00539387,-0.00826353,0.0112968,-4.20475e-05,-1.16402e-05,0.0133288,0.015003844326123339,0.011360849803838224,-4.204661601625581e-05,-0.0053793492027067735,-1.164013225318783e-05,-0.008229480889135665
39,56.38,603.201,44.4143,-3.10793e-05,163.69,-0.736275,-0.196372,0.0157948,-0.00574331,-0.00880457,0.0119913,-4.57176e-05,-1.26613e-05,0.0142953,0.015920197191471752,0.012063483875466297,-4.571655496643512e-05,-0.005726848724268985,-1.2661219846110683e-05,-0.008765923279314358
40,59.47,608.705,44.8458,-3.49676e-05,165.233,-0.757777,-0.202083,0.0166963,-0.00609255,-0.00934542,0.0126854,-4.94397e-05,-1.3697e-05,0.0152622,0.01683646219363566,0.012766200989386078,-4.943847787819422e-05,-0.006074028051637592,-1.3696906196569714e-05,-0.009301887278579168
41,62.56,613.967,45.2585,-3.90278e-05,166.708,-0.778078,-0.207475,0.0175969,-0.00644159,-0.00988605,0.0133789,-5.32097e-05,-1.47461e-05,0.0162294,0.017752637603349886,0.013468797947108424,-5.320828438903913e-05,-0.006420887435465428,-1.474599127682108e-05,-0.009837343644330199
42,65.65,619.009,45.6538,-4.3254e-05,168.121,-0.797296,-0.212578,0.0184966,-0.0067904,-0.0104264,0.014072,-5.70242e-05,-1.58078e-05,0.0171968,0.01866872169003364,0.01417147665614249,-5.702257415118872e-05,-0.006767397329147662,-1.580767505737768e-05,-0.010372233508808226
43,68.74,623.849,46.0334,-4.764e-05,169.478,-0.815536,-0.21742,0.0193953,-0.00713898,-0.0109665,0.0147645,-6.088e-05,-1.6881e-05,0.0181642,0.019584610763327293,0.01487403363600448,-6.0878146850407155e-05,-0.007113558013935761,-1.6880857516721193e-05,-0.010906587150299574
44,71.83,628.505,46.3985,-5.21795e-05,170.782,-0.832886,-0.222025,0.0202931,-0.00748732,-0.0115063,0.0154565,-6.47742e-05,-1.7965e-05,0.0191317,0.02050040486532878,0.01557656951666031,-6.47721021967973e-05,-0.0074593598453356336,-1.7964838630368796e-05,-0.011440355697464155
45,74.92,632.99,46.7503,-5.68666e-05,172.04,-0.849424,-0.226414,0.02119,-0.00783541,-0.0120458,0.016148,-6.87043e-05,-1.9059e-05,0.020099,0.021416102261565317,0.016279083580725384,-6.870193991359574e-05,-0.007804793192332293,-1.9058818378381304e-05,-0.01197353978622484
46,78.01,637.317,47.0898,-6.16957e-05,173.253,-0.865219,-0.230605,0.022086,-0.00818324,-0.012585,0.0168389,-7.26679e-05,-2.01625e-05,0.0210662,0.022331701216268707,0.016981473412198467,-7.2665259752136e-05,-0.008149848437354335,-2.016229673817982e-05,-0.01250614005163686
47,81.1,641.498,47.4179,-6.66615e-05,174.425,-0.880332,-0.234614,0.022981,-0.00853081,-0.0131238,0.0175293,-7.66628e-05,-2.12747e-05,0.0220331,0.023247097667664418,0.017683839850437977,-7.665986148264192e-05,-0.008494525891291627,-2.1274473695154228e-05,-0.013038058431697142
48,84.19,645.543,47.7353,-7.1759e-05,175.559,-0.894816,-0.238456,0.0238752,-0.0088781,-0.0136622,0.0182192,-8.06872e-05,-2.23951e-05,0.0229999,0.024162494435298276,0.018386182176678867,-8.068394487537045e-05,-0.008838806041407965,-2.2394849231610614e-05,-0.013569295719127128
49,87.28,649.461,48.0428,-7.69837e-05,176.657,-0.908717,-0.242143,0.0247684,-0.00922512,-0.0142003,0.0189085,-8.47391e-05,-2.35232e-05,0.0239663,0.02507768503860608,0.019088397762851095,-8.473550974386068e-05,-0.009182699126595306,-2.352292333174244e-05,-0.014099951295413637
50,90.37,653.261,48.341,-8.2331e-05,177.723,-0.92208,-0.245687,0.0256608,-0.00957185,-0.014738,0.0195972,-8.88169e-05,-2.46586e-05,0.0249323,0.02599287266071526,0.019790485678613745,-8.881295589591165e-05,-0.009526185657343422,-2.4658295979196332e-05,-0.014629927254796282
51,93.46,656.949,48.6306,-8.77971e-05,178.757,-0.934941,-0.249097,0.0265522,-0.00991831,-0.0152753,0.0202854,-9.29191e-05,-2.58008e-05,0.025898,0.0269078504524205,0.02049254704246395,-9.291478315409663e-05,-0.009869285776394787,-2.5800467162273577e-05,-0.015159224386474213
52,96.55,660.532,48.912,-9.33782e-05,179.762,-0.947336,-0.252384,0.0274427,-0.0102645,-0.0158123,0.0209731,-9.70442e-05,-2.69494e-05,0.0268632,0.027822719178091537,0.021194581133819446,-9.703949136385948e-05,-0.010211999802844818,-2.6949036868173515e-05,-0.015687941909618197
53,99.64,664.017,49.1857,-9.90707e-05,180.74,-0.959295,-0.255554,0.0283324,-0.0106103,-0.0163488,0.0216601,-0.000101191,-2.81041e-05,0.027828,0.02873757996681836,0.021896382852346408,-0.00010118588036345244,-0.010554209321877228,-2.8103705083437625e-05,-0.016215883695736344
54,102.7,667.41,49.4522,-0.000104871,181.691,-0.970847,-0.258616,0.0292211,-0.0109559,-0.0168849,0.0223466,-0.000105358,-2.92644e-05,0.0287923,0.029652225416642475,0.022598155575100476,-0.00010535245004084093,-0.010896102704555988,-2.9263971801585242e-05,-0.016743149014390335
55,105.8,670.714,49.7119,-0.000110777,182.618,-0.982017,-0.261577,0.030109,-0.0113012,-0.0174206,0.0230325,-0.000109545,-3.04301e-05,0.0297562,0.030566859619355347,0.023299796250171312,-0.00010953900016552609,-0.01123758132061603,-3.042963700916612e-05,-0.017269738649836275
56,108.9,673.936,49.9651,-0.000116785,183.522,-0.992827,-0.264442,0.0309959,-0.0116462,-0.0179559,0.0237179,-0.00011375,-3.1601e-05,0.0307194,0.0314812748046267,0.024001406344834164,-0.00011374353071402776,-0.011578645518103392,-3.1600500693618194e-05,-0.01779565338509992
57,112.0,677.079,50.2122,-0.000122892,184.404,-1.0033,-0.267218,0.031882,-0.0119909,-0.0184908,0.0244027,-0.000117972,-3.27766e-05,0.0316822,0.03239567542759669,0.02470288266597831,-0.0001179650415772393,-0.01191929564457117,-3.277606285312373e-05,-0.018320894001977783
58,115.1,680.147,50.4535,-0.000129096,185.265,-1.01346,-0.269909,0.0327672,-0.0123352,-0.0190253,0.0250868,-0.00012221,-3.39568e-05,0.0326444,0.03330995668066672,0.02540412173948714,-0.0001222025326621523,-0.012259433273027809,-3.395622347435179e-05,-0.01884546128103992
59,118.2,683.144,50.6892,-0.000135394,186.106,-1.02331,-0.272521,0.0336515,-0.0126793,-0.0195593,0.0257705,-0.000126464,-3.51412e-05,0.033606,0.03422411681168969,0.026105430252517214,-0.00012645600376537391,-0.012599256332128328,-3.514058255527086e-05,-0.019369257938561257
60,121.3,686.073,50.9197,-0.000141785,186.929,-1.03288,-0.275057,0.0345349,-0.0130231,-0.0200928,0.0264535,-0.000130732,-3.63298e-05,0.034567,0.03513815406729415,0.026806499649325133,-0.00013072345494435922,-0.012938666359874396,-3.632914008078192e-05,-0.019892284909601154
61,124.4,688.938,51.1451,-0.000148265,187.733,-1.04219,-0.277522,0.0354175,-0.0133665,-0.020626,0.027136,-0.000135015,-3.75223e-05,0.0355274,0.03605217029810337,0.027507534286193458,-0.00013500588588499784,-0.013277565029614524,-3.7521596047307426e-05,-0.020414739044636976
62,127.4,691.742,51.3658,-0.000154834,188.52,-1.05124,-0.27992,0.0362992,-0.0137097,-0.0211587,0.0278179,-0.000139311,-3.87184e-05,0.0364872,0.036966060325869465,0.0282084306172683,-0.0001393012966731666,-0.013616150064780785,-3.871765045238007e-05,-0.020936425149717275
63,130.5,694.487,51.5819,-0.000161489,189.291,-1.06004,-0.282253,0.03718,-0.0140525,-0.0216909,0.0284991,-0.000143619,-3.9918e-05,0.0374463,0.03787982239354348,0.028909084815930797,-0.00014360868728502396,-0.013954224499269863,-3.9917203287220815e-05,-0.021457344155409896
64,133.6,697.175,51.7936,-0.000168228,190.046,-1.06862,-0.284526,0.0380599,-0.014395,-0.0222228,0.0291799,-0.000147939,-4.11209e-05,0.0384048,0.03879345474287321,0.029609804618829783,-0.00014792805756569383,-0.01429188734931508,-4.112005454737222e-05,-0.02197769259511806
65,136.7,699.81,52.0012,-0.00017505,190.786,-1.07698,-0.28674,0.038939,-0.0147373,-0.0227541,0.02986,-0.00015227,-4.2327e-05,0.0393626,0.039707059585108784,0.03031028041674655,-0.0001522584075118738,-0.014629237495504044,-4.232610422516547e-05,-0.022497177833568638
66,139.8,702.392,52.2047,-0.000181952,191.512,-1.08514,-0.2889,0.0398172,-0.0150792,-0.023285,0.0305395,-0.000156613,-4.3536e-05,0.0403198,0.0406205313715895,0.03101061416373385,-0.0001566007368242195,-0.014966078173009212,-4.353505232213006e-05,-0.023015996349295964
67,142.9,704.926,52.4044,-0.000188935,192.224,-1.09309,-0.291008,0.0406945,-0.0154208,-0.0238155,0.0312185,-0.000160965,-4.47479e-05,0.0412763,0.04153386834044337,0.03171090809363486,-0.00016095204582944334,-0.01530250829516877,-4.474689882760785e-05,-0.023534148911113495
68,146.0,707.412,52.6004,-0.000195995,192.922,-1.10086,-0.293065,0.041571,-0.0157621,-0.0243455,0.0318969,-0.000165327,-4.59625e-05,0.0422321,0.04244717297332867,0.032411058237762136,-0.00016531333424463224,-0.015638528204028446,-4.596144374047206e-05,-0.024051538691787666
69,149.1,709.852,52.7929,-0.000203132,193.608,-1.10845,-0.295074,0.0424466,-0.016103,-0.0248751,0.0325747,-0.000169699,-4.71797e-05,0.0431871,0.04336033944392326,0.03311106365807337,-0.00016968460193911294,-0.015974039838556275,-4.717858705549638e-05,-0.024568264155916064
70,152.2,712.248,52.9819,-0.000210344,194.282,-1.11586,-0.297038,0.0433213,-0.0164437,-0.0254042,0.0332519,-0.000174079,-4.83993e-05,0.0441415,0.04427336598678,0.03381092341615055,-0.00017406384912999062,-0.016309240378528878,-4.839812877277527e-05,-0.025084228576926604
71,155.3,714.602,53.1677,-0.000217631,194.944,-1.12311,-0.298958,0.0441952,-0.016784,-0.0259329,0.0339285,-0.000178468,-4.96212e-05,0.0450952,0.0451863553539158,0.0345106365732013,-0.00017845207553379705,-0.016643933392781918,-4.9619968888636734e-05,-0.025599530313260677
72,158.3,716.915,53.3503,-0.00022499,195.594,-1.1302,-0.300837,0.0450682,-0.0171241,-0.026461,0.0346045,-0.000182864,-5.08454e-05,0.0460482,0.046099201441481386,0.03521020219006288,-0.00018284728139772444,-0.016978315926062137,-5.0844107394532045e-05,-0.026113975350134266
73,161.4,719.189,53.5298,-0.000232421,196.233,-1.13715,-0.302675,0.0459404,-0.0174638,-0.0269888,0.0352799,-0.000187268,-5.20716e-05,0.0470005,0.04701200718169507,0.03590961932720216,-0.0001872504664425234,-0.017312191680134648,-5.207024429776386e-05,-0.026627856768708713
74,164.5,721.425,53.7064,-0.000239923,196.862,-1.14394,-0.304475,0.0468117,-0.0178032,-0.0275161,0.0359548,-0.00019168,-5.32999e-05,0.047952,0.047924666285753315,0.03660899070561108,-0.00019166163056238972,-0.017645659329617147,-5.329847958557288e-05,-0.02714098060284631
75,167.6,723.624,53.8802,-0.000247494,197.481,-1.1506,-0.306239,0.0476822,-0.0181423,-0.0280429,0.0366291,-0.000196098,-5.453e-05,0.0489028,0.048837281866056736,0.03730821186396405,-0.00019607877404381746,-0.017978719213043726,-5.4528513266594025e-05,-0.027653347764905023
76,170.7,725.788,54.0512,-0.000255134,198.09,-1.15713,-0.307966,0.0485518,-0.0184811,-0.0285692,0.0373028,-0.000200523,-5.5762e-05,0.0498528,0.049749747448901926,0.03800728186158464,-0.00020050289660689113,-0.018311371668466303,-5.57604453285121e-05,-0.02816495916562689
77,173.8,727.917,54.2195,-0.000262842,198.689,-1.16352,-0.30966,0.0494206,-0.0188195,-0.0290951,0.0379758,-0.000204954,-5.69957e-05,0.0508021,0.05066216632685405,0.03870609588682106,-0.00020493299836366052,-0.018643518897813127,-5.6994075775973485e-05,-0.02867591284655502
78,176.9,730.014,54.3853,-0.000270617,199.279,-1.1698,-0.311322,0.0502886,-0.0191577,-0.0296206,0.0386484,-0.000209391,-5.8231e-05,0.0517507,0.05157453699881409,0.03940496461011911,-0.00020936907923452264,-0.01897535754264401,-5.8229304608192756e-05,-0.0291862095621489
79,180.0,732.079,54.5487,-0.000278458,199.86,-1.17595,-0.312951,0.0511557,-0.0194955,-0.0301455,0.0393203,-0.000213833,-5.94679e-05,0.0526985,0.05248675271381398,0.04010357547787957,-0.00021381013935350968,-0.01930669170137589,-5.946613181950777e-05,-0.029695656004833926
80,183.1,734.112,54.7096,-0.000286364,200.433,-1.18199,-0.314551,0.0520219,-0.019833,-0.0306701,0.0399916,-0.000218281,-6.07063e-05,0.0536456,0.053398811694732595,0.040802031418604834,-0.00021825717843571013,-0.019637619845661036,-6.070445740979924e-05,-0.03020454417065721
81,186.2,736.116,54.8681,-0.000294334,200.997,-1.18792,-0.316122,0.0528873,-0.0201702,-0.0311941,0.0406624,-0.000222735,-6.19461e-05,0.0545919,0.05431081759440781,0.041500435639867606,-0.00022271019640141,-0.019968142311029724,-6.194418137994706e-05,-0.030712583871485566
82,189.2,738.09,55.0245,-0.000302368,201.553,-1.19375,-0.317664,0.0537519,-0.0205071,-0.0317177,0.0413325,-0.000227193,-6.31872e-05,0.0555375,0.05522276890704281,0.04219857896858814,-0.00022716719362469995,-0.020298259432533605,-6.318520373094216e-05,-0.031219969917311796
83,192.3,740.036,55.1786,-0.000310466,202.101,-1.19947,-0.31918,0.0546157,-0.0208437,-0.0322408,0.0420021,-0.000231655,-6.44296e-05,0.0564823,0.05613466412566903,0.04289666883146803,-0.00023162817005217828,-0.02062797154474727,-6.442752445789957e-05,-0.031726606228767995
84,195.4,741.955,55.3306,-0.000318625,202.642,-1.20509,-0.320669,0.0554786,-0.02118,-0.0327635,0.0426711,-0.000236122,-6.56732e-05,0.0574263,0.05704639603750339,0.04359460013490701,-0.0002360941253944926,-0.02095727898176747,-6.567104356258735e-05,-0.03223259048118765
85,198.5,743.847,55.4806,-0.000326846,203.175,-1.21062,-0.322133,0.0563406,-0.0215159,-0.0332857,0.0433395,-0.000240593,-6.6918e-05,0.0583696,0.05795796285974375,0.04429237193499458,-0.000240564059825088,-0.02128608420582856,-6.691576104056463e-05,-0.032737826693782
86,201.6,745.713,55.6285,-0.000335128,203.7,-1.21606,-0.323573,0.0572019,-0.0218516,-0.0338074,0.0440073,-0.000245069,-6.81639e-05,0.0593121,0.058869574582387285,0.04498998328747805,-0.00024503897304550826,-0.021614583325698322,-6.816157689415459e-05,-0.033242315762180286
87,204.7,747.554,55.7745,-0.000343471,204.219,-1.22141,-0.32499,0.0580623,-0.0221869,-0.0343287,0.0446746,-0.000249548,-6.94108e-05,0.0602538,0.05978101801109359,0.04568753781651003,-0.0002495168654876867,-0.021942580964032232,-6.940839112612451e-05,-0.03374615520581237
88,207.8,749.371,55.9186,-0.000351874,204.731,-1.22667,-0.326384,0.0589219,-0.0225219,-0.0348495,0.0453412,-0.00025403,-7.06587e-05,0.0611948,0.06069239742893062,0.04638482550938616,-0.00025399773711143325,-0.02227017532429021,-7.065620373281067e-05,-0.034249249191136144
89,210.9,751.164,56.0608,-0.000360335,205.237,-1.23185,-0.327756,0.0597807,-0.0228566,-0.0353698,0.0460073,-0.000258516,-7.19076e-05,0.062135,0.06160371132201781,0.047082054628036385,-0.00025848258761806964,-0.022597366738071667,-7.190501471043831e-05,-0.03475159860924815
90,214.0,752.934,56.2013,-0.000368856,205.736,-1.23695,-0.329106,0.0606386,-0.023191,-0.0358897,0.0466728,-0.000263005,-7.31573e-05,0.0630744,0.06251485192383921,0.04777911965805326,-0.00026297041721679015,-0.022924155536502067,-7.315462406998208e-05,-0.03525330082433964
91,217.1,754.681,56.34,-0.000377435,206.229,-1.24198,-0.330437,0.0614958,-0.0235251,-0.0364091,0.0473377,-0.000267497,-7.44079e-05,0.064013,0.06342603013009374,0.04847601965344306,-0.0002674612258672937,-0.023250542050234246,-7.440513180090313e-05,-0.035754260149492456
92,220.1,756.406,56.4771,-0.000386072,206.715,-1.24692,-0.331747,0.0623521,-0.0238589,-0.0369281,0.048002,-0.000271992,-7.56592e-05,0.0649508,0.06433703182940542,0.049172753667879654,-0.0002719550135293902,-0.02357652660944798,-7.565633791484228e-05,-0.03625457384584041
93,223.2,758.11,56.6124,-0.000394766,207.196,-1.2518,-0.333038,0.0632076,-0.0241923,-0.0374466,0.0486658,-0.00027649,-7.69114e-05,0.0658879,0.06524796175485381,0.049869425741644324,-0.00027645178016244554,-0.023902011934057832,-7.690844239405248e-05,-0.03675414632394414
94,226.3,759.793,56.7462,-0.000403518,207.671,-1.2566,-0.334311,0.0640622,-0.0245255,-0.0379646,0.0493289,-0.000280991,-7.81642e-05,0.0668242,0.0661587117710214,0.05056582502351814,-0.0002809515257263806,-0.024227193605406483,-7.816114525849294e-05,-0.03725297846746911
95,229.4,761.456,56.8784,-0.000412326,208.14,-1.26134,-0.335565,0.0649161,-0.0248583,-0.0384822,0.0499915,-0.000285494,-7.94177e-05,0.0677597,0.06706949349792013,0.05126216060968192,-0.0002854532504660279,-0.024551876765100178,-7.941454649795787e-05,-0.03775116738340034
96,232.5,763.1,57.009,-0.00042119,208.604,-1.26601,-0.336802,0.0657691,-0.0251908,-0.0389993,0.0506535,-0.000289999,-8.06718e-05,0.0686944,0.06798009209096034,0.05195832656551258,-0.00028995695435451996,-0.024876159351108207,-8.066854611776808e-05,-0.038248617627901216
97,235.6,764.723,57.1382,-0.00043011,209.062,-1.27062,-0.338022,0.0666214,-0.025523,-0.0395159,0.051315,-0.000294506,-8.19266e-05,0.0696284,0.06889071953220904,0.05265442720844016,-0.00029446263736498945,-0.02520004169113632,-8.192324410771779e-05,-0.038745330080161455
98,238.7,766.328,57.2659,-0.000439085,209.515,-1.27516,-0.339226,0.0674728,-0.0258549,-0.0400321,0.0519758,-0.000299016,-8.31819e-05,0.0705615,0.06980116061058927,0.05335025112884306,-0.0002989712991714466,-0.02552352411242187,-8.317844048166823e-05,-0.03924140169367529
99,241.8,767.915,57.3922,-0.000448115,209.963,-1.27964,-0.340413,0.0683234,-0.0261865,-0.0405478,0.0526361,-0.000303527,-8.44377e-05,0.0714939,0.07071152059901875,0.05404600797850834,-0.00030348094034038375,-0.025846606941732575,-8.443413523773202e-05,-0.039736737169591696
100,244.9,769.484,57.5171,-0.0004572,210.406,-1.28407,-0.341586,0.0691732,-0.0265178,-0.0410631,0.0532958,-0.00030804,-8.56941e-05,0.0724255,0.07162179797129897,0.05474159154298386,-0.0003079925605504741,-0.02616929050536909,-8.569042836548135e-05,-0.04023143335950807
101,248.0,771.035,57.6406,-0.00046634,210.844,-1.28844,-0.342743,0.0700222,-0.0268488,-0.0415779,0.0539549,-0.000312555,-8.69509e-05,0.0733563,0.07253199120012965,0.0554370008729399,-0.00031250615977462814,-0.026491575129164002,-8.69471198799987e-05,-0.04072539506096384
102,251.0,772.569,57.7628,-0.000475534,211.278,-1.29275,-0.343885,0.0708704,-0.0271795,-0.0420922,0.0546134,-0.000317072,-8.82081e-05,0.0742863,0.07344209875711649,0.05613223501873499,-0.0003170217379858675,-0.02681346113848382,-8.82042097799518e-05,-0.04121862314581015
103,254.1,774.086,57.8837,-0.000484781,211.706,-1.29701,-0.345014,0.0717178,-0.0275098,-0.0426061,0.0552714,-0.00032159,-8.94658e-05,0.0752155,0.07435211911277184,0.0568273987131509,-0.00032153829547876267,-0.02713485157171769,-8.946179805469079e-05,-0.04171121431323421
104,257.2,775.587,58.0034,-0.000494083,212.13,-1.30122,-0.346128,0.0725644,-0.0278399,-0.0431195,0.0559288,-0.000326109,-9.07238e-05,0.0761439,0.07526205073652115,0.05752238546217958,-0.00032605583223976886,-0.027455941358428992,-9.071968472051939e-05,-0.0422030735047475
105,260.3,777.072,58.1217,-0.000503437,212.55,-1.30538,-0.34723,0.0734102,-0.0281697,-0.0436325,0.0565856,-0.00033063,-9.19822e-05,0.0770716,0.07617189209670494,0.058217194315201004,-0.00033057534792502175,-0.02777663350392745,-9.19779697671208e-05,-0.04269429731835872
106,263.4,778.541,58.2389,-0.000512845,212.965,-1.30948,-0.348318,0.0742552,-0.0284991,-0.044145,0.0572419,-0.000335152,-9.32409e-05,0.0779984,0.07708164166058573,0.05891193021247765,-0.00033509584284252547,-0.028096831141405043,-9.323655320236934e-05,-0.04318479079129467
107,266.5,779.995,58.3549,-0.000522305,213.376,-1.31355,-0.349394,0.0750995,-0.0288282,-0.044657,0.0578975,-0.000339675,-9.45e-05,0.0789245,0.07799140569348295,0.05960638048985234,-0.0003396173169787353,-0.02841663184818377,-9.449553501561514e-05,-0.04367455478812732
108,269.6,781.434,58.4698,-0.000531819,213.783,-1.31756,-0.350457,0.0759429,-0.0291571,-0.0451686,0.0585526,-0.000344199,-9.57593e-05,0.0798498,0.07890096715319639,0.06030075604759211,-0.00034413977032010656,-0.02873613307311229,-9.575471522449419e-05,-0.04416368575552754
109,272.7,782.859,58.5835,-0.000541384,214.186,-1.32153,-0.351509,0.0767855,-0.0294856,-0.0456797,0.0592072,-0.000348724,-9.70189e-05,0.0807743,0.0798104322119404,0.0609950561421293,-0.00034866320285331653,-0.029055140853501138,-9.70141938186897e-05,-0.04465208887368943
110,275.8,784.268,58.696,-0.000551002,214.585,-1.32545,-0.352548,0.0776273,-0.0298138,-0.0461904,0.0598611,-0.00035325,-9.82787e-05,0.081698,0.0807197993326978,0.06168906769168814,-0.00035318761456504255,-0.029373752669214048,-9.82738708067421e-05,-0.04513986048881802
111,278.9,785.664,58.8075,-0.000560672,214.979,-1.32933,-0.353577,0.0784684,-0.0301418,-0.0467006,0.0605145,-0.000357777,-9.95387e-05,0.0826209,0.08162917514030088,0.06238300201217184,-0.00035771300544151785,-0.029692065872119477,-9.953374618798527e-05,-0.04562690587615337
112,281.9,787.046,58.918,-0.000570394,215.37,-1.33317,-0.354595,0.0793086,-0.0304694,-0.0472104,0.0611674,-0.000362305,-0.000100799,0.083543,0.08253834186070841,0.06307685835894183,-0.0003622393754691977,-0.030009886689447485,-0.00010079391995143627,-0.04611332128171597
113,285.0,788.415,59.0273,-0.000580167,215.758,-1.33697,-0.355601,0.0801481,-0.0307967,-0.0477197,0.0618196,-0.000366833,-0.000102059,0.0844643,0.08344751437046583,0.06377042323288418,-0.0003667657250016054,-0.03032731250396592,-0.00010205379215744159,-0.0465990120755283
114,288.1,789.77,59.1357,-0.000589992,216.141,-1.34074,-0.356598,0.0809868,-0.0311237,-0.0482286,0.0624713,-0.000371362,-0.00010332,0.0853849,0.08435658296539561,0.06446390836529092,-0.00037129305366745413,-0.03064434363536217,-0.00010331466267254896,-0.0470840744037051
115,291.2,791.113,59.243,-0.000599868,216.521,-1.34446,-0.357584,0.0818247,-0.0314504,-0.048737,0.0631224,-0.000375891,-0.000104581,0.0863046,0.0852655461031886,0.065157206494741,-0.0003758203618291489,-0.030960980402864213,-0.00010457553159781696,-0.047568413730789016
116,294.3,792.442,59.3494,-0.000609796,216.897,-1.34814,-0.358561,0.0826618,-0.0317768,-0.0492449,0.063773,-0.000380421,-0.000105841,0.0872236,0.08617440224049577,0.06585042325224566,-0.0003803486491064101,-0.031277223125240616,-0.0001058353990389671,-0.04805203090847665
117,297.4,793.76,59.4548,-0.000619775,217.27,-1.35179,-0.359527,0.0834982,-0.0321029,-0.0497524,0.064423,-0.000384951,-0.000107102,0.0881418,0.0870832585412511,0.06654345123705441,-0.0003848769158704135,-0.03159307212080187,-0.00010709626478555556,-0.04853502193345183
118,300.5,795.064,59.5592,-0.000629804,217.64,-1.3554,-0.360485,0.0843337,-0.0324288,-0.0502594,0.0650724,-0.000389481,-0.000108363,0.0890592,0.08799189613425962,0.06723628949452132,-0.00038940516212149223,-0.03190862451654175,-0.00010835712894219363,-0.04901729241143449
119,303.6,796.357,59.6628,-0.000639885,218.006,-1.35898,-0.361433,0.0851685,-0.0327543,-0.050766,0.0657212,-0.000394012,-0.000109624,0.0899758,0.08890053098056905,0.06792893706972158,-0.00039393438746559983,-0.03222368698006406,-0.0001096179915088813,-0.049498938239909696
120,306.7,797.639,59.7654,-0.000650016,218.369,-1.36253,-0.362373,0.0860025,-0.0330795,-0.0512722,0.0663695,-0.000398543,-0.000110886,0.0908916,0.08980905282435514,0.06862149986959887,-0.000398463592288123,-0.03253835666899352,-0.00011087985237467901,-0.04997996012046302
121,309.0,798.599,59.8423,-0.000661622,218.641,-1.36518,-0.363076,0.0866321,-0.033325,-0.0516543,0.066859,-0.000401966,-0.000111838,0.0915831,0.09049541264741312,0.06914471814100964,-0.0004018852224909608,-0.03277583935023942,-0.0001118317463639773,-0.050342893434875746
