,Time,S11,S22,S33,S12,S13,S23,LE11,LE22,LE33,LE12,LE13,LE23,SDV_EPBAR,E11,E12,E13,E22,E23,E33
0,0.000309,0.0019383,0.000139163,-7.79048e-12,0.000519365,9.3624e-20,3.36396e-20,9.1292e-09,-2.12864e-09,-3.00057e-09,6.49972e-09,9.45271e-25,4.67314e-25,0.0,9.129200062574228e-09,6.499720095476391e-09,0.0,-2.128640042009522e-09,0.0,-3.0005700146773506e-09
1,0.000618,0.00387659,0.000278327,3.25261e-19,0.00103873,3.61973e-20,-7.40724e-21,1.82584e-08,-4.2578e-09,-6.00057e-09,1.29997e-08,9.27189e-26,4.52981e-25,0.0,1.8258400125148455e-08,1.2999699983140545e-08,0.0,-4.257800001461476e-09,0.0,-6.000569929831556e-09
2,0.0010815,0.00678404,0.000487072,3.25261e-19,0.00181778,-8.55315e-21,3.19208e-20,3.19522e-08,-7.45077e-09,-1.05014e-08,2.27493e-08,2.14063e-25,-7.98907e-25,0.0,3.19522004410544e-08,2.2749300221391877e-08,0.0,-7.45077000097183e-09,0.0,-1.0501399971829528e-08
3,0.0017767,0.0111452,0.00080019,7.58942e-19,0.00298635,8.55315e-21,-3.19208e-20,5.24927e-08,-1.22421e-08,-1.72507e-08,3.73747e-08,4.28159e-25,-1.59792e-24,0.0,5.249270129681349e-08,3.737470066766946e-08,0.0,-1.2242099889370195e-08,0.0,-1.725069986857619e-08
4,0.0028196,0.017687,0.00126987,-2.27682e-18,0.00473921,-1.65988e-27,-4.44764e-28,8.33037e-08,-1.94275e-08,-2.73762e-08,5.93119e-08,1.2845e-24,-4.79383e-24,0.0,8.33037034908557e-08,5.931190183439128e-08,0.0,-1.9427499831081718e-08,0.0,-2.7376199640549714e-08
5,0.0043839,0.0274996,0.00197438,-4.01155e-18,0.00736849,1.71063e-20,-6.38416e-20,1.2952e-07,-3.02058e-08,-4.25643e-08,9.22178e-08,-1.48338e-24,-7.24799e-24,0.0,1.295200084960868e-07,9.221780428170234e-08,0.0,-3.0205799528282284e-08,0.0,-4.256429908533477e-08
6,0.0067304,0.0422185,0.00303115,-4.01155e-18,0.0113124,1.74418e-19,1.1516e-19,1.98845e-07,-4.63759e-08,-6.53437e-08,1.41578e-07,3.19598e-24,8.5636e-25,0.0,1.9884501978317815e-07,1.4157800998226833e-07,0.0,-4.637589889888716e-08,0.0,-6.534369789701344e-08
7,0.01025,0.0642969,0.00461631,8.13152e-18,0.0172283,2.08631e-19,-1.25227e-20,3.02832e-07,-7.06269e-08,-9.95172e-08,2.15616e-07,2.29126e-25,-1.36391e-23,0.0,3.0283204588421597e-07,2.156160232580362e-07,0.0,-7.062689755255036e-08,0.0,-9.951719504019962e-08
8,0.01553,0.0974145,0.00699405,2.92735e-18,0.0261021,-1.49373e-19,3.02101e-19,4.58812e-07,-1.07003e-07,-1.50778e-07,3.26673e-07,-3.42531e-24,1.27835e-23,0.0,4.5881210519738147e-07,3.266730532747175e-07,0.0,-1.0700299424293291e-07,0.0,-1.5077798865004155e-07
9,0.023449,0.147091,0.0105607,6.39679e-18,0.0394129,6.16725e-19,5.07377e-19,6.92782e-07,-1.61575e-07,-2.2766e-07,4.93263e-07,1.27839e-23,3.42544e-24,0.0,6.927822400193406e-07,4.932631216814087e-07,0.0,-1.6157498694546746e-07,0.0,-2.2765997409468497e-07
10,0.035328,0.221605,0.0159106,-7.48099e-18,0.059379,8.22001e-19,-2.58722e-19,1.04374e-06,-2.43427e-07,-3.4299e-07,7.43145e-07,1.27839e-23,3.42544e-24,0.0,1.0437405446594994e-06,7.43145276205226e-07,0.0,-2.4342697035883987e-07,0.0,-3.429899412266124e-07
11,0.053146,0.333377,0.0239354,-3.52366e-17,0.0893282,1.43291e-18,1.54718e-18,1.57017e-06,-3.66206e-07,-5.15985e-07,1.11797e-06,-4.82329e-29,-1.2924e-29,0.0,1.570171232812001e-06,1.1179706249642152e-06,0.0,-3.662059329112566e-07,0.0,-5.159848668334632e-07
12,0.079874,0.501035,0.0359727,-2.13588e-17,0.134252,1.15921e-18,2.56864e-18,2.35982e-06,-5.50367e-07,-7.75483e-07,1.6802e-06,-4.1105e-23,1.53406e-22,0.0,2.3598227842924757e-06,1.6802014115580022e-06,0.0,-5.503668485395963e-07,0.0,-7.754826992778519e-07
13,0.12,0.752521,0.0540286,-7.48099e-18,0.201637,2.25401e-18,-1.51722e-18,3.54429e-06,-8.26616e-07,-1.16472e-06,2.52354e-06,-1.0888e-28,-2.91744e-29,0.0,3.544296280910686e-06,2.523543184196342e-06,0.0,-8.266156583669471e-07,0.0,-1.1647193217667606e-06
14,0.1801,1.12975,0.0811124,2.02746e-17,0.302715,9.8783e-18,2.71531e-18,5.321e-06,-1.241e-06,-1.74857e-06,3.78857e-06,1.53406e-22,4.11051e-23,0.0,5.321014156622894e-06,3.788577176644381e-06,0.0,-1.2409992299344808e-06,0.0,-1.7485684712381655e-06
15,0.2703,1.69559,0.121738,-7.48099e-18,0.454332,-5.51699e-18,2.96936e-18,7.98605e-06,-1.86256e-06,-2.62435e-06,5.6861e-06,6.26956e-28,1.67992e-28,0.0,7.986081888677887e-06,5.686116165914967e-06,0.0,-1.862558265397496e-06,0.0,-2.6243465564013135e-06
16,0.4056,2.54435,0.182676,4.92119e-16,0.681756,-3.36327e-19,-2.16935e-20,1.19836e-05,-2.79488e-06,-3.93804e-06,8.53236e-06,2.19228e-22,-8.18169e-22,0.0,1.1983671803550422e-05,8.532396400751097e-06,0.0,-2.7948760943363737e-06,0.0,-3.938032245964784e-06
17,0.6086,3.81748,0.274083,3.81097e-16,1.02289,-3.36325e-19,-2.16927e-20,1.79799e-05,-4.19337e-06,-5.90853e-06,1.28018e-05,9.49301e-23,4.63893e-22,0.0,1.79800616393333e-05,1.2801881943413917e-05,0.0,-4.1933612078270954e-06,0.0,-5.908512544672284e-06
18,0.913,5.72716,0.411192,4.92119e-16,1.53459,3.23501e-17,8.73662e-18,2.69743e-05,-6.2911e-06,-8.86425e-06,1.92058e-05,4.09074e-22,1.09611e-22,0.0,2.697466380974234e-05,1.920598443261312e-05,0.0,-6.291080211107136e-06,0.0,-8.864210712666853e-06
19,1.37,8.59165,0.616853,-1.28424e-15,2.30213,-3.36733e-19,-2.18022e-20,4.04657e-05,-9.43765e-06,-1.32978e-05,2.88117e-05,4.38461e-22,-1.63636e-21,0.0,4.0466518747450664e-05,2.8812115061116472e-05,0.0,-9.4376054655676e-06,0.0,-1.3297711584647764e-05
20,2.055,12.8883,0.925338,-5.059e-15,3.45341,6.94144e-17,1.1511e-18,6.07025e-05,-1.41574e-05,-1.99479e-05,4.32204e-05,-7.0378e-26,-1.88577e-26,0.0,6.070434243410361e-05,4.322133401490902e-05,0.0,-1.4157299784489652e-05,0.0,-1.994770104196686e-05
21,3.082,19.3331,1.38805,-2.81516e-14,5.18029,7.817e-17,-3.15365e-17,9.10568e-05,-2.12368e-05,-2.99229e-05,6.48327e-05,8.76832e-22,-3.2728e-21,0.0,9.106094579625079e-05,6.483480168495426e-05,0.0,-2.123657450070482e-05,0.0,-2.992245231447921e-05
22,4.623,116.413,8.35811,-1.03265e-09,31.1929,9.83292e-16,7.71529e-16,0.000548295,-0.000127877,-0.000180179,0.000390388,3.49743e-21,-1.3096e-20,0.0,0.0005484453411794821,0.0003904642113123913,0.0,-0.00012786882408488687,0.0,-0.00018016276873877857
23,6.935,262.609,18.8545,-9.04826e-07,70.3658,1.26247e-15,-2.74743e-16,0.00123686,-0.000288468,-0.000406453,0.000880648,1.40118e-20,-5.23908e-20,0.0,0.0012376252267900512,0.0008810358843047705,0.0,-0.0002884263971069112,0.0,-0.00040637040916957634
24,10.03,446.431,32.0918,0.00253529,119.699,-0.0117158,-0.00313748,0.00215605,-0.000511214,-0.000723471,0.00153873,-1.51164e-07,-4.05377e-08,5.89071e-05,0.0021583759471202058,0.0015399144524461672,-1.5116398854875257e-07,-0.0005110833523869207,-4.053769919742933e-08,-0.0007232093579566667
25,13.12,468.007,33.7914,9.02048e-05,125.757,-0.120266,-0.0321816,0.00307235,-0.000854144,-0.00125203,0.00223575,-2.17352e-06,-5.89997e-07,0.000956993,0.0030770745044659265,0.0022382511526679583,-2.173517637871214e-06,-0.0008537793228499124,-5.899968259504007e-07,-0.0012512465374464599
26,16.21,485.773,35.1896,8.02777e-05,130.746,-0.208951,-0.0558853,0.00398759,-0.00119948,-0.00178503,0.00293333,-4.41675e-06,-1.20402e-06,0.00187394,0.003995551015241627,0.002937636422134071,-4.416740246204753e-06,-0.0011987609114042508,-1.2040192751694434e-06,-0.0017834377814763824
27,19.3,500.917,36.3808,3.2371e-05,134.998,-0.283082,-0.0756823,0.00490179,-0.00154633,-0.00232093,0.00363117,-6.85339e-06,-1.87416e-06,0.00280355,0.004913823426344388,0.003637770684769226,-6.853366515624515e-06,-0.0015451350477749815,-1.8741582437087345e-06,-0.0023182387244575775
28,22.39,514.144,37.4206,1.27792e-05,138.71,-0.34643,-0.0925874,0.00581496,-0.00189416,-0.0028588,0.00432909,-9.46213e-06,-2.59389e-06,0.00374214,0.005831899698540033,0.004338474046688301,-9.462085234224205e-06,-0.0018923672110686685,-2.593886635815501e-06,-0.0028547175225354104
29,25.48,525.907,38.3448,3.56736e-06,142.01,-0.401534,-0.107283,0.00672711,-0.00224265,-0.00339803,0.00502696,-1.22236e-05,-3.35742e-06,0.00468737,0.006749787828037146,0.005039616362209287,-1.2223525292065496e-05,-0.0022401371393286906,-3.357414363858169e-06,-0.0033922632297948008
30,28.57,536.513,39.1776,-1.68938e-06,144.985,-0.450159,-0.120244,0.00763826,-0.00259157,-0.00393824,0.00572468,-1.51207e-05,-4.15972e-06,0.00563763,0.007667505923147688,0.005741097293517461,-1.5120585682759646e-05,-0.0025882147815211587,-4.159711348372674e-06,-0.003930495303012038
31,31.66,546.181,39.9365,-5.35343e-06,147.697,-0.493578,-0.131811,0.00854841,-0.00294076,-0.00447912,0.00642219,-1.81388e-05,-4.99647e-06,0.00659177,0.008585051992602066,0.006442856479863979,-1.8138635492936928e-05,-0.0029364402008461576,-4.996457517614239e-06,-0.004469103702326116
32,34.75,555.072,40.6341,-8.39808e-06,150.189,-0.53273,-0.142236,0.00945757,-0.0032901,-0.00502048,0.00711942,-2.12652e-05,-5.86398e-06,0.00754896,0.009502434138857208,0.007144823320420546,-2.126497389720594e-05,-0.0032846935518719977,-5.863962806884615e-06,-0.00500789845422378
33,37.84,563.309,41.2802,-1.12549e-05,152.498,-0.56833,-0.151712,0.0103658,-0.00363952,-0.00556215,0.00781632,-2.44889e-05,-6.75911e-06,0.00850857,0.010419711020752898,0.007846947174432684,-2.4488600149363826e-05,-0.0036329049746904873,-6.759087157304222e-06,-0.005546709883700207
34,40.93,570.987,41.8823,-1.41246e-05,154.651,-0.600931,-0.160387,0.011273,-0.00398895,-0.006104,0.00851287,-2.78005e-05,-7.67913e-06,0.00947009,0.011336779702048272,0.008549207516814317,-2.7800113569731444e-05,-0.003981004706918645,-7.679100515578519e-06,-0.0060854084388636265
35,44.02,578.182,42.4464,-1.71038e-05,156.667,-0.63097,-0.168377,0.0121792,-0.00433832,-0.00664593,0.00920903,-3.11919e-05,-8.62169e-06,0.0104331,0.01225366847136966,0.009251563580852107,-3.119141353769006e-05,-0.004328923083643521,-8.621652833329385e-06,-0.006623894649373296
36,47.11,584.954,42.9772,-2.02354e-05,158.565,-0.658799,-0.175777,0.0130845,-0.00468761,-0.00718788,0.00990478,-3.46559e-05,-9.58475e-06,0.0113974,0.013170476648042495,0.009953994686098921,-3.465529949120416e-05,-0.004676640303490576,-9.5847040664232e-06,-0.007162108973868264
37,50.2,591.353,43.4788,-2.35395e-05,160.358,-0.6847,-0.182662,0.0139889,-0.00503678,-0.00772977,0.0106001,-3.81862e-05,-1.05665e-05,0.0123626,0.014087202508071606,0.010656480095458942,-3.8185470916385356e-05,-0.005024116693300051,-1.0566444174742173e-05,-0.007699972154135315
38,53.29,597.421,43.9544,-2.70227e-05,162.058,-0.708909,-0.189096,0.0148923,-0.0053858,-0.00827155,0.0112949,-4.17773e-05,-1.15654e-05,0.0133285,0.015003742825743682,0.011358928220049025,-4.177642734071174e-05,-0.005371322581667504,-1.1565333120966415e-05,-0.008237434856803505
39,56.38,603.192,44.4067,-3.06849e-05,163.675,-0.731621,-0.19513,0.0157947,-0.00573465,-0.00881317,0.0119893,-4.54244e-05,-1.25801e-05,0.014295,0.015920095599457174,0.01206145975052264,-4.542336832757954e-05,-0.005718238281495869,-1.2580020870900377e-05,-0.008774447855718348
40,59.47,608.696,44.8381,-3.45225e-05,165.217,-0.753,-0.200809,0.0166962,-0.00608331,-0.0093546,0.0126832,-4.91231e-05,-1.36092e-05,0.015262,0.016836360509994375,0.012763972906194798,-4.912189348027507e-05,-0.006064844133227165,-1.3609107395229358e-05,-0.009310981845509714
41,62.56,613.958,45.2505,-3.85302e-05,166.692,-0.773185,-0.20617,0.0175968,-0.00643176,-0.00989581,0.0133766,-5.28695e-05,-1.46518e-05,0.0162291,0.017752535828091,0.013466466971553626,-5.286810243265716e-05,-0.00641112050478454,-1.465169266290367e-05,-0.009847007584696144
42,65.65,619.0,45.6457,-4.27021e-05,168.105,-0.792295,-0.211244,0.0184965,-0.00677999,-0.0104368,0.0140695,-5.66601e-05,-1.57068e-05,0.0171965,0.018668619823166477,0.014168941230620069,-5.66584948468174e-05,-0.0067570577239363105,-1.570667664885228e-05,-0.010382525584060831
43,68.74,623.84,46.0251,-4.70321e-05,169.461,-0.810433,-0.216059,0.0193952,-0.00712799,-0.0109774,0.0147619,-6.04919e-05,-1.67733e-05,0.0181639,0.019584508804871392,0.014871394966947227,-6.049007040187515e-05,-0.007102646131977752,-1.6773159329019904e-05,-0.010917368209742873
44,71.83,628.495,46.3901,-5.15141e-05,170.765,-0.827688,-0.220639,0.020293,-0.00747574,-0.0115178,0.0154538,-6.43619e-05,-1.78506e-05,0.0191313,0.02050030281529347,0.015573827463624568,-6.435982881736191e-05,-0.007447866158174388,-1.785044067903474e-05,-0.01145172406800532
45,74.92,632.98,46.7417,-5.61422e-05,172.022,-0.844136,-0.225004,0.0211899,-0.00782325,-0.0120579,0.0161451,-6.82676e-05,-1.89379e-05,0.0200986,0.021416000119960366,0.016276136375656503,-6.826526982040004e-05,-0.007792728025261542,-1.8937720679068626e-05,-0.011985494834065302
46,78.01,637.307,47.0811,-6.09108e-05,173.235,-0.859846,-0.229172,0.0220859,-0.00817049,-0.0125976,0.0168359,-7.22067e-05,-2.00345e-05,0.0210658,0.022331598983103662,0.016978422472354593,-7.220409315900067e-05,-0.008137202267302746,-2.0034299310744963e-05,-0.012518582395885214
47,81.1,641.489,47.409,-6.58147e-05,174.407,-0.874878,-0.23316,0.0229809,-0.00851748,-0.013137,0.0175262,-7.61769e-05,-2.11398e-05,0.0220327,0.02324699534295971,0.017680685035424526,-7.617399861359342e-05,-0.008481309035231699,-2.1139576556028494e-05,-0.01305108624334217
48,84.19,645.534,47.7262,-7.08491e-05,175.541,-0.889285,-0.236981,0.0238751,-0.00886418,-0.0136761,0.0182159,-8.01765e-05,-2.22533e-05,0.0229994,0.024162392019054124,0.018382821507822777,-8.017328595033568e-05,-0.0088250089815608,-2.225305239711428e-05,-0.013583007010622872
49,87.28,649.452,48.0336,-7.60093e-05,176.639,-0.903113,-0.240649,0.0247683,-0.00921062,-0.0142147,0.018905,-8.42035e-05,-2.33745e-05,0.0239658,0.02507758253084269,0.019084830959700927,-8.419995498476496e-05,-0.009168332171572313,-2.3374226818528854e-05,-0.014114148153897332
50,90.37,653.251,48.3317,-8.1291e-05,177.704,-0.916407,-0.244175,0.0256606,-0.00955677,-0.014753,0.0195936,-8.82563e-05,-2.45029e-05,0.0249318,0.025992667462161334,0.0197868144394735,-8.825240552734481e-05,-0.009511249199602445,-2.4502599806353054e-05,-0.014644707695033898
51,93.46,656.939,48.6212,-8.66902e-05,178.738,-0.929202,-0.247567,0.0265521,-0.00990264,-0.0152909,0.0202817,-9.23334e-05,-2.56381e-05,0.0258975,0.0269077477616404,0.020488771227025193,-9.232913740275794e-05,-0.009853770306539555,-2.5637771346675997e-05,-0.015174587782739057
52,96.55,660.523,48.9025,-9.22033e-05,179.743,-0.941534,-0.250837,0.0274426,-0.0102482,-0.0158284,0.0209692,-9.64334e-05,-2.67797e-05,0.0268627,0.02782261639582484,0.021190598482719203,-9.642875044912902e-05,-0.010195866126952557,-2.677934142703009e-05,-0.015703789206182428
53,99.64,664.008,49.1761,-9.78267e-05,180.72,-0.953433,-0.253992,0.0283322,-0.0105935,-0.0163656,0.0216561,-0.000100555,-2.79273e-05,0.0278275,0.028737374219323097,0.021892295274990037,-0.00010054994451536015,-0.010537586492962214,-2.7926910036613073e-05,-0.016232411130059465
54,102.7,667.4,49.4425,-0.000103557,181.672,-0.964927,-0.257039,0.029221,-0.0109385,-0.0169023,0.0223424,-0.000104697,-2.90806e-05,0.0287918,0.029652122451425234,0.022593860671866528,-0.00010469151946035371,-0.010878892147011654,-2.9080177163409715e-05,-0.016760257534752965
55,105.8,670.705,49.7021,-0.000109392,182.599,-0.976042,-0.259985,0.0301088,-0.0112832,-0.0174385,0.0230282,-0.000108858,-3.02393e-05,0.0297556,0.03056665350600385,0.02329539607050779,-0.00010885207518285256,-0.011219783436899222,-3.0238842796959098e-05,-0.017287329364077064
56,108.9,673.926,49.9552,-0.000115327,183.502,-0.9868,-0.262836,0.0309958,-0.0116276,-0.0179744,0.0237134,-0.000113037,-3.1403e-05,0.0307188,0.031481171656504214,0.023996798348873583,-0.00011303061155898408,-0.011560260709931991,-3.1402506930899854e-05,-0.017813823997433587
57,112.0,677.069,50.2021,-0.000121361,184.384,-0.997223,-0.265598,0.0318819,-0.0119717,-0.0185099,0.024398,-0.000117234,-3.25715e-05,0.0316816,0.03239557218803424,0.024698066573747735,-0.00011722712836315097,-0.011900324312923316,-3.257096955444627e-05,-0.01833964389384035
58,115.1,680.137,50.4433,-0.000127491,185.245,-1.00733,-0.268277,0.0327671,-0.0123155,-0.0190449,0.0250821,-0.000121447,-3.37446e-05,0.0326437,0.033309853349676066,0.025399302351440722,-0.00012143962561161903,-0.012239974592195946,-3.374403065736775e-05,-0.018864691721539817
59,118.2,683.134,50.6789,-0.000133715,186.086,-1.01714,-0.270876,0.0336514,-0.012659,-0.0195795,0.0257655,-0.000125675,-3.49219e-05,0.0336053,0.03422401338928327,0.026100299738192057,-0.00012566710322792218,-0.012579211893581466,-3.4921290237521774e-05,-0.019389066479483907
60,121.3,686.064,50.9093,-0.00014003,186.908,-1.02667,-0.2734,0.0345348,-0.0130022,-0.0201136,0.0264484,-0.000129918,-3.61034e-05,0.0345663,0.03513805055348396,0.02680126294953067,-0.00012990956102210127,-0.012918036562420632,-3.610274828014237e-05,-0.019912670938059596
61,124.4,688.929,51.1347,-0.000146434,187.712,-1.03593,-0.275854,0.0354174,-0.013345,-0.0206474,0.0271307,-0.000134175,-3.72887e-05,0.0355267,0.03605206669289163,0.027502088510692912,-0.00013416599893723014,-0.013256350269204575,-3.728800478508543e-05,-0.020435701944917617
62,127.4,691.732,51.3553,-0.000152925,188.5,-1.04494,-0.27824,0.036299,-0.0136876,-0.0211806,0.0278125,-0.000138445,-3.84776e-05,0.0364864,0.03696585293267818,0.02820287830673407,-0.00013843541693314698,-0.013594350740815608,-3.8476859746672254e-05,-0.020957866407223746
63,130.5,694.477,51.5713,-0.000159502,189.27,-1.0537,-0.280563,0.0371798,-0.0140299,-0.0217135,0.0284936,-0.000142727,-3.96701e-05,0.0374456,0.03787961481759994,0.028903425831526608,-0.00014271681498623234,-0.013931939612925492,-3.9669313152024266e-05,-0.021479458969533627
64,133.6,697.165,51.783,-0.000166162,190.025,-1.06224,-0.282826,0.0380598,-0.0143718,-0.0222459,0.0291742,-0.000147022,-4.08659e-05,0.038404,0.03879335086353297,0.029603935859669583,-0.00014701119279536545,-0.01426901865582575,-4.086506500045051e-05,-0.022000284649479895
65,136.7,699.8,51.9904,-0.000172904,190.765,-1.07057,-0.285031,0.0389388,-0.0147135,-0.0227778,0.0298541,-0.000151328,-4.20648e-05,0.0393618,0.03970685164371757,0.030304201604024472,-0.00015131655049571702,-0.014605785392277526,-4.206391528871478e-05,-0.022520344375929424
66,139.8,702.383,52.1939,-0.000179726,191.491,-1.07869,-0.287181,0.039817,-0.0150548,-0.0233093,0.0305335,-0.000155644,-4.32666e-05,0.040319,0.040620323247503975,0.03100442811860682,-0.00015563188810097106,-0.014942043052089238,-4.326566401413601e-05,-0.02303973677213733
67,142.9,704.916,52.3935,-0.000186627,192.202,-1.08661,-0.28928,0.0406943,-0.0153958,-0.0238404,0.0312123,-0.000159971,-4.44714e-05,0.0412754,0.041533660033690856,0.03170451150583409,-0.00015995820532177518,-0.015277890550155604,-4.447041116195649e-05,-0.023558462608098796
68,146.0,707.402,52.5894,-0.000193606,192.901,-1.09434,-0.291328,0.0415708,-0.0157365,-0.024371,0.0318906,-0.000164307,-4.56788e-05,0.0422312,0.04244696448391494,0.032404554068583336,-0.00016429350234403728,-0.015613328227792156,-4.567775673947061e-05,-0.02407642506024832
69,149.1,709.842,52.7818,-0.00020066,193.586,-1.1019,-0.293329,0.0424464,-0.0160769,-0.0249011,0.0325682,-0.000168653,-4.68888e-05,0.0431863,0.04336013077187628,0.03310434845798382,-0.0001686387788821797,-0.015948356425829036,-4.688770073735249e-05,-0.024593625051354873
70,152.2,712.238,52.9708,-0.00020779,194.26,-1.10928,-0.295285,0.0433212,-0.016417,-0.0254308,0.0332452,-0.000173007,-4.81012e-05,0.0441406,0.04427326155944877,0.0338039969061672,-0.00017299203515197537,-0.016282975484612217,-4.8100043155807626e-05,-0.02511016099154384
71,155.3,714.592,53.1565,-0.000214992,194.921,-1.1165,-0.297197,0.044195,-0.0167568,-0.02596,0.0339217,-0.00017737,-4.93159e-05,0.0450943,0.04518614631666562,0.03450360192479063,-0.00017735427087139932,-0.016617185744003837,-4.9314683990941965e-05,-0.02562593620818776
72,158.3,716.905,53.339,-0.000222267,195.572,-1.12357,-0.299068,0.0450681,-0.0170962,-0.0264888,0.0345976,-0.000181741,-5.05329e-05,0.0460473,0.04609909683156643,0.03520305926431089,-0.0001817244861048728,-0.016950889238475875,-5.053162323453986e-05,-0.026141049005294015
73,161.4,719.179,53.5185,-0.000229613,196.211,-1.13048,-0.300899,0.0459402,-0.0174354,-0.0270171,0.0352729,-0.00018612,-5.1752e-05,0.0469995,0.047011797779314524,0.035902367985246375,-0.00018610268074725766,-0.017284282950076113,-5.175066088836111e-05,-0.02665540281058376
74,164.5,721.415,53.695,-0.000237029,196.84,-1.13725,-0.302692,0.0468116,-0.0177742,-0.0275449,0.0359476,-0.000190505,-5.2973e-05,0.047951,0.04792456149329194,0.03660152714774667,-0.00019048685507461194,-0.0176171706406536,-5.297159695538678e-05,-0.027168998539144784
75,167.6,723.614,53.8687,-0.000244514,197.458,-1.14388,-0.304448,0.0476821,-0.0181127,-0.0280723,0.0366217,-0.000194898,-5.4196e-05,0.0489018,0.048837176982333697,0.037300535811597424,-0.00019487900861858698,-0.017949650952924223,-5.419453142330166e-05,-0.02768193433625621
76,170.7,725.778,54.0397,-0.000252068,198.067,-1.15038,-0.306169,0.0485517,-0.0184509,-0.0285993,0.0372952,-0.000199297,-5.54208e-05,0.0498518,0.04974964247393254,0.03799939303622013,-0.0001992771416721162,-0.0182817242242167,-5.541926429586397e-05,-0.02819421096011432
77,173.8,727.908,54.208,-0.000259688,198.666,-1.15675,-0.307857,0.0494205,-0.0187888,-0.0291257,0.0379682,-0.000203702,-5.66473e-05,0.0508011,0.050662061260642544,0.03869820175048999,-0.00020368125415615168,-0.018613390791379136,-5.66456955719552e-05,-0.028705634908872124
78,176.9,730.004,54.3737,-0.000267375,199.256,-1.163,-0.309512,0.0502884,-0.0191264,-0.0296517,0.0386405,-0.000208114,-5.78755e-05,0.0517496,0.051574326683927696,0.03939675334333326,-0.00020809234578367253,-0.01894465099077991,-5.787382524558016e-05,-0.02921640140154591
79,180.0,732.069,54.537,-0.000275128,199.837,-1.16913,-0.311136,0.0511555,-0.0194637,-0.0301773,0.0393123,-0.000212531,-5.91052e-05,0.0526974,0.05248654221648441,0.04009525468255881,-0.000212508416886803,-0.019275505158308448,-5.910345332205136e-05,-0.029726511192372906
80,183.1,734.102,54.6978,-0.000282945,200.41,-1.17515,-0.312729,0.0520218,-0.0198006,-0.0307024,0.0399835,-0.000216953,-6.03365e-05,0.0536445,0.05339870635485666,0.040793600956293696,-0.00021692946739970687,-0.01960585558996586,-6.033467978994178e-05,-0.03023586805799705
81,186.2,736.106,54.8564,-0.000290826,200.974,-1.18106,-0.314294,0.0528872,-0.0201373,-0.031227,0.0406541,-0.00022138,-6.15691e-05,0.0545908,0.054310712163331276,0.041491791222125984,-0.00022135549725588177,-0.019935898732507784,-6.156720466188315e-05,-0.030744472902898834
82,189.2,738.08,55.0126,-0.00029877,201.53,-1.18687,-0.315831,0.0537518,-0.0204736,-0.0317511,0.0413241,-0.000225813,-6.28031e-05,0.0555363,0.05522266338477122,0.04218982453729314,-0.0002257875061634218,-0.020265438874483288,-6.280112792655945e-05,-0.03125232662995647
83,192.3,740.026,55.1667,-0.000306776,202.078,-1.19257,-0.317341,0.0546155,-0.0208096,-0.0322748,0.0419935,-0.00023025,-6.40384e-05,0.0564811,0.05613445289875729,0.042887699958682246,-0.00023022349450296797,-0.02059457438915857,-6.403634958540572e-05,-0.031759526964500684
84,195.4,741.945,55.3187,-0.000314845,202.618,-1.19817,-0.318826,0.0554784,-0.0211453,-0.032798,0.0426624,-0.000234691,-6.52749e-05,0.0574251,0.05704618462824529,0.04358552090138046,-0.00023466346222156265,-0.020923305609913512,-6.5272769640079e-05,-0.03226597788088015
85,198.5,743.837,55.4686,-0.000322975,203.151,-1.20368,-0.320285,0.0563405,-0.0214807,-0.0333208,0.0433306,-0.000239137,-6.65125e-05,0.0583684,0.057957857063952734,0.04428307777424356,-0.00023910840902663377,-0.021251632869652592,-6.651028809268045e-05,-0.032771777000233815
86,201.6,745.703,55.6165,-0.000331165,203.677,-1.2091,-0.32172,0.0572017,-0.0218157,-0.0338431,0.0439983,-0.000243587,-6.77513e-05,0.0593108,0.05886936280849353,0.0449805784199504,-0.00024355733509540123,-0.021579458658755768,-6.774900493244917e-05,-0.03327682839545343
87,204.7,747.544,55.7624,-0.000339415,204.196,-1.21444,-0.323132,0.0580622,-0.0221505,-0.0343649,0.0446654,-0.00024804,-6.89911e-05,0.0602525,0.05978091203299729,0.04567791753541539,-0.00024800924062240437,-0.021906979026027784,-6.898872016880553e-05,-0.03378113296189256
88,207.8,749.361,55.9065,-0.000347725,204.708,-1.21968,-0.324521,0.0589218,-0.0224849,-0.0348863,0.0453319,-0.000252497,-7.02319e-05,0.0611935,0.060692291359696116,0.04637509417575969,-0.0002524651253152932,-0.022233998651512876,-7.022943379786373e-05,-0.034284788164844815
89,210.9,751.154,56.0487,-0.000356093,205.213,-1.22484,-0.325888,0.0597805,-0.0228191,-0.0354072,0.0459978,-0.000256958,-7.14737e-05,0.0621336,0.0616034990012968,0.04707210739576695,-0.00025692498912055495,-0.02256071345207944,-7.147114581596004e-05,-0.03478769822439309
90,214.0,752.923,56.1891,-0.00036452,205.712,-1.22993,-0.327235,0.0606385,-0.0231529,-0.0359277,0.0466631,-0.000261421,-7.27163e-05,0.063073,0.06251474567235937,0.04776895624988531,-0.0002613868325077595,-0.022886928237652593,-7.271365623395809e-05,-0.0352899605023701
91,217.1,754.671,56.3278,-0.000373005,206.205,-1.23494,-0.328561,0.0614956,-0.0234864,-0.0364477,0.0473279,-0.000265888,-7.39598e-05,0.0640116,0.06342581744490894,0.04846574463879816,-0.00026585265491840815,-0.02321274111476812,-7.395706504143007e-05,-0.035791479316716224
92,220.1,756.396,56.4648,-0.000381548,206.691,-1.23987,-0.329867,0.0623519,-0.0238196,-0.0369672,0.0479921,-0.000270358,-7.52041e-05,0.0649495,0.06433681896202059,0.04916236690903286,-0.00027032145656924467,-0.023538152412895696,-7.520127224258655e-05,-0.036292255555320785
93,223.2,758.1,56.6001,-0.000390147,207.172,-1.24473,-0.331154,0.0632074,-0.0241525,-0.0374862,0.0486557,-0.00027483,-7.64492e-05,0.0658865,0.06524774870528272,0.04985882211399262,-0.0002747922376949985,-0.023863162461033482,-7.64462778343189e-05,-0.036792290104497805
94,226.3,759.783,56.7339,-0.000398803,207.647,-1.24952,-0.332423,0.0640621,-0.0244851,-0.0380048,0.0493187,-0.000279306,-7.7695e-05,0.0668228,0.06615860515515548,0.05055510930675311,-0.0002792669977104145,-0.024187771587708795,-7.769198182161485e-05,-0.0372916801198262
95,229.4,761.446,56.866,-0.000407515,208.116,-1.25424,-0.333674,0.0649159,-0.0248174,-0.038523,0.0499811,-0.000283783,-7.89414e-05,0.0677583,0.06706928008404267,0.05125122754006384,-0.0002837427374131618,-0.024511980120978993,-7.893828420968418e-05,-0.037790426334883165
96,232.5,763.089,56.9966,-0.000416283,208.579,-1.2589,-0.334907,0.065769,-0.0251493,-0.0390406,0.050643,-0.000288263,-8.01885e-05,0.068693,0.06797998529295657,0.051947281061072825,-0.0002882214562133223,-0.02483569087200621,-8.018528498809907e-05,-0.03828833713977953
97,235.6,764.713,57.1258,-0.000425106,209.038,-1.26349,-0.336124,0.0666212,-0.025481,-0.0395578,0.0513043,-0.000292745,-8.14363e-05,0.0696269,0.0688905057540865,0.05264316386632806,-0.0002927021543635,-0.02515909923310189,-8.143298415452804e-05,-0.03878560580704882
98,238.7,766.318,57.2534,-0.000433984,209.491,-1.26802,-0.337324,0.0674726,-0.0258123,-0.0400746,0.0519649,-0.00029723,-8.26845e-05,0.07056,0.06980094665037839,0.05333876967367979,-0.00029718583153970357,-0.025482010530316068,-8.26810817309287e-05,-0.03928223306643053
99,241.8,767.905,57.3797,-0.000442917,209.939,-1.2725,-0.338508,0.0683233,-0.0261434,-0.0405909,0.0526251,-0.000301716,-8.39334e-05,0.0714924,0.07071141352787191,0.054034413536190096,-0.00030167048830498366,-0.025804620025680403,-8.39298776906805e-05,-0.03977812362433519
100,244.9,769.473,57.5045,-0.000451904,210.381,-1.27691,-0.339677,0.0691731,-0.0264741,-0.0411067,0.0532846,-0.000306204,-8.51827e-05,0.0724239,0.0716216908091245,0.05472977850331162,-0.00030615712433990083,-0.026126733173493344,-8.517907205685127e-05,-0.04027327835678618
101,248.0,771.025,57.628,-0.000460946,210.82,-1.28127,-0.340831,0.0700221,-0.0268045,-0.0416221,0.0539436,-0.000310694,-8.64325e-05,0.0733547,0.072531883946936,0.05542507450221423,-0.00031064573961747666,-0.026448447750677895,-8.642876481901318e-05,-0.04076779406147735
102,251.0,772.559,57.7502,-0.000470041,211.253,-1.28557,-0.341971,0.0708703,-0.0271346,-0.042137,0.054602,-0.000315186,-8.76828e-05,0.0742847,0.07344199141291208,0.05612019517988287,-0.00031513633411084374,-0.02676976408189724,-8.767895597561193e-05,-0.041261575589351285
103,254.1,774.076,57.8711,-0.00047919,211.681,-1.28982,-0.343096,0.0717177,-0.0274644,-0.0426514,0.0552598,-0.000319679,-8.89335e-05,0.0752139,0.07435201167756533,0.0568151395864287,-0.0003196279081130182,-0.027090682491348606,-8.892954553352261e-05,-0.04175462381199324
104,257.2,775.577,57.9907,-0.000488391,212.105,-1.29401,-0.344208,0.0725643,-0.0277939,-0.0431654,0.055917,-0.000324173,-9.01846e-05,0.0761423,0.07526194321032142,0.05750990677165557,-0.0003241204616104554,-0.02741120330276403,-9.018053349119093e-05,-0.04224703537474106
105,260.3,777.062,58.109,-0.000497646,212.525,-1.29816,-0.345306,0.0734101,-0.0281231,-0.0436789,0.0565737,-0.000328669,-9.1436e-05,0.0770699,0.07617178447952133,0.05820460160551533,-0.00032861499426117824,-0.027731326839411707,-9.143181985638016e-05,-0.04273871527245865
106,263.4,778.531,58.2262,-0.000506954,212.94,-1.30226,-0.346392,0.0742551,-0.028452,-0.044192,0.0572298,-0.000333166,-9.26878e-05,0.0779967,0.0770815339524269,0.05889911745563925,-0.0003331105063714146,-0.028051053424095085,-9.268350461855146e-05,-0.04322976004934154
107,266.5,779.985,58.3422,-0.000516314,213.351,-1.30631,-0.347465,0.0750993,-0.0287806,-0.0447046,0.0578853,-0.000337664,-9.39399e-05,0.0789228,0.07799119009522326,0.05959345337086597,-0.00033760699792773075,-0.028370383379154984,-9.393548778569016e-05,-0.04372007479593465
108,269.6,781.424,58.457,-0.000525726,213.758,-1.31031,-0.348526,0.0759427,-0.0291089,-0.0452167,0.0585403,-0.000342164,-9.51923e-05,0.0798481,0.07890075137302444,0.060287714428498784,-0.000342105468574605,-0.028689317026468708,-9.518776935679707e-05,-0.04420966037654428
109,272.7,782.848,58.5706,-0.000535191,214.161,-1.31427,-0.349575,0.0767853,-0.0294368,-0.0457284,0.0591947,-0.000346664,-9.64449e-05,0.0807725,0.07981021624987572,0.06098179378681756,-0.0003466039189784498,-0.029007757588232597,-9.644024934007955e-05,-0.04469861318408508
110,275.8,784.258,58.6832,-0.000544707,214.559,-1.31819,-0.350612,0.0776272,-0.0297645,-0.0462396,0.0598485,-0.000351165,-9.76979e-05,0.0816962,0.08071969126072331,0.061675690493711466,-0.0003511033487882953,-0.029325899615652573,-9.769312771557015e-05,-0.045186838452014655
111,278.9,785.654,58.7947,-0.000554275,214.954,-1.32206,-0.351638,0.0784682,-0.0300919,-0.0467504,0.0605017,-0.000355667,-9.8951e-05,0.0826191,0.0816289588144874,0.062369403596775896,-0.00035560375799059685,-0.029643646298148196,-9.894610451122166e-05,-0.04567443247281877
112,281.9,787.036,58.9051,-0.000563895,215.345,-1.32589,-0.352654,0.0793085,-0.0304189,-0.0472607,0.0611544,-0.00036017,-0.000100204,0.0835412,0.08253823360687984,0.06306303844961292,-0.0003601051465719207,-0.029960900951845892,-0.00010019897974689052,-0.046161300574966146
113,285.0,788.404,59.0144,-0.000573565,215.732,-1.32969,-0.353658,0.0801479,-0.0307457,-0.0477706,0.0618065,-0.000364674,-0.000101458,0.0844625,0.08344729768098458,0.06375648793161615,-0.00036460751451905526,-0.030277857935822716,-0.00010145285331109033,-0.0466475389507941
114,288.1,789.76,59.1227,-0.000583288,216.116,-1.33344,-0.354652,0.0809866,-0.0310722,-0.04828,0.062458,-0.000369178,-0.000102712,0.085383,0.08435636609410069,0.06444975108945594,-0.00036910986218741115,-0.030594420533550548,-0.00010270672530310332,-0.047133053023519444
115,291.2,791.102,59.2301,-0.000593061,216.496,-1.33715,-0.355637,0.0818245,-0.0313983,-0.048789,0.063109,-0.000373683,-0.000103965,0.0863028,0.08526532905010109,0.0651429334838034,-0.0003736131892037031,-0.030910492154735625,-0.0001039595958266526,-0.047617938885609945
116,294.3,792.432,59.3364,-0.000602885,216.872,-1.34083,-0.356611,0.0826617,-0.0317242,-0.0492975,0.0637594,-0.000378188,-0.000105219,0.0872217,0.08617429362306095,0.06583592778505887,-0.0003781164959325567,-0.031226266967041894,-0.00010521346467518011,-0.04810210205476817
117,297.4,793.749,59.4418,-0.000612759,217.245,-1.34447,-0.357576,0.083498,-0.0320497,-0.0498055,0.0644092,-0.000382694,-0.000106474,0.0881399,0.08708304112462106,0.06652873303898321,-0.00038262078199147176,-0.03154155150180238,-0.00010646833184480009,-0.048585543382430596
118,300.5,795.054,59.5462,-0.000622685,217.614,-1.34808,-0.358531,0.0843336,-0.032375,-0.0503131,0.0650585,-0.0003872,-0.000107728,0.0890573,0.08799178733507551,0.06722145501319732,-0.00038712504775417766,-0.03185653979947456,-0.00010772219754728862,-0.04906835881168692
119,303.6,796.347,59.6497,-0.000632661,217.98,-1.35165,-0.359478,0.0851683,-0.0326999,-0.0508202,0.0657072,-0.000391706,-0.000108982,0.0899739,0.08890031320048464,0.06791398616925926,-0.0003916292932206744,-0.03217103851661052,-0.00010897606167747931,-0.04955045400136726
120,306.7,797.628,59.7523,-0.000642687,218.343,-1.35519,-0.360415,0.0860024,-0.0330246,-0.0513269,0.0663554,-0.000396213,-0.000110236,0.0908897,0.08980894384345528,0.06860643241267672,-0.00039613451799480615,-0.032485241566778456,-0.00011022992423537215,-0.050031924795397864
121,309.0,798.588,59.8292,-0.000654183,218.615,-1.35783,-0.361118,0.086632,-0.0332697,-0.0517095,0.0668447,-0.000399617,-0.000111184,0.0915811,0.09049530359787727,0.06912942948085443,-0.00039953716376173176,-0.032722350375198994,-0.00011117781928815518,-0.050395313060363156
