,Time,S11,S22,S33,S12,S13,S23,LE11,LE22,LE33,LE12,LE13,LE23,SDV_EPBAR,E11,E12,E13,E22,E23,E33
0,0.000309,0.0019383,0.000139163,-7.79048e-12,0.000519365,9.3624e-20,3.36396e-20,9.1292e-09,-2.12864e-09,-3.00057e-09,6.49972e-09,9.45271e-25,4.67314e-25,0.0,9.129200062574228e-09,6.499720095476391e-09,0.0,-2.128640042009522e-09,0.0,-3.0005700146773506e-09
1,0.000618,0.00387659,0.000278327,3.25261e-19,0.00103873,3.61973e-20,-7.40724e-21,1.82584e-08,-4.2578e-09,-6.00057e-09,1.29997e-08,9.27189e-26,4.52981e-25,0.0,1.8258400125148455e-08,1.2999699983140545e-08,0.0,-4.257800001461476e-09,0.0,-6.000569929831556e-09
2,0.0010815,0.00678404,0.000487072,3.25261e-19,0.00181778,-8.55315e-21,3.19208e-20,3.19522e-08,-7.45077e-09,-1.05014e-08,2.27493e-08,2.14063e-25,-7.98907e-25,0.0,3.19522004410544e-08,2.2749300221391877e-08,0.0,-7.45077000097183e-09,0.0,-1.0501399971829528e-08
3,0.0017767,0.0111452,0.00080019,7.58942e-19,0.00298635,8.55315e-21,-3.19208e-20,5.24927e-08,-1.22421e-08,-1.72507e-08,3.73747e-08,4.28159e-25,-1.59792e-24,0.0,5.249270129681349e-08,3.737470066766946e-08,0.0,-1.2242099889370195e-08,0.0,-1.725069986857619e-08
4,0.0028196,0.017687,0.00126987,-2.27682e-18,0.00473921,-1.65988e-27,-4.44764e-28,8.33037e-08,-1.94275e-08,-2.73762e-08,5.93119e-08,1.2845e-24,-4.79383e-24,0.0,8.33037034908557e-08,5.931190183439128e-08,0.0,-1.9427499831081718e-08,0.0,-2.7376199640549714e-08
5,0.0043839,0.0274996,0.00197438,-4.01155e-18,0.00736849,1.71063e-20,-6.38416e-20,1.2952e-07,-3.02058e-08,-4.25643e-08,9.22178e-08,-1.48338e-24,-7.24799e-24,0.0,1.295200084960868e-07,9.221780428170234e-08,0.0,-3.0205799528282284e-08,0.0,-4.256429908533477e-08
6,0.0067304,0.0422185,0.00303115,-4.01155e-18,0.0113124,1.74418e-19,1.1516e-19,1.98845e-07,-4.63759e-08,-6.53437e-08,1.41578e-07,3.19598e-24,8.5636e-25,0.0,1.9884501978317815e-07,1.4157800998226833e-07,0.0,-4.637589889888716e-08,0.0,-6.534369789701344e-08
7,0.01025,0.0642969,0.00461631,8.13152e-18,0.0172283,2.08631e-19,-1.25227e-20,3.02832e-07,-7.06269e-08,-9.95172e-08,2.15616e-07,2.29126e-25,-1.36391e-23,0.0,3.0283204588421597e-07,2.156160232580362e-07,0.0,-7.062689755255036e-08,0.0,-9.951719504019962e-08
8,0.01553,0.0974145,0.00699405,2.92735e-18,0.0261021,-1.49373e-19,3.02101e-19,4.58812e-07,-1.07003e-07,-1.50778e-07,3.26673e-07,-3.42531e-24,1.27835e-23,0.0,4.5881210519738147e-07,3.266730532747175e-07,0.0,-1.0700299424293291e-07,0.0,-1.5077798865004155e-07
9,0.023449,0.147091,0.0105607,6.39679e-18,0.0394129,6.16725e-19,5.07377e-19,6.92782e-07,-1.61575e-07,-2.2766e-07,4.93263e-07,1.27839e-23,3.42544e-24,0.0,6.927822400193406e-07,4.932631216814087e-07,0.0,-1.6157498694546746e-07,0.0,-2.2765997409468497e-07
10,0.035328,0.221605,0.0159106,-7.48099e-18,0.059379,8.22001e-19,-2.58722e-19,1.04374e-06,-2.43427e-07,-3.4299e-07,7.43145e-07,1.27839e-23,3.42544e-24,0.0,1.0437405446594994e-06,7.43145276205226e-07,0.0,-2.4342697035883987e-07,0.0,-3.429899412266124e-07
11,0.053146,0.333377,0.0239354,-3.52366e-17,0.0893282,1.43291e-18,1.54718e-18,1.57017e-06,-3.66206e-07,-5.15985e-07,1.11797e-06,-4.82329e-29,-1.2924e-29,0.0,1.570171232812001e-06,1.1179706249642152e-06,0.0,-3.662059329112566e-07,0.0,-5.159848668334632e-07
12,0.079874,0.501035,0.0359727,-2.13588e-17,0.134252,1.15921e-18,2.56864e-18,2.35982e-06,-5.50367e-07,-7.75483e-07,1.6802e-06,-4.1105e-23,1.53406e-22,0.0,2.3598227842924757e-06,1.6802014115580022e-06,0.0,-5.503668485395963e-07,0.0,-7.754826992778519e-07
13,0.12,0.752521,0.0540286,-7.48099e-18,0.201637,2.25401e-18,-1.51722e-18,3.54429e-06,-8.26616e-07,-1.16472e-06,2.52354e-06,-1.0888e-28,-2.91744e-29,0.0,3.544296280910686e-06,2.523543184196342e-06,0.0,-8.266156583669471e-07,0.0,-1.1647193217667606e-06
14,0.1801,1.12975,0.0811124,2.02746e-17,0.302715,9.8783e-18,2.71531e-18,5.321e-06,-1.241e-06,-1.74857e-06,3.78857e-06,1.53406e-22,4.11051e-23,0.0,5.321014156622894e-06,3.788577176644381e-06,0.0,-1.2409992299344808e-06,0.0,-1.7485684712381655e-06
15,0.2703,1.69559,0.121738,-7.48099e-18,0.454332,-5.51699e-18,2.96936e-18,7.98605e-06,-1.86256e-06,-2.62435e-06,5.6861e-06,6.26956e-28,1.67992e-28,0.0,7.986081888677887e-06,5.686116165914967e-06,0.0,-1.862558265397496e-06,0.0,-2.6243465564013135e-06
16,0.4056,2.54435,0.182676,4.92119e-16,0.681756,-3.36327e-19,-2.16935e-20,1.19836e-05,-2.79488e-06,-3.93804e-06,8.53236e-06,2.19228e-22,-8.18169e-22,0.0,1.1983671803550422e-05,8.532396400751097e-06,0.0,-2.7948760943363737e-06,0.0,-3.938032245964784e-06
17,0.6086,3.81748,0.274083,3.81097e-16,1.02289,-3.36325e-19,-2.16927e-20,1.79799e-05,-4.19337e-06,-5.90853e-06,1.28018e-05,9.49301e-23,4.63893e-22,0.0,1.79800616393333e-05,1.2801881943413917e-05,0.0,-4.1933612078270954e-06,0.0,-5.908512544672284e-06
18,0.913,5.72716,0.411192,4.92119e-16,1.53459,3.23501e-17,8.73662e-18,2.69743e-05,-6.2911e-06,-8.86425e-06,1.92058e-05,4.09074e-22,1.09611e-22,0.0,2.697466380974234e-05,1.920598443261312e-05,0.0,-6.291080211107136e-06,0.0,-8.864210712666853e-06
19,1.37,8.59165,0.616853,-1.28424e-15,2.30213,-3.36733e-19,-2.18022e-20,4.04657e-05,-9.43765e-06,-1.32978e-05,2.88117e-05,4.38461e-22,-1.63636e-21,0.0,4.0466518747450664e-05,2.8812115061116472e-05,0.0,-9.4376054655676e-06,0.0,-1.3297711584647764e-05
20,2.055,12.8883,0.925338,-5.059e-15,3.45341,6.94144e-17,1.1511e-18,6.07025e-05,-1.41574e-05,-1.99479e-05,4.32204e-05,-7.0378e-26,-1.88577e-26,0.0,6.070434243410361e-05,4.322133401490902e-05,0.0,-1.4157299784489652e-05,0.0,-1.994770104196686e-05
21,3.082,19.3331,1.38805,-2.81516e-14,5.18029,7.817e-17,-3.15365e-17,9.10568e-05,-2.12368e-05,-2.99229e-05,6.48327e-05,8.76832e-22,-3.2728e-21,0.0,9.106094579625079e-05,6.483480168495426e-05,0.0,-2.123657450070482e-05,0.0,-2.992245231447921e-05
22,4.623,116.413,8.35811,-1.03265e-09,31.1929,9.83292e-16,7.71529e-16,0.000548295,-0.000127877,-0.000180179,0.000390388,3.49743e-21,-1.3096e-20,0.0,0.0005484453411794821,0.0003904642113123913,0.0,-0.00012786882408488687,0.0,-0.00018016276873877857
23,6.935,262.609,18.8545,-9.04826e-07,70.3658,1.26247e-15,-2.74743e-16,0.00123686,-0.000288468,-0.000406453,0.000880648,1.40118e-20,-5.23908e-20,0.0,0.0012376252267900512,0.0008810358843047705,0.0,-0.0002884263971069112,0.0,-0.00040637040916957634
24,10.03,446.442,32.093,0.00245615,119.702,-0.0118302,-0.00316813,0.00215605,-0.000511257,-0.000723404,0.00153874,-1.52636e-07,-4.09325e-08,5.88496e-05,0.0021583759471202058,0.0015399244678453439,-1.5263598840409287e-07,-0.000511126330409506,-4.093249916792274e-08,-0.0007231424064094716
25,13.12,468.018,33.7942,8.48747e-05,125.763,-0.121512,-0.032515,0.00307237,-0.000855004,-0.00125116,0.00223592,-2.19604e-06,-5.9611e-07,0.000956954,0.0030770945660076876,0.0022384215331852086,-2.196037588664268e-06,-0.0008546385882302054,-5.96109822281754e-07,-0.001250377625653054
26,16.21,485.784,35.1936,7.82502e-05,130.755,-0.211131,-0.0564684,0.00398763,-0.00120118,-0.00178334,0.00293366,-4.46282e-06,-1.21657e-06,0.00187392,0.003995591175064428,0.0029379673916087867,-4.4628100416277405e-06,-0.0012004588720674336,-1.216569259998579e-06,-0.0017817507940607324
27,19.3,500.928,36.3859,3.14747e-05,135.009,-0.286037,-0.0764725,0.00490184,-0.00154887,-0.00231841,0.00363167,-6.92495e-06,-1.89373e-06,0.00280355,0.004913873672036662,0.0036382725037800157,-6.924926022611189e-06,-0.0015476711199111648,-1.893728206914247e-06,-0.0023157245632512424
28,22.39,514.155,37.4266,1.23407e-05,138.723,-0.350043,-0.0935531,0.00581502,-0.00189756,-0.00285543,0.00432977,-9.5609e-06,-2.62097e-06,0.00374217,0.005831960048455986,0.00433915699708276,-9.560854294710097e-06,-0.0018957607712513092,-2.62096656522548e-06,-0.0028513571372712487
29,25.48,525.918,38.3516,3.3136e-06,142.025,-0.405715,-0.1084,0.00672719,-0.00224691,-0.00339382,0.00502781,-1.23511e-05,-3.39244e-06,0.00468742,0.006749868368023382,0.005040470646246131,-1.2351023725432064e-05,-0.0022443875872909524,-3.3924342456304046e-06,-0.0033880675023909568
30,28.57,536.524,39.1852,-1.87544e-06,145.001,-0.454837,-0.121493,0.00763835,-0.0025967,-0.00393316,0.00572571,-1.52783e-05,-4.20307e-06,0.0056377,0.0076675966132271345,0.005742133207381261,-1.527818328739272e-05,-0.0025933314908550553,-4.203061167107336e-06,-0.003925435257075671
31,31.66,546.192,39.9446,-5.5286e-06,147.713,-0.498696,-0.133178,0.00854851,-0.00294676,-0.00447319,0.0064234,-1.83276e-05,-5.04848e-06,0.00659187,0.008585152851112277,0.006444074276457101,-1.8327432050546655e-05,-0.0029424225642578072,-5.0484672564632405e-06,-0.004463200186607397
32,34.75,555.083,40.6428,-8.59296e-06,150.207,-0.538242,-0.143708,0.00945769,-0.00329698,-0.00501369,0.00712082,-2.14863e-05,-5.92495e-06,0.00754909,0.009502555279156777,0.0071462333241600895,-2.1486069171072764e-05,-0.0032915509295909917,-5.924932447554099e-06,-0.00500114243491756
33,37.84,563.32,41.2895,-1.14877e-05,152.517,-0.574197,-0.153279,0.0103659,-0.00364727,-0.00555449,0.00781791,-2.47432e-05,-6.8293e-06,0.00850872,0.010419812062728795,0.007848549652352599,-2.4742893889539985e-05,-0.0036406267897548528,-6.829276680386798e-06,-0.00553909234232286
34,40.93,570.998,41.8921,-1.44074e-05,154.67,-0.607121,-0.162039,0.0112731,-0.00399758,-0.00609547,0.00851465,-2.80888e-05,-7.75877e-06,0.00947027,0.011336880835731256,0.0085510027360014,-2.808840551338232e-05,-0.003989600313757724,-7.758739900776135e-06,-0.00607693031123846
35,44.02,578.192,42.4566,-1.74442e-05,156.687,-0.637456,-0.170108,0.0121794,-0.00434784,-0.00663654,0.00921101,-3.1515e-05,-8.711e-06,0.0104333,0.0122538709221236,0.00925356190092641,-3.1514503407548133e-05,-0.00433840182717693,-8.710962059343963e-06,-0.006614566803949784
36,47.11,584.964,42.9879,-2.06403e-05,158.586,-0.665555,-0.17758,0.0130847,-0.00469801,-0.00717761,0.00990695,-3.50143e-05,-9.68391e-06,0.0113976,0.013170679282158204,0.009956186288645252,-3.50136870065354e-05,-0.004686991612604441,-9.683863111065172e-06,-0.007151912476368594
37,50.2,591.363,43.4898,-2.4014e-05,160.38,-0.691707,-0.184532,0.0139891,-0.00504806,-0.00771863,0.0106025,-3.85807e-05,-1.06757e-05,0.0123629,0.014087405325532432,0.010658905673921915,-3.857995577438711e-05,-0.0050353399579643465,-1.0675643014934622e-05,-0.007688917870252943
38,53.29,597.431,43.9658,-2.75713e-05,162.081,-0.716148,-0.191027,0.0148925,-0.00539796,-0.00825953,0.0112975,-4.22084e-05,-1.16848e-05,0.0133288,0.015003945826512766,0.011361557756680796,-4.220750923800143e-05,-0.0053834171928494046,-1.1684731732963805e-05,-0.008225513799125062
39,56.38,603.202,44.4185,-3.13113e-05,163.698,-0.739076,-0.197119,0.0157949,-0.00574769,-0.00880028,0.0119921,-4.58925e-05,-1.27097e-05,0.0142954,0.015920298783496545,0.012064293526577341,-4.589144695532621e-05,-0.0057312036311343295,-1.2709619232054159e-05,-0.008761670876003769
40,59.47,608.706,44.8502,-3.52303e-05,165.241,-0.760657,-0.202851,0.0166965,-0.00609724,-0.00934084,0.0126862,-4.96287e-05,-1.37494e-05,0.0152623,0.016836665560948427,0.012767011202670986,-4.9627468516444395e-05,-0.006078689553514871,-1.3749305477483986e-05,-0.009297349870832194
41,62.56,613.968,45.2629,-3.93226e-05,166.716,-0.781031,-0.208262,0.017597,-0.00644657,-0.00988117,0.0133798,-5.3413e-05,-1.48025e-05,0.0162295,0.017752739378618543,0.01346971006943698,-5.341157355109871e-05,-0.006425835447125383,-1.4802390443491298e-05,-0.009832511638777186
42,65.65,619.01,45.6584,-4.35821e-05,168.129,-0.800318,-0.213383,0.0184967,-0.00679569,-0.0104212,0.0140729,-5.72419e-05,-1.58681e-05,0.0171969,0.018668823556910796,0.014172389410882058,-5.724026171372021e-05,-0.006772651515718486,-1.5867974102357074e-05,-0.010367087431042643
43,68.74,623.85,46.0381,-4.80024e-05,169.486,-0.818623,-0.218243,0.0193954,-0.00714457,-0.0109611,0.0147655,-6.11123e-05,-1.69454e-05,0.0181643,0.019584712721793407,0.014875048510545552,-6.111043268142158e-05,-0.007119108233633598,-1.6945256427480793e-05,-0.010901246031449263
44,71.83,628.505,46.4033,-5.25774e-05,170.791,-0.836035,-0.222864,0.0202933,-0.00749321,-0.0115006,0.0154576,-6.50212e-05,-1.80335e-05,0.0191318,0.020500608965430267,0.015577686651501166,-6.501908616762808e-05,-0.007465205892489557,-1.8033337397360683e-05,-0.011434720891432382
45,74.92,632.99,46.7552,-5.73009e-05,172.049,-0.852632,-0.227269,0.0211901,-0.0078416,-0.0120397,0.0161491,-6.89661e-05,-1.91317e-05,0.0200991,0.021416204403180705,0.01628020148833209,-6.896372189313382e-05,-0.007810934861653851,-1.9131516990178454e-05,-0.011967512806435487
46,78.01,637.318,47.0948,-6.21674e-05,173.262,-0.868483,-0.231475,0.0220861,-0.00818973,-0.0125786,0.0168401,-7.29446e-05,-2.02393e-05,0.0210663,0.022331803449443965,0.016982693790698722,-7.294193960738493e-05,-0.008156285523949536,-2.0239095186780354e-05,-0.012499820070709378
47,81.1,641.499,47.4229,-6.71715e-05,174.434,-0.883648,-0.235498,0.0229812,-0.0085376,-0.0131171,0.0175306,-7.69546e-05,-2.13556e-05,0.0220333,0.02324730231710448,0.017685162840289648,-7.695163907073255e-05,-0.008501258190604766,-2.1355371970788184e-05,-0.013031445764536298
48,84.19,645.544,47.7404,-7.23081e-05,175.568,-0.898182,-0.239353,0.0238753,-0.00888519,-0.0136553,0.0182205,-8.0994e-05,-2.24803e-05,0.023,0.024162596851552864,0.0183875060795764,-8.099072007450303e-05,-0.008845833349361287,-2.2480047319972662e-05,-0.013562489323785454
49,87.28,649.462,48.048,-7.75727e-05,176.667,-0.912132,-0.243053,0.0247686,-0.00923251,-0.0141931,0.0189099,-8.50611e-05,-2.36127e-05,0.0239664,0.0250778900541635,0.019089824487606766,-8.505748240716926e-05,-0.009190021239393498,-2.3612421222396485e-05,-0.014092852789508226
50,90.37,653.261,48.3463,-8.29608e-05,177.733,-0.92554,-0.246609,0.0256609,-0.00957954,-0.0147305,0.0195987,-8.91542e-05,-2.47523e-05,0.0249324,0.025992975260007656,0.01979201536548958,-8.915022588240618e-05,-0.009533802371689437,-2.4751993664362537e-05,-0.014622536951537146
51,93.46,656.949,48.636,-8.84684e-05,178.767,-0.938446,-0.250031,0.0265524,-0.00992629,-0.0152675,0.0202869,-9.32717e-05,-2.58987e-05,0.0258981,0.026908055834011124,0.02049407778243273,-9.326735033021727e-05,-0.009877186987968467,-2.5898364631515847e-05,-0.01515154259846574
52,96.55,660.533,48.9175,-9.40917e-05,179.772,-0.950882,-0.253329,0.0274429,-0.0102728,-0.0158042,0.0209746,-9.74123e-05,-2.70516e-05,0.0268634,0.027822924742655797,0.021196112926840094,-9.740755557596792e-05,-0.010220215009153266,-2.7051234108732558e-05,-0.015679968949657286
53,99.64,664.018,49.1913,-9.9827e-05,180.75,-0.962882,-0.25651,0.0283326,-0.0106189,-0.0163404,0.0216618,-0.000101575,-2.82106e-05,0.0278282,0.028737785714354924,0.021898120077673777,-0.00010156984143427916,-0.0105627185190873,-2.8210202084766323e-05,-0.016207619874451407
54,102.7,667.41,49.4579,-0.000105671,181.702,-0.974472,-0.259582,0.0292213,-0.0109648,-0.0168762,0.0223483,-0.000105757,-2.93753e-05,0.0287925,0.029652431347108266,0.022599893993442643,-0.00010575140792556947,-0.010904905690068634,-2.937486855014715e-05,-0.016734594642575318
55,105.8,670.715,49.7176,-0.000111621,182.629,-0.985679,-0.262553,0.0301092,-0.0113104,-0.0174116,0.0230343,-0.000109959,-3.05453e-05,0.0297563,0.0305670657327477,0.023301638191462137,-0.00010995295473070765,-0.011246677893023582,-3.054483349707038e-05,-0.017260894037683383
56,108.9,673.936,49.9709,-0.000117674,183.533,-0.996525,-0.265428,0.0309961,-0.0116557,-0.0179466,0.0237197,-0.00011418,-3.17205e-05,0.0307196,0.0314814811009021,0.02400324954902433,-0.00011417348171183228,-0.011588035476368663,-3.171999691020666e-05,-0.01778651884220106
57,112.0,677.079,50.218,-0.000123826,184.415,-1.00703,-0.268212,0.0318822,-0.0120006,-0.0184812,0.0244045,-0.000118418,-3.29005e-05,0.0316824,0.032395881906752244,0.02470472713282712,-0.00011841098886533619,-0.011928879980919183,-3.2899958784526895e-05,-0.018311469837324346
58,115.1,680.147,50.4593,-0.000130077,185.276,-1.01722,-0.270912,0.0327674,-0.0123453,-0.0190154,0.0250888,-0.000122672,-3.4085e-05,0.0326446,0.03331016334267867,0.025406172549781614,-0.0001226644760978779,-0.012269409402372311,-3.4084419113011855e-05,-0.018835747803024883
59,118.2,683.144,50.6951,-0.000136422,186.118,-1.02711,-0.273532,0.0336517,-0.0126897,-0.0195491,0.0257725,-0.000126941,-3.52739e-05,0.0336062,0.034224323656533606,0.02610748246542971,-0.00012693294333210314,-0.01260952524646397,-3.527327788332979e-05,-0.01935925545397954
60,121.3,686.074,50.9257,-0.00014286,186.94,-1.03671,-0.276077,0.0345352,-0.0130338,-0.0200824,0.0264556,-0.000131226,-3.64669e-05,0.0345672,0.03513846460878711,0.026808655945238513,-0.00013121739024501977,-0.012949227859640255,-3.646623509068192e-05,-0.019882091736359797
61,124.4,688.939,51.1512,-0.000149388,187.744,-1.04604,-0.27855,0.0354177,-0.0133775,-0.0206152,0.0271381,-0.000135524,-3.76638e-05,0.0355276,0.036052377508558164,0.02750969205428122,-0.00013551481703755197,-0.013288418916702627,-3.766309072794627e-05,-0.020404159466689054
62,127.4,691.742,51.3719,-0.000156005,188.532,-1.05512,-0.280955,0.0362994,-0.013721,-0.0211476,0.0278201,-0.000139835,-3.88643e-05,0.0364874,0.036966267719102275,0.028210692678303895,-0.00013982522354205607,-0.013627296139309686,-3.886354479287757e-05,-0.020925557483720936
63,130.5,694.487,51.5881,-0.000162709,189.303,-1.06396,-0.283296,0.0371802,-0.0140641,-0.0216796,0.0285014,-0.00014416,-4.00683e-05,0.0374465,0.03788002996952877,0.02891145130954742,-0.00014414960944642008,-0.01396566256392473,-4.006749727636372e-05,-0.021446286560923622
64,133.6,697.175,51.7999,-0.000169498,190.058,-1.07256,-0.285575,0.0380601,-0.0144069,-0.0222111,0.0291822,-0.000148496,-4.12757e-05,0.038405,0.038793662501585,0.029612172724103658,-0.00014848497501462887,-0.014303617206062769,-4.1274848169958744e-05,-0.021966249667180415
65,136.7,699.81,52.0075,-0.000176369,190.798,-1.08095,-0.287797,0.0389392,-0.0147495,-0.0227422,0.0298624,-0.000152843,-4.24862e-05,0.0393629,0.0397072675265413,0.030312753164386752,-0.00015283132010368572,-0.014641258945475522,-4.248529747419294e-05,-0.02248554548077253
66,139.8,702.393,52.2111,-0.000183323,191.524,-1.08913,-0.289964,0.0398174,-0.0150917,-0.0232728,0.030542,-0.000157201,-4.36997e-05,0.04032,0.04062073949571654,0.031013191693491038,-0.0001571886445701498,-0.014978391020076476,-4.3698745182063625e-05,-0.0230040770717439
67,142.9,704.926,52.4108,-0.000190356,192.236,-1.09711,-0.292077,0.0406947,-0.0154336,-0.023803,0.031221,-0.000161569,-4.4916e-05,0.0412765,0.04153407664723807,0.03171348737412938,-0.000161555948431924,-0.015315112342396686,-4.491499129155585e-05,-0.023521943011688085
68,146.0,707.412,52.6068,-0.000197467,192.934,-1.1049,-0.294141,0.0415712,-0.0157751,-0.0243327,0.0318995,-0.000165948,-4.61351e-05,0.0422323,0.04244738146278415,0.03241374251000306,-0.0001659342313922174,-0.01565132481998366,-4.613403579267761e-05,-0.024039046471532766
69,149.1,709.852,52.7993,-0.000204656,193.62,-1.11251,-0.296156,0.0424468,-0.0161164,-0.024862,0.0325773,-0.000170335,-4.73567e-05,0.0431874,0.04336054811601198,0.03311374975033088,-0.00017032049381748848,-0.01598722569807709,-4.7355578689178834e-05,-0.02455548591647916
70,152.2,712.248,52.9884,-0.000211921,194.294,-1.11995,-0.298126,0.0433215,-0.0164574,-0.0253908,0.0332546,-0.000174731,-4.85807e-05,0.0441418,0.044273574841474206,0.033813714709411746,-0.0001747157354278217,-0.01632271684962172,-4.857951997694343e-05,-0.02507116461806136
71,155.3,714.602,53.1742,-0.00021926,194.956,-1.12722,-0.300052,0.0441954,-0.016798,-0.0259191,0.0339313,-0.000179136,-4.98071e-05,0.0450955,0.04518656439120772,0.034513533207039204,-0.00017911995610475628,-0.016657700281345944,-4.980585964697859e-05,-0.02558608349399627
72,158.3,716.915,53.3569,-0.000226673,195.606,-1.13433,-0.301936,0.0450685,-0.0171383,-0.026447,0.0346074,-0.000183548,-5.10357e-05,0.0460485,0.04609951527128886,0.03521320430400232,-0.0001835311560963726,-0.016992274734868196,-5.1034397700822076e-05,-0.02610034085034796
73,161.4,719.189,53.5365,-0.000234157,196.246,-1.14129,-0.30378,0.0459407,-0.0174784,-0.0269745,0.0352829,-0.000187969,-5.22664e-05,0.0470007,0.04701232128534438,0.03591272706072157,-0.00018795133493432203,-0.01732653881740165,-5.2265034135468014e-05,-0.026613937447537483
74,164.5,721.425,53.7131,-0.000241713,196.875,-1.14811,-0.305585,0.046812,-0.0178181,-0.0275015,0.0359578,-0.000192396,-5.34992e-05,0.0479523,0.04792498066320028,0.03661210053724795,-0.00019237749307643437,-0.017660296300247347,-5.3497768943255863e-05,-0.027126776757475324
75,167.6,723.624,53.8869,-0.000249339,197.493,-1.15479,-0.307353,0.0476825,-0.0181575,-0.028028,0.0366321,-0.00019683,-5.47338e-05,0.0489031,0.04883759651728847,0.037311323793267404,-0.00019681063024634682,-0.01799364582306906,-5.4732302132931565e-05,-0.02763885969185087
76,170.7,725.788,54.058,-0.000257034,198.102,-1.16133,-0.309086,0.0485521,-0.0184965,-0.028554,0.0373059,-0.000201271,-5.59702e-05,0.0498531,0.04975006237387358,0.03801049968914594,-0.0002012507463510227,-0.01832648955693461,-5.5968633697611736e-05,-0.02815018716073925
77,173.8,727.917,54.2264,-0.000264797,198.702,-1.16774,-0.310785,0.0494209,-0.0188353,-0.0290796,0.037979,-0.000205718,-5.72084e-05,0.0508025,0.050662481525551195,0.03870941975164577,-0.00020569684150306689,-0.01865902420772203,-5.720676363063504e-05,-0.028660857206523338
78,176.9,730.014,54.3922,-0.000272627,199.292,-1.17404,-0.312451,0.0502888,-0.0191737,-0.0296048,0.0386516,-0.000210171,-5.84482e-05,0.051751,0.051574747313742675,0.039408290711327565,-0.00021014891562254334,-0.018991053811352798,-5.844649193720297e-05,-0.02917087058308232
79,180.0,732.078,54.5555,-0.000280524,199.873,-1.18021,-0.314085,0.0511559,-0.0195119,-0.0301295,0.0393236,-0.00021463,-5.96895e-05,0.0526989,0.05248696321118551,0.04010700782534182,-0.00021460696862929396,-0.0193227749397491,-5.968771861719624e-05,-0.02968013101113054
80,183.1,734.112,54.7165,-0.000288487,200.446,-1.18626,-0.31569,0.0520222,-0.0198497,-0.0306537,0.039995,-0.000219094,-6.09324e-05,0.0536459,0.053399127714423456,0.040805570151527526,-0.00021907000066223592,-0.019653991760703815,-6.0930543658965775e-05,-0.030188639394762684
81,186.2,736.115,54.8751,-0.000296514,201.01,-1.19221,-0.317264,0.0528876,-0.0201872,-0.0311774,0.0406658,-0.000223563,-6.21766e-05,0.0545923,0.05431113388770026,0.04150397674736861,-0.00022353801165464482,-0.019984802710996674,-6.217466707525432e-05,-0.030696396636473278
82,189.2,738.09,55.0315,-0.000304605,201.566,-1.19805,-0.318811,0.0537522,-0.0205244,-0.0317007,0.041336,-0.000228037,-6.34222e-05,0.0555378,0.055223085473921074,0.042202226669997955,-0.0002280110015394632,-0.02031520812603882,-6.342018885474587e-05,-0.031203500516810978
83,192.3,740.036,55.1856,-0.00031276,202.114,-1.20379,-0.320331,0.054616,-0.0208613,-0.0322236,0.0420057,-0.000232516,-6.46691e-05,0.0564826,0.05613498096611558,0.04290042326623378,-0.00023248897024974458,-0.020645208340763554,-6.466700899876443e-05,-0.03170995178316738
84,195.4,741.955,55.3377,-0.000320977,202.655,-1.20943,-0.321824,0.0554789,-0.0211978,-0.0327459,0.0426748,-0.000236999,-6.59172e-05,0.0574267,0.05704671315146981,0.0435984614420708,-0.0002369709179554924,-0.020974705787102477,-6.591502750907807e-05,-0.03221555762489148
85,198.5,743.847,55.4877,-0.000329256,203.188,-1.21497,-0.323292,0.056341,-0.0215341,-0.0332678,0.0433432,-0.000241486,-6.71665e-05,0.0583699,0.05795838604301351,0.04429623582391895,-0.00024145684460274985,-0.021303896637002384,-6.716424438113489e-05,-0.03272051254591868
86,201.6,745.713,55.6356,-0.000337597,203.714,-1.22043,-0.324736,0.0572022,-0.02187,-0.0337893,0.0440111,-0.000245977,-6.84168e-05,0.0593125,0.0588698922433073,0.04499395425695951,-0.00024594675013800416,-0.021632585451745068,-6.841445962413317e-05,-0.03322481728973481
87,204.7,747.554,55.7817,-0.000345998,204.233,-1.22579,-0.326156,0.0580626,-0.0222056,-0.0343102,0.0446784,-0.000250472,-6.96682e-05,0.0602542,0.05978133594544688,0.04569151143670358,-0.0002504406345072985,-0.021960870466760873,-6.966577322731204e-05,-0.03372827934433231
88,207.8,749.371,55.9258,-0.00035446,204.745,-1.23107,-0.327554,0.0589222,-0.0225409,-0.0348308,0.0453451,-0.000254971,-7.09206e-05,0.0611952,0.060692715636697425,0.04638890641816329,-0.00025493849765700904,-0.022288752014479885,-7.091808519366083e-05,-0.03423118948323833
89,210.9,751.164,56.0681,-0.000362982,205.25,-1.23626,-0.328929,0.059781,-0.0228759,-0.0353508,0.0460113,-0.000259473,-7.21739e-05,0.0621353,0.061604029803178806,0.04708624296463171,-0.0002594393397924444,-0.022616230426858452,-7.217129552672397e-05,-0.034733258715393234
90,214.0,752.933,56.2086,-0.000371562,205.749,-1.24137,-0.330283,0.060639,-0.0232106,-0.0358704,0.0466768,-0.000263978,-7.34281e-05,0.0630748,0.06251527692986492,0.0477833107829142,-0.0002639431608734144,-0.022943306035378086,-7.342540422305976e-05,-0.035234681033365245
91,217.1,754.681,56.3473,-0.000380201,206.242,-1.24641,-0.331617,0.0614961,-0.023545,-0.0363895,0.0473418,-0.000268486,-7.46831e-05,0.0640134,0.06342634915795053,0.04848031841393596,-0.00026844996085928496,-0.02326997917104745,-7.468031128665675e-05,-0.035735360747777944
92,220.1,756.406,56.4844,-0.000388899,206.729,-1.25137,-0.332931,0.0623524,-0.0238791,-0.0369082,0.0480062,-0.000272997,-7.59389e-05,0.0649512,0.06433735113056316,0.04917716020269869,-0.00027295973970964393,-0.023596250164401922,-7.593601671473937e-05,-0.036235395121032354
93,223.2,758.11,56.6198,-0.000397654,207.209,-1.25625,-0.334225,0.0632079,-0.0242128,-0.0374264,0.04867,-0.000277511,-7.71955e-05,0.0658883,0.06524828132929006,0.04987383520249211,-0.0002774724973840792,-0.023922021737712074,-7.719252050408798e-05,-0.03673468856117712
94,226.3,759.793,56.7536,-0.000406466,207.684,-1.26107,-0.335501,0.0640626,-0.0245462,-0.0379441,0.0493333,-0.000282028,-7.84528e-05,0.0668246,0.06615913823459163,0.05057044752331774,-0.0002819882338420676,-0.024247391893445824,-7.844972265957928e-05,-0.03723324195122901
95,229.4,761.456,56.8858,-0.000415335,208.154,-1.26582,-0.336758,0.0649164,-0.0248794,-0.0384614,0.0499959,-0.000286546,-7.97107e-05,0.0677601,0.06706981361881614,0.05126678617336489,-0.0002865049496160177,-0.024572458503362316,-7.970752318653407e-05,-0.037731152399526735
96,232.5,763.099,57.0165,-0.000424261,208.617,-1.2705,-0.337998,0.0657695,-0.0252122,-0.0389782,0.050658,-0.000291068,-8.09693e-05,0.0686949,0.06798051928308246,0.05196306038863319,-0.0002910256438193315,-0.024897026778015863,-8.096602207463555e-05,-0.03822832445964086
97,235.6,764.723,57.1457,-0.000433243,209.076,-1.27512,-0.339221,0.0666217,-0.0255447,-0.0394946,0.0513195,-0.000295591,-8.22285e-05,0.0696288,0.06889104019947312,0.05265916416402061,-0.0002955473172845391,-0.0252211946207217,-8.222511932953758e-05,-0.038724855137634795
98,238.7,766.328,57.2734,-0.00044228,209.529,-1.27967,-0.340428,0.0674732,-0.0258769,-0.0400105,0.0519804,-0.000300116,-8.34883e-05,0.070562,0.06980158853113894,0.05335509655114268,-0.00030007096969819624,-0.02554496235906978,-8.348481494879767e-05,-0.03922064908382461
99,241.8,767.915,57.3997,-0.000451373,209.977,-1.28417,-0.341618,0.0683238,-0.0262088,-0.0405259,0.0526407,-0.000304644,-8.47485e-05,0.0714943,0.07071194888371268,0.054050856601296715,-0.00030459760072854003,-0.02586833032018132,-8.474490894727627e-05,-0.039715707173858084
100,244.9,769.483,57.5246,-0.000460521,210.42,-1.2886,-0.342793,0.0691736,-0.0265404,-0.0410409,0.0533005,-0.000309173,-8.60093e-05,0.0724259,0.07162222662010387,0.05474654884011354,-0.00030912521095327605,-0.026191298830708698,-8.600560130622714e-05,-0.04021012626082088
101,248.0,771.035,57.6482,-0.000469724,210.858,-1.29298,-0.343953,0.0700226,-0.0268716,-0.0415554,0.0539597,-0.000313704,-8.72705e-05,0.0733567,0.07253242021301198,0.05544206698270271,-0.0003136548000450823,-0.026513770868218822,-8.726669204062176e-05,-0.040703811139534474
102,251.0,772.569,57.7704,-0.000478981,211.292,-1.29731,-0.345098,0.0708708,-0.0272026,-0.0420694,0.0546183,-0.000318236,-8.85322e-05,0.0742867,0.07344252813404184,0.05613741007936546,-0.0003181853682953095,-0.026835941487882375,-8.852828114036537e-05,-0.04119676268120953
103,254.1,774.086,57.8913,-0.000488293,211.72,-1.30158,-0.346229,0.0717182,-0.0275333,-0.042583,0.0552763,-0.00032277,-8.97943e-05,0.075216,0.07435254885370535,0.056832577180091715,-0.0003227179153675319,-0.027157713634075487,-8.97902686124441e-05,-0.04168907758660656
104,257.2,775.587,58.011,-0.000497658,212.144,-1.30579,-0.347346,0.0725648,-0.0278636,-0.0430962,0.0559338,-0.000327305,-9.10567e-05,0.0761444,0.07526248084142728,0.05752767308732598,-0.00032725144156209307,-0.027478990379486756,-9.105255446451022e-05,-0.042180756576369105
105,260.3,777.072,58.1294,-0.000507077,212.564,-1.30996,-0.34845,0.0734106,-0.0281937,-0.0436088,0.0565907,-0.000331842,-9.23195e-05,0.0770721,0.07617232256554796,0.0582225912366543,-0.0003317869465334633,-0.027799966584725166,-9.231523868602487e-05,-0.0426716089043484
106,263.4,778.541,58.2466,-0.000516549,212.979,-1.31408,-0.349541,0.0742556,-0.0285234,-0.044121,0.057247,-0.000336379,-9.35827e-05,0.0779989,0.07708207249332832,0.05891733067709293,-0.0003363224309274049,-0.028120448101461082,-9.35783212756558e-05,-0.04316182695070869
107,266.5,779.995,58.3627,-0.000526074,213.391,-1.31815,-0.350619,0.0750998,-0.0288528,-0.0446328,0.0579027,-0.000340918,-9.48461e-05,0.078925,0.07799172909095309,0.05961189045735682,-0.0003408598940620733,-0.028440532505060956,-9.484160225081695e-05,-0.04365141143231965
108,269.6,781.434,58.4775,-0.000535652,213.797,-1.32217,-0.351685,0.0759433,-0.029182,-0.0451441,0.0585579,-0.000345458,-9.61098e-05,0.0798503,0.07890139871366952,0.060306375656490996,-0.00034539833625579774,-0.028760317242304656,-9.61051816010805e-05,-0.04414026747895594
109,272.7,782.858,58.5912,-0.000545283,214.2,-1.32615,-0.352738,0.0767859,-0.0295108,-0.0456549,0.0592125,-0.000349999,-9.73738e-05,0.0807748,0.07981086413619987,0.061000679430828875,-0.00034993775749514455,-0.029079608355659814,-9.736905932533624e-05,-0.044628395951702426
110,275.8,784.268,58.7038,-0.000554967,214.599,-1.33008,-0.353781,0.0776277,-0.0298393,-0.0461653,0.0598665,-0.000354541,-9.8638e-05,0.0816985,0.08072023162070385,0.061694800828132834,-0.00035447815776679104,-0.0293985033229488,-9.863313543234664e-05,-0.045115893198528045
111,278.9,785.664,58.8154,-0.000564702,214.994,-1.33397,-0.354811,0.0784688,-0.0301675,-0.0466753,0.06052,-0.000359083,-9.99024e-05,0.0826214,0.08162960779205752,0.0623888451347514,-0.00035901853741571177,-0.029717002465589837,-9.989740992133456e-05,-0.04560275993142715
112,281.9,787.046,58.9258,-0.00057449,215.385,-1.33782,-0.355831,0.079309,-0.0304954,-0.0471847,0.0611729,-0.000363626,-0.000101167,0.0835435,0.08253877487613193,0.06308270529774207,-0.00036355989607883554,-0.030035106104539744,-0.00010116188279163385,-0.04608880607905397
113,285.0,788.415,59.0352,-0.00058433,215.772,-1.34162,-0.35684,0.0801485,-0.030823,-0.0476938,0.0618252,-0.00036817,-0.000102432,0.0844649,0.08344794774955822,0.06377638036393418,-0.0003681022337425066,-0.030352814560293595,-0.00010242675402172274,-0.04657431867016271
114,288.1,789.77,59.1436,-0.000594221,216.156,-1.34539,-0.357839,0.0809872,-0.0311503,-0.0482023,0.0624769,-0.000372715,-0.000103697,0.0853854,0.08435701670811557,0.06446986937986865,-0.00037264555039306924,-0.030670128152885723,-0.00010369162365186924,-0.04705901238529775
115,291.2,791.112,59.2509,-0.000604165,216.536,-1.34912,-0.358827,0.0818251,-0.0314773,-0.0487104,0.0631281,-0.00037726,-0.000104962,0.0863052,0.08526598020949394,0.06516327790812171,-0.00037718884639426076,-0.030987047201891382,-0.0001049564916819623,-0.04754307871364005
116,294.3,792.442,59.3573,-0.000614159,216.912,-1.35281,-0.359805,0.0826622,-0.031804,-0.0492181,0.0637787,-0.000381805,-0.000106227,0.0872242,0.08617483671034365,0.06585649861697296,-0.00038173212174641424,-0.031303572026425086,-0.00010622135811200195,-0.04802651836103833
117,297.4,793.759,59.4627,-0.000624205,217.285,-1.35647,-0.360774,0.0834986,-0.0321304,-0.0497253,0.0644288,-0.000386351,-0.000107492,0.0881424,0.08708369337464128,0.0665496372070109,-0.0003862763760630328,-0.03161970294514305,-0.00010748622294187715,-0.04850923688316022
118,300.5,795.064,59.5672,-0.000634303,217.654,-1.36009,-0.361733,0.0843341,-0.0324565,-0.0502321,0.0650783,-0.000390897,-0.000108758,0.0890598,0.08799233133110507,0.0672425862072048,-0.00039082060972162047,-0.031935440276242844,-0.00010875208606309084,-0.048991330229135266
119,303.6,796.357,59.6707,-0.000644451,218.021,-1.36368,-0.362684,0.0851689,-0.0327823,-0.0507384,0.0657272,-0.000395444,-0.000110023,0.0899764,0.08890096654086865,0.06793534466256679,-0.0003953658223265766,-0.03225078433746387,-0.00011001694769163795,-0.049472704048574845
120,306.7,797.638,59.7733,-0.000654651,218.384,-1.36723,-0.363625,0.0860029,-0.0331078,-0.0512442,0.0663756,-0.00039999,-0.000111289,0.0908922,0.0898094887480636,0.06862801848063005,-0.0003999100146646617,-0.03256573544608832,-0.00011128280760897002,-0.04995335918693533
121,309.0,798.598,59.8503,-0.000666328,218.656,-1.36989,-0.36433,0.0866326,-0.0333536,-0.0516261,0.0668651,-0.000403424,-0.000112244,0.0915837,0.09049595789525577,0.069151239943682,-0.00040334263547991966,-0.03280350156566236,-0.00011223770087787077,-0.050316112726864426
