,Time,S11,S22,S33,S12,S13,S23,LE11,LE22,LE33,LE12,LE13,LE23,SDV_EPBAR,E11,E12,E13,E22,E23,E33
0,0.000309,0.0019383,0.000139163,-7.79048e-12,0.000519365,9.3624e-20,3.36396e-20,9.1292e-09,-2.12864e-09,-3.00057e-09,6.49972e-09,9.45271e-25,4.67314e-25,0.0,9.129200062574228e-09,6.499720095476391e-09,0.0,-2.128640042009522e-09,0.0,-3.0005700146773506e-09
1,0.000618,0.00387659,0.000278327,3.25261e-19,0.00103873,3.61973e-20,-7.40724e-21,1.82584e-08,-4.2578e-09,-6.00057e-09,1.29997e-08,9.27189e-26,4.52981e-25,0.0,1.8258400125148455e-08,1.2999699983140545e-08,0.0,-4.257800001461476e-09,0.0,-6.000569929831556e-09
2,0.0010815,0.00678404,0.000487072,3.25261e-19,0.00181778,-8.55315e-21,3.19208e-20,3.19522e-08,-7.45077e-09,-1.05014e-08,2.27493e-08,2.14063e-25,-7.98907e-25,0.0,3.19522004410544e-08,2.2749300221391877e-08,0.0,-7.45077000097183e-09,0.0,-1.0501399971829528e-08
3,0.0017767,0.0111452,0.00080019,7.58942e-19,0.00298635,8.55315e-21,-3.19208e-20,5.24927e-08,-1.22421e-08,-1.72507e-08,3.73747e-08,4.28159e-25,-1.59792e-24,0.0,5.249270129681349e-08,3.737470066766946e-08,0.0,-1.2242099889370195e-08,0.0,-1.725069986857619e-08
4,0.0028196,0.017687,0.00126987,-2.27682e-18,0.00473921,-1.65988e-27,-4.44764e-28,8.33037e-08,-1.94275e-08,-2.73762e-08,5.93119e-08,1.2845e-24,-4.79383e-24,0.0,8.33037034908557e-08,5.931190183439128e-08,0.0,-1.9427499831081718e-08,0.0,-2.7376199640549714e-08
5,0.0043839,0.0274996,0.00197438,-4.01155e-18,0.00736849,1.71063e-20,-6.38416e-20,1.2952e-07,-3.02058e-08,-4.25643e-08,9.22178e-08,-1.48338e-24,-7.24799e-24,0.0,1.295200084960868e-07,9.221780428170234e-08,0.0,-3.0205799528282284e-08,0.0,-4.256429908533477e-08
6,0.0067304,0.0422185,0.00303115,-4.01155e-18,0.0113124,1.74418e-19,1.1516e-19,1.98845e-07,-4.63759e-08,-6.53437e-08,1.41578e-07,3.19598e-24,8.5636e-25,0.0,1.9884501978317815e-07,1.4157800998226833e-07,0.0,-4.637589889888716e-08,0.0,-6.534369789701344e-08
7,0.01025,0.0642969,0.00461631,8.13152e-18,0.0172283,2.08631e-19,-1.25227e-20,3.02832e-07,-7.06269e-08,-9.95172e-08,2.15616e-07,2.29126e-25,-1.36391e-23,0.0,3.0283204588421597e-07,2.156160232580362e-07,0.0,-7.062689755255036e-08,0.0,-9.951719504019962e-08
8,0.01553,0.0974145,0.00699405,2.92735e-18,0.0261021,-1.49373e-19,3.02101e-19,4.58812e-07,-1.07003e-07,-1.50778e-07,3.26673e-07,-3.42531e-24,1.27835e-23,0.0,4.5881210519738147e-07,3.266730532747175e-07,0.0,-1.0700299424293291e-07,0.0,-1.5077798865004155e-07
9,0.023449,0.147091,0.0105607,6.39679e-18,0.0394129,6.16725e-19,5.07377e-19,6.92782e-07,-1.61575e-07,-2.2766e-07,4.93263e-07,1.27839e-23,3.42544e-24,0.0,6.927822400193406e-07,4.932631216814087e-07,0.0,-1.6157498694546746e-07,0.0,-2.2765997409468497e-07
10,0.035328,0.221605,0.0159106,-7.48099e-18,0.059379,8.22001e-19,-2.58722e-19,1.04374e-06,-2.43427e-07,-3.4299e-07,7.43145e-07,1.27839e-23,3.42544e-24,0.0,1.0437405446594994e-06,7.43145276205226e-07,0.0,-2.4342697035883987e-07,0.0,-3.429899412266124e-07
11,0.053146,0.333377,0.0239354,-3.52366e-17,0.0893282,1.43291e-18,1.54718e-18,1.57017e-06,-3.66206e-07,-5.15985e-07,1.11797e-06,-4.82329e-29,-1.2924e-29,0.0,1.570171232812001e-06,1.1179706249642152e-06,0.0,-3.662059329112566e-07,0.0,-5.159848668334632e-07
12,0.079874,0.501035,0.0359727,-2.13588e-17,0.134252,1.15921e-18,2.56864e-18,2.35982e-06,-5.50367e-07,-7.75483e-07,1.6802e-06,-4.1105e-23,1.53406e-22,0.0,2.3598227842924757e-06,1.6802014115580022e-06,0.0,-5.503668485395963e-07,0.0,-7.754826992778519e-07
13,0.12,0.752521,0.0540286,-7.48099e-18,0.201637,2.25401e-18,-1.51722e-18,3.54429e-06,-8.26616e-07,-1.16472e-06,2.52354e-06,-1.0888e-28,-2.91744e-29,0.0,3.544296280910686e-06,2.523543184196342e-06,0.0,-8.266156583669471e-07,0.0,-1.1647193217667606e-06
14,0.1801,1.12975,0.0811124,2.02746e-17,0.302715,9.8783e-18,2.71531e-18,5.321e-06,-1.241e-06,-1.74857e-06,3.78857e-06,1.53406e-22,4.11051e-23,0.0,5.321014156622894e-06,3.788577176644381e-06,0.0,-1.2409992299344808e-06,0.0,-1.7485684712381655e-06
15,0.2703,1.69559,0.121738,-7.48099e-18,0.454332,-5.51699e-18,2.96936e-18,7.98605e-06,-1.86256e-06,-2.62435e-06,5.6861e-06,6.26956e-28,1.67992e-28,0.0,7.986081888677887e-06,5.686116165914967e-06,0.0,-1.862558265397496e-06,0.0,-2.6243465564013135e-06
16,0.4056,2.54435,0.182676,4.92119e-16,0.681756,-3.36327e-19,-2.16935e-20,1.19836e-05,-2.79488e-06,-3.93804e-06,8.53236e-06,2.19228e-22,-8.18169e-22,0.0,1.1983671803550422e-05,8.532396400751097e-06,0.0,-2.7948760943363737e-06,0.0,-3.938032245964784e-06
17,0.6086,3.81748,0.274083,3.81097e-16,1.02289,-3.36325e-19,-2.16927e-20,1.79799e-05,-4.19337e-06,-5.90853e-06,1.28018e-05,9.49301e-23,4.63893e-22,0.0,1.79800616393333e-05,1.2801881943413917e-05,0.0,-4.1933612078270954e-06,0.0,-5.908512544672284e-06
18,0.913,5.72716,0.411192,4.92119e-16,1.53459,3.23501e-17,8.73662e-18,2.69743e-05,-6.2911e-06,-8.86425e-06,1.92058e-05,4.09074e-22,1.09611e-22,0.0,2.697466380974234e-05,1.920598443261312e-05,0.0,-6.291080211107136e-06,0.0,-8.864210712666853e-06
19,1.37,8.59165,0.616853,-1.28424e-15,2.30213,-3.36733e-19,-2.18022e-20,4.04657e-05,-9.43765e-06,-1.32978e-05,2.88117e-05,4.38461e-22,-1.63636e-21,0.0,4.0466518747450664e-05,2.8812115061116472e-05,0.0,-9.4376054655676e-06,0.0,-1.3297711584647764e-05
20,2.055,12.8883,0.925338,-5.059e-15,3.45341,6.94144e-17,1.1511e-18,6.07025e-05,-1.41574e-05,-1.99479e-05,4.32204e-05,-7.0378e-26,-1.88577e-26,0.0,6.070434243410361e-05,4.322133401490902e-05,0.0,-1.4157299784489652e-05,0.0,-1.994770104196686e-05
21,3.082,19.3331,1.38805,-2.81516e-14,5.18029,7.817e-17,-3.15365e-17,9.10568e-05,-2.12368e-05,-2.99229e-05,6.48327e-05,8.76832e-22,-3.2728e-21,0.0,9.106094579625079e-05,6.483480168495426e-05,0.0,-2.123657450070482e-05,0.0,-2.992245231447921e-05
22,4.623,116.413,8.35811,-1.03265e-09,31.1929,9.83292e-16,7.71529e-16,0.000548295,-0.000127877,-0.000180179,0.000390388,3.49743e-21,-1.3096e-20,0.0,0.0005484453411794821,0.0003904642113123913,0.0,-0.00012786882408488687,0.0,-0.00018016276873877857
23,6.935,262.609,18.8545,-9.04826e-07,70.3658,1.26247e-15,-2.74743e-16,0.00123686,-0.000288468,-0.000406453,0.000880648,1.40118e-20,-5.23908e-20,0.0,0.0012376252267900512,0.0008810358843047705,0.0,-0.0002884263971069112,0.0,-0.00040637040916957634
24,10.03,446.44,32.0927,0.00248385,119.701,-0.0117939,-0.00315842,0.00215605,-0.000511245,-0.000723421,0.00153874,-1.52169e-07,-4.08072e-08,5.88606e-05,0.0021583759471202058,0.0015399244678453439,-1.5216898840986204e-07,-0.0005111143365428283,-4.080719917531894e-08,-0.0007231593941159353
25,13.12,468.016,33.7934,8.893e-05,125.762,-0.121126,-0.0324119,0.00307236,-0.000854763,-0.0012514,0.00223588,-2.18908e-06,-5.9422e-07,0.000956961,0.003077084535236807,0.0022383814436490734,-2.1890776039645843e-06,-0.0008543977941691816,-5.942198234576423e-07,-0.001250617325533665
26,16.21,485.782,35.1925,7.92677e-05,130.753,-0.210455,-0.0562877,0.00398761,-0.0012007,-0.00178381,0.00293359,-4.44855e-06,-1.21269e-06,0.00187392,0.003995571095152917,0.0029378971859534975,-4.448540105173038e-06,-0.0011999794481726278,-1.2126892646735499e-06,-0.0017822199565276087
27,19.3,500.926,36.3845,3.19361e-05,135.006,-0.28512,-0.0762272,0.00490182,-0.00154816,-0.0023191,0.00363156,-6.90276e-06,-1.88766e-06,0.00280355,0.004913853573759397,0.003638162103576148,-6.902736175984359e-06,-0.0015469622185059206,-1.8876582184024215e-06,-0.0023164129651638277
28,22.39,514.154,37.4249,1.25697e-05,138.719,-0.348919,-0.0932528,0.00581499,-0.00189661,-0.00285636,0.00432961,-9.53023e-06,-2.61256e-06,0.00374216,0.0058319298734976766,0.004338996302830633,-9.530184587491775e-06,-0.0018948125717735964,-2.6125565872892054e-06,-0.002852284485077905
29,25.48,525.916,38.3496,3.44213e-06,142.021,-0.404412,-0.108052,0.00672715,-0.00224572,-0.00339498,0.00502761,-1.23115e-05,-3.38156e-06,0.00468741,0.006749828098029598,0.005040269638171946,-1.2311424213762301e-05,-0.002243200257405764,-3.3815542824777722e-06,-0.0033892235715621277
30,28.57,536.522,39.1829,-1.79038e-06,144.996,-0.453378,-0.121103,0.00763831,-0.00259526,-0.00393457,0.00572548,-1.52293e-05,-4.18958e-06,0.00563769,0.00766755630652427,0.005741901886717082,-1.5229184034848409e-05,-0.0025918952242182103,-4.189571223722766e-06,-0.003926839721221875
31,31.66,546.19,39.9422,-5.45925e-06,147.709,-0.497097,-0.132751,0.00854847,-0.00294507,-0.00447484,0.00642312,-1.82688e-05,-5.03227e-06,0.00659185,0.008585112507706993,0.006443792472155874,-1.8268633126483635e-05,-0.0029407375355281484,-5.032257338166701e-06,-0.004464842820971704
32,34.75,555.082,40.6403,-8.52449e-06,150.202,-0.536517,-0.143248,0.00945764,-0.00329504,-0.00501558,0.00712049,-2.14173e-05,-5.90594e-06,0.00754907,0.009502504804030254,0.0071459009659577966,-2.1417070651286174e-05,-0.0032896173133240003,-5.905922560001109e-06,-0.005003022980981209
33,37.84,563.319,41.2867,-1.14115e-05,152.512,-0.572359,-0.152788,0.0103658,-0.00364509,-0.00555662,0.00781754,-2.46638e-05,-6.80739e-06,0.00850869,0.010419711020752898,0.00784817674845839,-2.4663495850951733e-05,-0.0036384547239536325,-6.807366829786332e-06,-0.0055412105418003454
34,40.93,570.997,41.8892,-1.43177e-05,154.665,-0.60518,-0.161521,0.0112731,-0.00399515,-0.00609784,0.00851424,-2.79988e-05,-7.7339e-06,0.00947023,0.011336880835731256,0.008550589230174932,-2.7998408037244182e-05,-0.003987180005545987,-7.7338700934515e-06,-0.006079285906122167
35,44.02,578.191,42.4535,-1.73381e-05,156.682,-0.63542,-0.169565,0.0121793,-0.00434516,-0.00663916,0.00921054,-3.1414e-05,-8.68309e-06,0.0104333,0.012253769696741523,0.009253087551863715,-3.1413506585420414e-05,-0.004335733450518187,-8.6830523020609e-06,-0.006617169470375384
36,47.11,584.963,42.9847,-2.05147e-05,158.58,-0.663431,-0.177013,0.0130846,-0.00469508,-0.00718048,0.00990644,-3.49022e-05,-9.6529e-06,0.0113976,0.013170577965095243,0.009955671211121508,-3.490159092534029e-05,-0.0046840753412176195,-9.652853410924145e-06,-0.007154761946290722
37,50.2,591.362,43.4865,-2.3867e-05,160.373,-0.689502,-0.183943,0.013989,-0.00504488,-0.00772174,0.0106019,-3.84572e-05,-1.06415e-05,0.0123628,0.014087303916797023,0.010658299278760275,-3.845646053135532e-05,-0.005032175965314689,-1.06414433794777e-05,-0.007692003952919468
38,53.29,597.43,43.9624,-2.74011e-05,162.074,-0.713868,-0.190419,0.0148924,-0.00539453,-0.00826289,0.0112969,-4.20734e-05,-1.16474e-05,0.0133288,0.015003844326123339,0.011360950939928172,-4.207251492693853e-05,-0.005380005652119824,-1.1647332169295588e-05,-0.008228846155800329
39,56.38,603.201,44.4149,-3.11166e-05,163.692,-0.736726,-0.196492,0.0157948,-0.00574401,-0.00880388,0.0119914,-4.57458e-05,-1.26691e-05,0.0142953,0.015920197191471752,0.012063585081819816,-4.5744753676801864e-05,-0.005727544715231292,-1.2669019747280075e-05,-0.008765239327565344
40,59.47,608.705,44.8465,-3.50098e-05,165.234,-0.758241,-0.202207,0.0166964,-0.0060933,-0.00934469,0.0126855,-4.94701e-05,-1.37054e-05,0.0152622,0.016836563877286936,0.012766302266011165,-4.946887637480302e-05,-0.006074773495837071,-1.3705306081468471e-05,-0.009301164068692969
41,62.56,613.967,45.2592,-3.90752e-05,166.709,-0.778553,-0.207602,0.0175969,-0.00644239,-0.00988527,0.0133791,-5.32425e-05,-1.47552e-05,0.0162294,0.017752637603349886,0.013469000640888185,-5.324108264326277e-05,-0.006421682298437537,-1.4755091142570897e-05,-0.009836571317156984
42,65.65,619.009,45.6546,-4.33067e-05,168.122,-0.797783,-0.212707,0.0184966,-0.00679125,-0.0104256,0.0140721,-5.70593e-05,-1.58175e-05,0.0171968,0.01866872169003364,0.014171578073295166,-5.705767214914115e-05,-0.006768241576501133,-1.5817374903970283e-05,-0.010371441806278359
43,68.74,623.849,46.0342,-4.76982e-05,169.479,-0.816033,-0.217552,0.0193953,-0.00713988,-0.0109656,0.0147647,-6.09174e-05,-1.68914e-05,0.0181642,0.019584610763327293,0.014874236610831426,-6.091554457288151e-05,-0.007114451611331618,-1.689125734105623e-05,-0.010905696965827438
44,71.83,628.505,46.3993,-5.22434e-05,170.784,-0.833393,-0.22216,0.0202931,-0.00748827,-0.0115054,0.0154567,-6.4814e-05,-1.7976e-05,0.0191317,0.02050040486532878,0.01557677263199464,-6.481189961804468e-05,-0.0074603027584958514,-1.797583843266004e-05,-0.011439465993383746
45,74.92,632.99,46.7511,-5.69364e-05,172.041,-0.849941,-0.226551,0.02119,-0.00783641,-0.0120448,0.0161482,-6.87465e-05,-1.90707e-05,0.020099,0.021416102261565317,0.016279286836562434,-6.874413701352111e-05,-0.007805785387043018,-1.907051815530636e-05,-0.011972551759270589
46,78.01,637.317,47.0906,-6.17715e-05,173.254,-0.865745,-0.230745,0.022086,-0.00818429,-0.0125839,0.0168391,-7.27125e-05,-2.01748e-05,0.0210662,0.022331701216268707,0.01698167680851337,-7.270985651020023e-05,-0.00815088987946666,-2.017459649006348e-05,-0.012505053807793431
47,81.1,641.498,47.4187,-6.67435e-05,174.426,-0.880866,-0.234756,0.0229811,-0.0085319,-0.0131227,0.0175295,-7.67098e-05,-2.12877e-05,0.0220332,0.02324719999237934,0.01768404338722629,-7.670685787852793e-05,-0.008495606631669594,-2.1287473418563074e-05,-0.01303697277296434
48,84.19,645.543,47.7361,-7.18473e-05,175.56,-0.895358,-0.2386,0.0238752,-0.00887924,-0.0136611,0.0182194,-8.07366e-05,-2.24088e-05,0.0229999,0.024162494435298276,0.018386385853935705,-8.07333408884281e-05,-0.008839935964525036,-2.240854892476829e-05,-0.013568210644755552
49,87.28,649.461,48.0436,-7.70784e-05,176.659,-0.909267,-0.24229,0.0247685,-0.00922631,-0.0141992,0.0189087,-8.47909e-05,-2.35376e-05,0.0239663,0.025077787546379682,0.019088601580551146,-8.478730535321777e-05,-0.009183878198481543,-2.353732299287259e-05,-0.014098866804763466
50,90.37,653.261,48.3419,-8.24323e-05,177.724,-0.922637,-0.245835,0.0256608,-0.00957309,-0.0147368,0.0195975,-8.88712e-05,-2.46737e-05,0.0249323,0.02599287266071526,0.019790791615805325,-8.886725107182247e-05,-0.00952741384411182,-2.467339560674464e-05,-0.01462874480999965
51,93.46,656.949,48.6315,-8.79051e-05,178.759,-0.935506,-0.249248,0.0265522,-0.00991959,-0.0152741,0.0202857,-9.29758e-05,-2.58166e-05,0.025898,0.0269078504524205,0.020492853190274163,-9.297147788422944e-05,-0.009870553142897975,-2.581626675446369e-05,-0.015158042576834507
52,96.55,660.532,48.9129,-9.34929e-05,179.764,-0.947908,-0.252536,0.0274428,-0.0102658,-0.015811,0.0209733,-9.71035e-05,-2.69659e-05,0.0268632,0.02782282196036867,0.021194785372756098,-9.709878560770768e-05,-0.010213286526408738,-2.6965536423340097e-05,-0.015686662303111
53,99.64,664.018,49.1866,-9.91923e-05,180.741,-0.959873,-0.255708,0.0283324,-0.0106117,-0.0163475,0.0216604,-0.000101253,-2.81212e-05,0.027828,0.02873757996681836,0.02189668942130729,-0.00010124787408793967,-0.010555594545014424,-2.8120804602793648e-05,-0.01621460477555381
54,102.7,667.41,49.4531,-0.000105,181.693,-0.971431,-0.258772,0.0292211,-0.0109573,-0.0168835,0.0223469,-0.000105423,-2.92823e-05,0.0287924,0.029652225416642475,0.022598462354593174,-0.00010541744319081392,-0.010897487449042953,-2.9281871277597737e-05,-0.016741772453835457
55,105.8,670.714,49.7128,-0.000110913,182.62,-0.982607,-0.261734,0.030109,-0.0113027,-0.0174192,0.0230328,-0.000109612,-3.04487e-05,0.0297562,0.030566859619355347,0.023300103240156078,-0.00010960599282416883,-0.01123906446313161,-3.044823644304806e-05,-0.017268362826507233
56,108.9,673.936,49.966,-0.000116928,183.524,-0.993423,-0.264601,0.030996,-0.0116477,-0.0179544,0.0237182,-0.000113819,-3.16202e-05,0.0307195,0.03148137795275918,0.024001713545302117,-0.00011381252286335464,-0.011580128149023206,-3.161970008669357e-05,-0.01779418007747524
57,112.0,677.079,50.2131,-0.000123042,184.406,-1.0039,-0.267378,0.031882,-0.0119924,-0.0184893,0.024403,-0.000118043,-3.27965e-05,0.0316822,0.03239567542759669,0.024703190076889037,-0.00011803603319915368,-0.011920777764516055,-3.279596220062686e-05,-0.018319421482214437
58,115.1,680.147,50.4544,-0.000129253,185.267,-1.01406,-0.270071,0.0327672,-0.0123369,-0.0190237,0.0250872,-0.000122284,-3.39774e-05,0.0326444,0.03330995668066672,0.02540453190121794,-0.00012227652361640473,-0.012261112430564047,-3.3976822774728355e-05,-0.018843891432522075
59,118.2,683.144,50.6902,-0.000135559,186.108,-1.02392,-0.272684,0.0336515,-0.012681,-0.0195576,0.0257708,-0.000126541,-3.51626e-05,0.033606,0.03422411681168969,0.026105738084192254,-0.00012653299402531903,-0.012600934911965789,-3.5161981802978026e-05,-0.01936759086488271
60,121.3,686.073,50.9206,-0.000141958,186.931,-1.0335,-0.275221,0.034535,-0.0130248,-0.0200912,0.0264538,-0.000130812,-3.63519e-05,0.034567,0.035138257581114996,0.026806807691321266,-0.00013080344448335168,-0.012940344362715295,-3.635123927769879e-05,-0.01989071673600229
61,124.4,688.938,51.1461,-0.000148446,187.735,-1.04281,-0.277688,0.0354175,-0.0133683,-0.0206243,0.0271363,-0.000135097,-3.75451e-05,0.0355274,0.03605217029810337,0.027507842538500027,-0.00013508787481120166,-0.013279341128399014,-3.754439519154662e-05,-0.020413073748277943
62,127.4,691.742,51.3668,-0.000155022,188.522,-1.05186,-0.280086,0.0362992,-0.0137115,-0.0211569,0.0278182,-0.000139395,-3.87419e-05,0.0364872,0.036966060325869465,0.02820873907984378,-0.0001393852849683741,-0.013617925554112786,-3.8741149542276254e-05,-0.020934662833696382
63,130.5,694.487,51.5829,-0.000161685,189.293,-1.06068,-0.282421,0.03718,-0.0140544,-0.0216891,0.0284995,-0.000143706,-3.99422e-05,0.0374463,0.03787982239354348,0.028909496379647237,-0.00014369567478733636,-0.013956097984463622,-3.994140232099763e-05,-0.02145558277704418
64,133.6,697.175,51.7946,-0.000168432,190.048,-1.06926,-0.284695,0.0380599,-0.014397,-0.0222209,0.0291802,-0.000148029,-4.11458e-05,0.0384048,0.03879345474287321,0.029610113501817414,-0.0001480180442481327,-0.014293858763568923,-4.114495352314229e-05,-0.021975834350968726
65,136.7,699.81,52.0022,-0.000175262,190.788,-1.07762,-0.286911,0.038939,-0.0147392,-0.0227522,0.0298604,-0.000152363,-4.23526e-05,0.0393627,0.039707059585108784,0.03031069254094132,-0.00015235139334757175,-0.01463110969817416,-4.2351703141263464e-05,-0.022495320576442213
66,139.8,702.392,52.2057,-0.000182173,191.514,-1.08578,-0.289072,0.0398172,-0.0150812,-0.0232831,0.0305399,-0.000156707,-4.35624e-05,0.0403198,0.0406205313715895,0.031011026568061872,-0.00015669472209933755,-0.014968048238882758,-4.356145117245802e-05,-0.02301414007792546
67,142.9,704.926,52.4054,-0.000189163,192.226,-1.09374,-0.29118,0.0406945,-0.0154228,-0.0238135,0.0312189,-0.000161062,-4.4775e-05,0.0412763,0.04153386834044337,0.03171132077808059,-0.00016104903021230133,-0.015304477688182994,-4.477399761459999e-05,-0.02353219597745837
68,146.0,707.412,52.6015,-0.000196232,192.924,-1.10151,-0.293238,0.041571,-0.0157642,-0.0243435,0.0318973,-0.000165427,-4.59903e-05,0.0422321,0.04244717297332867,0.03241147120226806,-0.00016541331770825174,-0.01564059536094875,-4.598924246235203e-05,-0.024049586792913136
69,149.1,709.852,52.7939,-0.000203377,193.61,-1.1091,-0.295249,0.0424466,-0.0161052,-0.024873,0.0325751,-0.000169801,-4.72082e-05,0.0431872,0.04336033944392326,0.03311147690258154,-0.00016978658462607488,-0.01597620469328742,-4.720708571048782e-05,-0.024566215747120035
70,152.2,712.248,52.983,-0.000210598,194.284,-1.11652,-0.297214,0.0433213,-0.0164459,-0.025402,0.0332523,-0.000174184,-4.84285e-05,0.0441416,0.04427336598678,0.033811336940602565,-0.00017416883084775403,-0.01631140449581958,-4.8427327359101824e-05,-0.0250820837598702
71,155.3,714.602,53.1687,-0.000217893,194.946,-1.12377,-0.299135,0.0441952,-0.0167863,-0.0259306,0.0339289,-0.000178575,-4.96512e-05,0.0450953,0.0451863553539158,0.034511050377538766,-0.00017855905643371361,-0.01664619510913412,-4.964996739953431e-05,-0.025597289189603134
72,158.3,716.915,53.3513,-0.000225261,195.596,-1.13087,-0.301014,0.0450683,-0.0171264,-0.0264588,0.034605,-0.000182974,-5.0876e-05,0.0460483,0.04609930605140655,0.03521071979529333,-0.00018295726127848244,-0.01698057687333543,-5.087470583819975e-05,-0.02611183279852336
73,161.4,719.189,53.5309,-0.0002327,196.235,-1.13781,-0.302853,0.0459404,-0.0174661,-0.0269865,0.0352804,-0.000187381,-5.2103e-05,0.0470005,0.04701200718169507,0.0359101372821411,-0.00018736344527681137,-0.01731445185949454,-5.210164266222783e-05,-0.026625618010204688
74,164.5,721.425,53.7075,-0.000240211,196.864,-1.14461,-0.304654,0.0468118,-0.0178056,-0.0275137,0.0359553,-0.000191795,-5.3332e-05,0.047952,0.047924771078224904,0.036609509010236074,-0.00019177660851477096,-0.01764801697720564,-5.3330577874155516e-05,-0.02713864573839797
75,167.6,723.624,53.8812,-0.000247791,197.483,-1.15128,-0.306418,0.0476822,-0.0181447,-0.0280405,0.0366296,-0.000196216,-5.45628e-05,0.0489028,0.048837281866056736,0.037308730518199607,-0.0001961967508996576,-0.017981076061289514,-5.456131147751897e-05,-0.027651014130139262
76,170.7,725.788,54.0523,-0.00025544,198.092,-1.1578,-0.308147,0.0485519,-0.0184836,-0.0285668,0.0373033,-0.000200643,-5.57955e-05,0.0498529,0.04974985242388197,0.03800780086535527,-0.00020062287253941324,-0.018313825886969504,-5.579394346000299e-05,-0.028162626758730047
77,173.8,727.917,54.2206,-0.000263157,198.691,-1.1642,-0.309842,0.0494207,-0.0188221,-0.0290926,0.0379764,-0.000205077,-5.70299e-05,0.0508022,0.050662271393075775,0.038706719110665144,-0.00020505597314934843,-0.018646070421346916,-5.702827382614295e-05,-0.028673484533301763
78,176.9,730.014,54.3864,-0.000270941,199.281,-1.17048,-0.311504,0.0502886,-0.0191603,-0.029618,0.0386489,-0.000209517,-5.8266e-05,0.0517508,0.05157453699881409,0.03940548431273139,-0.00020949505284606484,-0.018977908203398508,-5.826430256961057e-05,-0.02918368544301253
79,180.0,732.079,54.5498,-0.00027879,199.862,-1.17664,-0.313134,0.0511557,-0.0194981,-0.030143,0.0393208,-0.000213962,-5.95036e-05,0.0526986,0.05248675271381398,0.0401040955297971,-0.0002139391117635947,-0.01930924150066271,-5.950182969594042e-05,-0.029693230240941837
80,183.1,734.112,54.7107,-0.000286705,200.435,-1.18268,-0.314735,0.052022,-0.0198357,-0.0306674,0.0399922,-0.000218412,-6.07427e-05,0.0536457,0.053398917034618965,0.040802655900010976,-0.00021838814983543564,-0.01964026682051412,-6.074085519958139e-05,-0.03020192571939151
81,186.2,736.116,54.8693,-0.000294685,200.999,-1.18861,-0.316306,0.0528874,-0.020173,-0.0311914,0.0406629,-0.000222868,-6.19832e-05,0.054592,0.05431092302549456,0.04150095639021556,-0.00022284316677212423,-0.019970886396389553,-6.198127908108031e-05,-0.030709966791929055
82,189.2,738.09,55.0256,-0.000302728,201.555,-1.19444,-0.317849,0.053752,-0.0205099,-0.031715,0.0413331,-0.000227329,-6.32251e-05,0.0555375,0.05522287442932505,0.04219920428792312,-0.0002273031627206823,-0.02030100259356682,-6.322310133544118e-05,-0.031217354207699333
83,192.3,740.036,55.1797,-0.000310835,202.103,-1.20017,-0.319365,0.0546157,-0.0208465,-0.032238,0.0420027,-0.000231794,-6.44682e-05,0.0564823,0.05613466412566903,0.042897294569657074,-0.00023176713784622827,-0.02063071378258763,-6.446612197019697e-05,-0.03172389505946971
84,195.4,741.955,55.3317,-0.000319004,202.644,-1.20579,-0.320855,0.0554786,-0.0211828,-0.0327606,0.0426717,-0.000236263,-6.57125e-05,0.0574264,0.05704639603750339,0.04359522629185486,-0.0002362350920952494,-0.0209600202975484,-6.571034098090678e-05,-0.032229783951630564
85,198.5,743.847,55.4817,-0.000327234,203.177,-1.21132,-0.32232,0.0563407,-0.0215188,-0.0332828,0.0433401,-0.000240737,-6.6958e-05,0.0583696,0.0579580686555452,0.04429299851060575,-0.0002407080251735083,-0.021288922472068927,-6.695575836312972e-05,-0.03273502162941211
86,201.6,745.713,55.6296,-0.000335526,203.703,-1.21676,-0.323761,0.0572019,-0.0218545,-0.0338045,0.0440079,-0.000245215,-6.82046e-05,0.0593121,0.058869574582387285,0.044990610281656185,-0.00024518493725911306,-0.021617420639292617,-6.820227411907798e-05,-0.03323951216083065
87,204.7,747.554,55.7756,-0.000343878,204.221,-1.22211,-0.325178,0.0580624,-0.0221899,-0.0343257,0.0446752,-0.000249697,-6.94523e-05,0.0602539,0.05978112398920077,0.04568816522922092,-0.0002496658282985509,-0.021945515131888027,-6.944988824486575e-05,-0.0337432564399297
88,207.8,749.371,55.9198,-0.00035229,204.734,-1.22738,-0.326572,0.058922,-0.022525,-0.0348465,0.0453419,-0.000254182,-7.07009e-05,0.0611948,0.060692503498175565,0.04638555797902022,-0.00025414969849224534,-0.022273206282048652,-7.069840075024647e-05,-0.034246351934537844
89,210.9,751.164,56.062,-0.000360761,205.239,-1.23256,-0.327945,0.0597807,-0.0228597,-0.0353668,0.0460079,-0.00025867,-7.19505e-05,0.062135,0.06160371132201781,0.04708268287745776,-0.0002586365477998953,-0.02260039668153846,-7.19479116247923e-05,-0.03474870285970033
90,214.0,752.934,56.2025,-0.000369292,205.738,-1.23767,-0.329296,0.0606387,-0.0231942,-0.0358866,0.0466734,-0.000263162,-7.32009e-05,0.0630744,0.0625149581753297,0.047779748325713856,-0.0002631273759181596,-0.022927282174201702,-7.319822087947792e-05,-0.03525031010493662
91,217.1,754.681,56.3412,-0.00037788,206.231,-1.24269,-0.330627,0.0614958,-0.0235283,-0.036406,0.0473384,-0.000267657,-7.44522e-05,0.064013,0.06342603013009374,0.0484767535869135,-0.0002676211830607844,-0.023253667643498677,-7.444942850376446e-05,-0.03575127098306585
92,220.1,756.406,56.4783,-0.000386527,206.717,-1.24764,-0.331938,0.0623521,-0.0238621,-0.0369249,0.0480027,-0.000272154,-7.57043e-05,0.0649509,0.06433703182940542,0.04917348808906419,-0.0002721169694595016,-0.02357965115956351,-7.570143450175149e-05,-0.036251489855542385
93,223.2,758.11,56.6136,-0.000395231,207.198,-1.25252,-0.33323,0.0632076,-0.0241956,-0.0374433,0.0486665,-0.000276655,-7.69571e-05,0.065888,0.06524796175485381,0.04987016065049943,-0.00027661673453427404,-0.02390523305210379,-7.69541388783157e-05,-0.03675096760738206
94,226.3,759.793,56.7474,-0.000403992,207.673,-1.25732,-0.334503,0.0640623,-0.0245288,-0.0379613,0.0493296,-0.000281158,-7.82107e-05,0.0668243,0.06615881838689797,0.05056656041985308,-0.00028111847879352947,-0.0242304136503545,-7.820764162291827e-05,-0.037249801397055804
95,229.4,761.456,56.8796,-0.00041281,208.142,-1.26206,-0.335758,0.0649161,-0.0248617,-0.0384788,0.0499922,-0.000285663,-7.94649e-05,0.0677598,0.06706949349792013,0.05126289649345206,-0.0002856222022100674,-0.0245551932830812,-7.946174274842122e-05,-0.0377478957318077
96,232.5,763.099,57.0102,-0.000421684,208.606,-1.26673,-0.336995,0.0657692,-0.0251943,-0.0389959,0.0506543,-0.000290171,-8.07198e-05,0.0686945,0.067980198888975,0.05195916813251045,-0.0002901289044671129,-0.024879572278577844,-8.071654224461877e-05,-0.038245347667642204
97,235.6,764.723,57.1394,-0.000430614,209.064,-1.27134,-0.338216,0.0666214,-0.0255265,-0.0395125,0.0513157,-0.000294681,-8.19753e-05,0.0696284,0.06889071953220904,0.052655164066797155,-0.00029463758581871335,-0.025203453485019844,-8.197194011683173e-05,-0.038742061808727635
98,238.7,766.328,57.2671,-0.000439599,209.517,-1.27589,-0.33942,0.0674729,-0.0258585,-0.0400286,0.0519766,-0.000299193,-8.32313e-05,0.0705616,0.06980126759071048,0.05335109380938108,-0.00029914824623789027,-0.025527032221420498,-8.322783637138009e-05,-0.039238039032696626
99,241.8,767.915,57.3934,-0.00044864,209.965,-1.28037,-0.340608,0.0683235,-0.0261901,-0.0405443,0.0526368,-0.000303707,-8.44878e-05,0.071494,0.07071162767017602,0.05404674581097213,-0.00030366088569766525,-0.02585011388763514,-8.448423100626545e-05,-0.03973337624229034
100,244.9,769.484,57.5183,-0.000457735,210.408,-1.2848,-0.34178,0.0691733,-0.0265215,-0.0410595,0.0532965,-0.000308223,-8.57449e-05,0.0724255,0.0716219051334841,0.054742329862356165,-0.0003081755041710599,-0.026172893672328335,-8.574122401105999e-05,-0.040227978186448965
101,248.0,771.035,57.6418,-0.000466885,210.846,-1.28917,-0.342938,0.0700223,-0.0268525,-0.0415743,0.0539557,-0.00031274,-8.70024e-05,0.0733563,0.07253209845333419,0.05543784522287831,-0.00031269110194387384,-0.02649517710367255,-8.699861540095721e-05,-0.040721941666169825
102,251.0,772.569,57.764,-0.000476089,211.28,-1.29349,-0.344081,0.0708705,-0.0271832,-0.0420885,0.0546142,-0.00031726,-8.82604e-05,0.0742863,0.07344220610133156,0.05613307992486072,-0.0003172096783681244,-0.02681706192201605,-8.825650516541828e-05,-0.041215075648152966
103,254.1,774.086,57.8849,-0.000485347,211.708,-1.29775,-0.34521,0.0717179,-0.0275136,-0.0426024,0.0552722,-0.00032178,-8.95187e-05,0.0752156,0.07435222654798901,0.056828244175407994,-0.00032172823436837916,-0.027138548452257605,-8.951469332074691e-05,-0.04170766863816755
104,257.2,775.587,58.0046,-0.000494658,212.133,-1.30196,-0.346325,0.0725645,-0.0278437,-0.0431157,0.0559296,-0.000326302,-9.07775e-05,0.076144,0.07526215826273153,0.05752323148042637,-0.0003262487692924365,-0.02745963701883003,-9.077337984741973e-05,-0.04219943386951164
105,260.3,777.072,58.123,-0.000504023,212.552,-1.30612,-0.347427,0.0734103,-0.0281735,-0.0436287,0.0565864,-0.000330825,-9.20366e-05,0.0770716,0.07617199971389943,0.058218040889295164,-0.0003307702834438597,-0.027780327945700622,-9.203236476207355e-05,-0.04269065954977669
106,263.4,778.541,58.2402,-0.000513441,212.968,-1.31023,-0.348515,0.0742553,-0.028503,-0.0441411,0.0572427,-0.00033535,-9.3296e-05,0.0779985,0.07708174936875523,0.058912777342360556,-0.00033529377647389946,-0.028100621556372274,-9.329164806348711e-05,-0.043181059204702166
107,266.5,779.995,58.3562,-0.000522912,213.379,-1.31429,-0.349591,0.0750995,-0.0288322,-0.0446531,0.0578984,-0.000339876,-9.45558e-05,0.0789246,0.07799140569348295,0.059607334136023926,-0.00033981824869544486,-0.02842051817388369,-9.455132974123259e-05,-0.04367082511161813
108,269.6,781.434,58.471,-0.000532436,213.785,-1.3183,-0.350655,0.0759429,-0.0291611,-0.0451647,0.0585535,-0.000344402,-9.58158e-05,0.0798498,0.07890096715319639,0.06030171031870202,-0.0003443427004391486,-0.02874001812080984,-9.581120981283497e-05,-0.04415995798663286
109,272.7,782.858,58.5847,-0.000542012,214.188,-1.32227,-0.351707,0.0767856,-0.0294897,-0.0456758,0.059208,-0.00034893,-9.70761e-05,0.0807743,0.07981054019298917,0.06099590493851381,-0.00034886913100762307,-0.029059121719262726,-9.707138826786643e-05,-0.044648363009570535
110,275.8,784.268,58.6973,-0.00055164,214.587,-1.3262,-0.352747,0.0776274,-0.0298179,-0.0461864,0.059862,-0.000353458,-9.83366e-05,0.081698,0.08071990740468316,0.06169002321227879,-0.00035339554108027027,-0.029377732228670017,-9.833176511497843e-05,-0.04513604104062108
111,278.9,785.664,58.8088,-0.000561321,214.982,-1.33008,-0.353776,0.0784684,-0.0301459,-0.0466966,0.0605154,-0.000357988,-9.95973e-05,0.082621,0.08162917514030088,0.0623839581573038,-0.00035792392994160593,-0.02969604412649396,-9.959234035350484e-05,-0.04562308837614204
112,281.9,787.046,58.9192,-0.000571053,215.373,-1.33392,-0.354794,0.0793087,-0.0304736,-0.0472063,0.0611682,-0.000362518,-0.000100858,0.0835431,0.08253845011454808,0.0630777088207688,-0.0003624522982895728,-0.03001396063936812,-0.00010085291400285801,-0.04610941033831584
113,285.0,788.415,59.0286,-0.000580837,215.76,-1.33773,-0.355801,0.0801482,-0.0308009,-0.0477155,0.0618205,-0.000367048,-0.000102119,0.0844644,0.08344762271522255,0.06377138062669574,-0.00036698064612394887,-0.030331385120700993,-0.0001021137860324206,-0.04659500778296988
114,288.1,789.77,59.137,-0.000590673,216.143,-1.34149,-0.356798,0.0809868,-0.031128,-0.0482243,0.0624722,-0.00037158,-0.000103381,0.085385,0.08435658296539561,0.06446486638323967,-0.00037151097270193834,-0.030648511855722815,-0.00010337565636853174,-0.047079976856415295
115,291.2,791.113,59.2443,-0.00060056,216.523,-1.34521,-0.357785,0.0818248,-0.0314548,-0.0487327,0.0631233,-0.000376111,-0.000104642,0.0863047,0.08526565462974878,0.0651581651366584,-0.00037604027912430116,-0.030965244165170214,-0.00010463652521686129,-0.04756431826616281
116,294.3,792.442,59.3507,-0.000610499,216.9,-1.3489,-0.358761,0.0826619,-0.0317812,-0.0492406,0.0637739,-0.000380644,-0.000105904,0.0872237,0.08617451085794148,0.06585138251805844,-0.00038057156426374306,-0.031281485496081785,-0.00010589839236929688,-0.048047937523408635
117,297.4,793.759,59.4561,-0.000620488,217.273,-1.35255,-0.359729,0.0834982,-0.0321074,-0.049748,0.0644239,-0.000385176,-0.000107165,0.0881419,0.0870832585412511,0.06654441112659248,-0.00038510182924778036,-0.031597429942172295,-0.00010715925803650439,-0.04853083547833803
118,300.5,795.064,59.5605,-0.000630529,217.642,-1.35616,-0.360686,0.0843338,-0.0324332,-0.050255,0.0650733,-0.000389709,-0.000108427,0.0890593,0.0879920049334546,0.06723725000761416,-0.00038963307331096875,-0.031912884109222994,-0.00010842112200526444,-0.049013108078315604
119,303.6,796.357,59.664,-0.00064062,218.008,-1.35974,-0.361635,0.0851686,-0.0327588,-0.0507616,0.0657222,-0.000394243,-0.000109689,0.0899759,0.08890063987062757,0.06793000499919288,-0.0003941652964402076,-0.032228041963673904,-0.00010968298438152058,-0.049494756026037146
120,306.7,797.638,59.7666,-0.000650763,218.371,-1.36329,-0.362575,0.0860026,-0.033084,-0.0512677,0.0663705,-0.000398776,-0.000110951,0.0908917,0.0898091618052661,0.06862256849163328,-0.0003986964994188158,-0.03254271023659305,-0.00011094484516538383,-0.04997568502066474
121,309.0,798.599,59.8436,-0.00066238,218.643,-1.36594,-0.363279,0.0866322,-0.0333296,-0.0516498,0.06686,-0.000402201,-0.000111904,0.0915832,0.09049552169695985,0.06914578728626242,-0.0004021201280203224,-0.03278028857114512,-0.00011189773898090394,-0.05033861996828082
