,Time,S11,S22,S33,S12,S13,S23,LE11,LE22,LE33,LE12,LE13,LE23,SDV_EPBAR,E11,E12,E13,E22,E23,E33
0,0.000309,0.0019383,0.000139163,-7.79048e-12,0.000519365,9.3624e-20,3.36396e-20,9.1292e-09,-2.12864e-09,-3.00057e-09,6.49972e-09,9.45271e-25,4.67314e-25,0.0,9.129200062574228e-09,6.499720095476391e-09,0.0,-2.128640042009522e-09,0.0,-3.0005700146773506e-09
1,0.000618,0.00387659,0.000278327,3.25261e-19,0.00103873,3.61973e-20,-7.40724e-21,1.82584e-08,-4.2578e-09,-6.00057e-09,1.29997e-08,9.27189e-26,4.52981e-25,0.0,1.8258400125148455e-08,1.2999699983140545e-08,0.0,-4.257800001461476e-09,0.0,-6.000569929831556e-09
2,0.0010815,0.00678404,0.000487072,3.25261e-19,0.00181778,-8.55315e-21,3.19208e-20,3.19522e-08,-7.45077e-09,-1.05014e-08,2.27493e-08,2.14063e-25,-7.98907e-25,0.0,3.19522004410544e-08,2.2749300221391877e-08,0.0,-7.45077000097183e-09,0.0,-1.0501399971829528e-08
3,0.0017767,0.0111452,0.00080019,7.58942e-19,0.00298635,8.55315e-21,-3.19208e-20,5.24927e-08,-1.22421e-08,-1.72507e-08,3.73747e-08,4.28159e-25,-1.59792e-24,0.0,5.249270129681349e-08,3.737470066766946e-08,0.0,-1.2242099889370195e-08,0.0,-1.725069986857619e-08
4,0.0028196,0.017687,0.00126987,-2.27682e-18,0.00473921,-1.65988e-27,-4.44764e-28,8.33037e-08,-1.94275e-08,-2.73762e-08,5.93119e-08,1.2845e-24,-4.79383e-24,0.0,8.33037034908557e-08,5.931190183439128e-08,0.0,-1.9427499831081718e-08,0.0,-2.7376199640549714e-08
5,0.0043839,0.0274996,0.00197438,-4.01155e-18,0.00736849,1.71063e-20,-6.38416e-20,1.2952e-07,-3.02058e-08,-4.25643e-08,9.22178e-08,-1.48338e-24,-7.24799e-24,0.0,1.295200084960868e-07,9.221780428170234e-08,0.0,-3.0205799528282284e-08,0.0,-4.256429908533477e-08
6,0.0067304,0.0422185,0.00303115,-4.01155e-18,0.0113124,1.74418e-19,1.1516e-19,1.98845e-07,-4.63759e-08,-6.53437e-08,1.41578e-07,3.19598e-24,8.5636e-25,0.0,1.9884501978317815e-07,1.4157800998226833e-07,0.0,-4.637589889888716e-08,0.0,-6.534369789701344e-08
7,0.01025,0.0642969,0.00461631,8.13152e-18,0.0172283,2.08631e-19,-1.25227e-20,3.02832e-07,-7.06269e-08,-9.95172e-08,2.15616e-07,2.29126e-25,-1.36391e-23,0.0,3.0283204588421597e-07,2.156160232580362e-07,0.0,-7.062689755255036e-08,0.0,-9.951719504019962e-08
8,0.01553,0.0974145,0.00699405,2.92735e-18,0.0261021,-1.49373e-19,3.02101e-19,4.58812e-07,-1.07003e-07,-1.50778e-07,3.26673e-07,-3.42531e-24,1.27835e-23,0.0,4.5881210519738147e-07,3.266730532747175e-07,0.0,-1.0700299424293291e-07,0.0,-1.5077798865004155e-07
9,0.023449,0.147091,0.0105607,6.39679e-18,0.0394129,6.16725e-19,5.07377e-19,6.92782e-07,-1.61575e-07,-2.2766e-07,4.93263e-07,1.27839e-23,3.42544e-24,0.0,6.927822400193406e-07,4.932631216814087e-07,0.0,-1.6157498694546746e-07,0.0,-2.2765997409468497e-07
10,0.035328,0.221605,0.0159106,-7.48099e-18,0.059379,8.22001e-19,-2.58722e-19,1.04374e-06,-2.43427e-07,-3.4299e-07,7.43145e-07,1.27839e-23,3.42544e-24,0.0,1.0437405446594994e-06,7.43145276205226e-07,0.0,-2.4342697035883987e-07,0.0,-3.429899412266124e-07
11,0.053146,0.333377,0.0239354,-3.52366e-17,0.0893282,1.43291e-18,1.54718e-18,1.57017e-06,-3.66206e-07,-5.15985e-07,1.11797e-06,-4.82329e-29,-1.2924e-29,0.0,1.570171232812001e-06,1.1179706249642152e-06,0.0,-3.662059329112566e-07,0.0,-5.159848668334632e-07
12,0.079874,0.501035,0.0359727,-2.13588e-17,0.134252,1.15921e-18,2.56864e-18,2.35982e-06,-5.50367e-07,-7.75483e-07,1.6802e-06,-4.1105e-23,1.53406e-22,0.0,2.3598227842924757e-06,1.6802014115580022e-06,0.0,-5.503668485395963e-07,0.0,-7.754826992778519e-07
13,0.12,0.752521,0.0540286,-7.48099e-18,0.201637,2.25401e-18,-1.51722e-18,3.54429e-06,-8.26616e-07,-1.16472e-06,2.52354e-06,-1.0888e-28,-2.91744e-29,0.0,3.544296280910686e-06,2.523543184196342e-06,0.0,-8.266156583669471e-07,0.0,-1.1647193217667606e-06
14,0.1801,1.12975,0.0811124,2.02746e-17,0.302715,9.8783e-18,2.71531e-18,5.321e-06,-1.241e-06,-1.74857e-06,3.78857e-06,1.53406e-22,4.11051e-23,0.0,5.321014156622894e-06,3.788577176644381e-06,0.0,-1.2409992299344808e-06,0.0,-1.7485684712381655e-06
15,0.2703,1.69559,0.121738,-7.48099e-18,0.454332,-5.51699e-18,2.96936e-18,7.98605e-06,-1.86256e-06,-2.62435e-06,5.6861e-06,6.26956e-28,1.67992e-28,0.0,7.986081888677887e-06,5.686116165914967e-06,0.0,-1.862558265397496e-06,0.0,-2.6243465564013135e-06
16,0.4056,2.54435,0.182676,4.92119e-16,0.681756,-3.36327e-19,-2.16935e-20,1.19836e-05,-2.79488e-06,-3.93804e-06,8.53236e-06,2.19228e-22,-8.18169e-22,0.0,1.1983671803550422e-05,8.532396400751097e-06,0.0,-2.7948760943363737e-06,0.0,-3.938032245964784e-06
17,0.6086,3.81748,0.274083,3.81097e-16,1.02289,-3.36325e-19,-2.16927e-20,1.79799e-05,-4.19337e-06,-5.90853e-06,1.28018e-05,9.49301e-23,4.63893e-22,0.0,1.79800616393333e-05,1.2801881943413917e-05,0.0,-4.1933612078270954e-06,0.0,-5.908512544672284e-06
18,0.913,5.72716,0.411192,4.92119e-16,1.53459,3.23501e-17,8.73662e-18,2.69743e-05,-6.2911e-06,-8.86425e-06,1.92058e-05,4.09074e-22,1.09611e-22,0.0,2.697466380974234e-05,1.920598443261312e-05,0.0,-6.291080211107136e-06,0.0,-8.864210712666853e-06
19,1.37,8.59165,0.616853,-1.28424e-15,2.30213,-3.36733e-19,-2.18022e-20,4.04657e-05,-9.43765e-06,-1.32978e-05,2.88117e-05,4.38461e-22,-1.63636e-21,0.0,4.0466518747450664e-05,2.8812115061116472e-05,0.0,-9.4376054655676e-06,0.0,-1.3297711584647764e-05
20,2.055,12.8883,0.925338,-5.059e-15,3.45341,6.94144e-17,1.1511e-18,6.07025e-05,-1.41574e-05,-1.99479e-05,4.32204e-05,-7.0378e-26,-1.88577e-26,0.0,6.070434243410361e-05,4.322133401490902e-05,0.0,-1.4157299784489652e-05,0.0,-1.994770104196686e-05
21,3.082,19.3331,1.38805,-2.81516e-14,5.18029,7.817e-17,-3.15365e-17,9.10568e-05,-2.12368e-05,-2.99229e-05,6.48327e-05,8.76832e-22,-3.2728e-21,0.0,9.106094579625079e-05,6.483480168495426e-05,0.0,-2.123657450070482e-05,0.0,-2.992245231447921e-05
22,4.623,116.413,8.35811,-1.03265e-09,31.1929,9.83292e-16,7.71529e-16,0.000548295,-0.000127877,-0.000180179,0.000390388,3.49743e-21,-1.3096e-20,0.0,0.0005484453411794821,0.0003904642113123913,0.0,-0.00012786882408488687,0.0,-0.00018016276873877857
23,6.935,262.609,18.8545,-9.04826e-07,70.3658,1.26247e-15,-2.74743e-16,0.00123686,-0.000288468,-0.000406453,0.000880648,1.40118e-20,-5.23908e-20,0.0,0.0012376252267900512,0.0008810358843047705,0.0,-0.0002884263971069112,0.0,-0.00040637040916957634
24,10.03,446.407,32.0891,0.0027084,119.691,-0.0114736,-0.00307262,0.00215605,-0.000511124,-0.000723612,0.0015387,-1.48048e-07,-3.97021e-08,5.90278e-05,0.0021583759471202058,0.0015398844062493033,-1.4804798909029415e-07,-0.0005109933983804549,-3.9702099163818616e-08,-0.0007233502559742533
25,13.12,467.984,33.7856,0.000103322,125.743,-0.117638,-0.0314784,0.00307232,-0.000852332,-0.00125386,0.0022354,-2.12601e-06,-5.77101e-07,0.000957076,0.003077044412154173,0.00223790036934135,-2.12600774007754e-06,-0.0008519688682577797,-5.771008334543026e-07,-0.00125307424599308
26,16.21,485.749,35.1811,8.47537e-05,130.727,-0.204351,-0.0546549,0.00398752,-0.00119591,-0.0017886,0.00293264,-4.31956e-06,-1.17752e-06,0.00187398,0.003995480735555557,0.0029369443954039287,-4.319550670706107e-06,-0.0011951951846159714,-1.1775193067276035e-06,-0.0017870014082423946
27,19.3,500.893,36.3701,3.43565e-05,134.975,-0.276845,-0.0740149,0.00490169,-0.00154097,-0.00232625,0.00363013,-6.7024e-06,-1.83287e-06,0.00280354,0.0049137229349669465,0.0036367269020305404,-6.702377538969628e-06,-0.0015397833153562024,-1.8328683203394647e-06,-0.002323546377309138
28,22.39,514.121,37.408,1.37517e-05,138.683,-0.338805,-0.0905495,0.00581482,-0.001887,-0.00286589,0.00432768,-9.25371e-06,-2.53676e-06,0.00374209,0.005831758882084204,0.0043370579304382595,-9.2536671845167e-06,-0.0018852207348337702,-2.536756782411942e-06,-0.0028617872575259495
29,25.48,525.884,38.3304,4.1272e-06,141.98,-0.39271,-0.104925,0.00672694,-0.00223367,-0.00340692,0.00502518,-1.19545e-05,-3.28352e-06,0.00468726,0.006749616680587822,0.005037827393284289,-1.1954428545291051e-05,-0.0022311772155301224,-3.2835146092091705e-06,-0.0034011230331928433
30,28.57,536.49,39.1618,-1.28486e-06,144.953,-0.440286,-0.117606,0.00763806,-0.00258076,-0.00394892,0.00572252,-1.47883e-05,-4.06825e-06,0.00563747,0.007667304389666674,0.005738924895093422,-1.4788190653591826e-05,-0.002577432701845961,-4.068241724719535e-06,-0.003941133268515418
31,31.66,546.158,39.9193,-4.97949e-06,147.661,-0.482774,-0.128926,0.00854818,-0.00292811,-0.00449162,0.00641964,-1.77404e-05,-4.88671e-06,0.00659156,0.008584820018066708,0.006440290053852271,-1.774024264000751e-05,-0.0029238272670379928,-4.8866980600914545e-06,-0.0044815477607543786
32,34.75,555.05,40.6157,-7.98766e-06,150.152,-0.521094,-0.13913,0.00945732,-0.00327562,-0.00503479,0.00711647,-2.07986e-05,-5.73532e-06,0.0075487,0.009502181763280326,0.007141852247574132,-2.0798383710607382e-05,-0.0032702610097432583,-5.735303553078275e-06,-0.005022136689322054
33,37.84,563.287,41.2606,-1.07683e-05,152.459,-0.555943,-0.148406,0.0103655,-0.00362319,-0.00557828,0.00781298,-2.39523e-05,-6.61098e-06,0.00850825,0.010419407894884936,0.007843580971250708,-2.3952013145978057e-05,-0.0036166341671779456,-6.61095814746826e-06,-0.005562750285903584
34,40.93,570.965,41.8617,-1.35362e-05,154.609,-0.587862,-0.156899,0.0112727,-0.00397076,-0.00612196,0.00850912,-2.71921e-05,-7.51104e-06,0.00946971,0.011336476301059717,0.00854542546437731,-2.7191730298192773e-05,-0.0039628869566137315,-7.5110117921939334e-06,-0.0061032589846296
35,44.02,578.16,42.4248,-1.63944e-05,156.624,-0.617278,-0.164723,0.0121789,-0.00431829,-0.00666573,0.00920488,-3.051e-05,-8.4332e-06,0.0104327,0.012253364795314692,0.009247375195554186,-3.0509534574729713e-05,-0.004308979592239526,-8.43316444065767e-06,-0.006643563301538924
36,47.11,584.932,42.9548,-1.9392e-05,158.52,-0.644532,-0.17197,0.0130842,-0.00466572,-0.00720951,0.00990021,-3.38992e-05,-9.37546e-06,0.0113969,0.013170172696945093,0.00994937920688943,-3.389862542857447e-05,-0.004654852436679513,-9.375416050505514e-06,-0.007183583825199902
37,50.2,591.331,43.4556,-2.25513e-05,160.312,-0.669904,-0.178714,0.0139885,-0.00501303,-0.00775324,0.0105951,-3.73534e-05,-1.03361e-05,0.0123621,0.014086796873271856,0.010651426825691646,-3.73527023704856e-05,-0.005000485735454974,-1.0336046582737346e-05,-0.007723261162491335
38,53.29,597.399,43.9304,-2.58804e-05,162.01,-0.693622,-0.185018,0.0148919,-0.00536019,-0.00829685,0.0112895,-4.08673e-05,-1.13135e-05,0.0133279,0.015003336824327862,0.011353466896582232,-4.0866464943278835e-05,-0.005345849815061476,-1.1313436002580168e-05,-0.008262526132295611
39,56.38,603.17,44.382,-2.93839e-05,163.626,-0.715877,-0.19093,0.0157943,-0.00570718,-0.00884032,0.0119835,-4.44362e-05,-1.23064e-05,0.0142944,0.015919689231500334,0.012055589811079015,-4.443521272667894e-05,-0.005690924986354928,-1.2306324276623037e-05,-0.008801359264135056
40,59.47,608.674,44.8126,-3.30521e-05,165.167,-0.736829,-0.196496,0.0166958,-0.00605398,-0.0093836,0.012677,-4.80557e-05,-1.33135e-05,0.0152612,0.016835953775531598,0.012757693789028135,-4.805454534329012e-05,-0.0060356915875856565,-1.331341137578157e-05,-0.009339711410455642
41,62.56,613.936,45.2244,-3.68839e-05,166.64,-0.756615,-0.20175,0.0175964,-0.00640056,-0.00992665,0.01337,-5.1722e-05,-1.43338e-05,0.0162284,0.017752128727158256,0.013459778114945031,-5.172066244041318e-05,-0.0063801200481395925,-1.4333697271551316e-05,-0.009877543432116997
42,65.65,618.978,45.619,-4.08737e-05,168.052,-0.77535,-0.206725,0.018496,-0.00674693,-0.0104694,0.0140624,-5.54318e-05,-1.53663e-05,0.0171957,0.01866811048898387,0.014161740656699395,-5.543026368615145e-05,-0.00672422056946953,-1.536618193898054e-05,-0.010414786587869651
43,68.74,623.819,45.9978,-4.50157e-05,169.407,-0.793134,-0.211446,0.0193947,-0.00709306,-0.011012,0.0147544,-5.9182e-05,-1.64101e-05,0.018163,0.019583999012744435,0.014863783460028257,-5.918024877993311e-05,-0.007067963621680717,-1.6409965355013156e-05,-0.010951589876764478
44,71.83,628.474,46.3622,-4.93041e-05,170.711,-0.810055,-0.215937,0.0202925,-0.00743896,-0.0115542,0.0154458,-6.29698e-05,-1.74644e-05,0.0191304,0.02049979256526968,0.015565702905502965,-6.296781744374869e-05,-0.007411359419336794,-1.7464247498266694e-05,-0.011487706570363687
45,74.92,632.959,46.7133,-5.37335e-05,171.966,-0.826188,-0.220218,0.0211894,-0.0077846,-0.0120961,0.0161367,-6.67928e-05,-1.85286e-05,0.0200976,0.021415489412087707,0.016267599691965007,-6.679056941061301e-05,-0.007754378473099455,-1.852842834659807e-05,-0.012023236267296733
46,78.01,637.287,47.0521,-5.82985e-05,173.178,-0.841599,-0.224307,0.0220853,-0.00812998,-0.0126377,0.0168271,-7.06485e-05,-1.9602e-05,0.0210647,0.022330985584328333,0.01696947310161412,-7.064600445350067e-05,-0.008097021091502343,-1.9601807882074773e-05,-0.012558179606801834
47,81.1,641.468,47.3795,-6.2994e-05,174.349,-0.856348,-0.22822,0.0229804,-0.0084751,-0.0131789,0.0175169,-7.45349e-05,-2.0684e-05,0.0220316,0.02324648371959004,0.017671220649063235,-7.453212234331819e-05,-0.00843928758268031,-2.0683786087549727e-05,-0.013092438536492113
48,84.19,645.513,47.6963,-6.78154e-05,175.482,-0.870485,-0.23197,0.0238745,-0.00881994,-0.0137198,0.0182062,-7.84501e-05,-2.1774e-05,0.0229982,0.02416177752180304,0.018372943242364048,-7.844702287129746e-05,-0.008781158429991054,-2.177376294820732e-05,-0.013626112491354814
49,87.28,649.431,48.0032,-7.27582e-05,176.58,-0.884058,-0.23557,0.0247677,-0.00916452,-0.0142603,0.0188949,-8.23924e-05,-2.28716e-05,0.0239646,0.02507696748447752,0.019074538254886475,-8.238900583945608e-05,-0.009122653778806722,-2.2871338446917022e-05,-0.01415910352375116
50,90.37,653.23,48.3009,-7.78184e-05,177.644,-0.897107,-0.23903,0.02566,-0.00950881,-0.0148005,0.019583,-8.63601e-05,-2.39763e-05,0.0249305,0.025992051866745358,0.01977600475653185,-8.635637107390348e-05,-0.009463744219953885,-2.3976012570758876e-05,-0.01469151095983201
51,93.46,656.919,48.5899,-8.2992e-05,178.677,-0.909669,-0.242361,0.0265515,-0.00985281,-0.0153402,0.0202706,-9.03518e-05,-2.50877e-05,0.0258961,0.026907131617176727,0.020477443864531653,-9.034771839899758e-05,-0.009804430090612715,-2.5087385306266086e-05,-0.015223138478776876
52,96.55,660.502,48.8708,-8.82756e-05,179.681,-0.921778,-0.245572,0.027442,-0.0101965,-0.0158796,0.0209577,-9.4366e-05,-2.62054e-05,0.0268613,0.027821999702439815,0.021178854858362683,-9.436154766906402e-05,-0.010144691930389804,-2.620505664152617e-05,-0.015754183882060402
53,99.64,663.987,49.144,-9.36658e-05,180.658,-0.933464,-0.248669,0.0283316,-0.01054,-0.0164186,0.0216441,-9.84014e-05,-2.7329e-05,0.027826,0.028736756977083777,0.021880032641022673,-9.839655874099851e-05,-0.010484648837770005,-2.732862656629198e-05,-0.01628454943059232
54,102.7,667.38,49.41,-9.91593e-05,181.609,-0.944754,-0.251662,0.0292203,-0.0108831,-0.0169571,0.02233,-0.000102457,-2.84583e-05,0.0287903,0.029651401695191648,0.02258118058661074,-0.0001024517514608414,-0.010824093319723116,-2.8457895066447136e-05,-0.016814137596312784
55,105.8,670.684,49.6692,-0.000104753,182.535,-0.955673,-0.254556,0.0301082,-0.0112259,-0.0174952,0.0230153,-0.000106532,-2.95928e-05,0.029754,0.03056603516619738,0.023282195645041304,-0.00010652632566798825,-0.01116312470723313,-2.9592362137398354e-05,-0.017343047592875527
56,108.9,673.906,49.922,-0.000110445,183.438,-0.966243,-0.257358,0.0309951,-0.0115685,-0.018033,0.0237001,-0.000110624,-3.07323e-05,0.0307172,0.03148044961993679,0.023983179282022427,-0.00011061788139088424,-0.011501842195089873,-3.073182776769379e-05,-0.017871378420986184
57,112.0,677.049,50.1686,-0.000116232,184.319,-0.976486,-0.260072,0.0318812,-0.0119107,-0.0185702,0.0243843,-0.000114734,-3.18766e-05,0.0316799,0.0323948495113866,0.02468402830639782,-0.00011472741830631517,-0.01184004839430941,-3.1876091946547724e-05,-0.018398836228646798
58,115.1,680.117,50.4094,-0.000122112,185.179,-0.98642,-0.262705,0.0327663,-0.0122527,-0.0191071,0.0250679,-0.000118859,-3.30254e-05,0.032642,0.0333090267021241,0.025384741784727494,-0.0001188519365489249,-0.012177941314775897,-3.302485466749605e-05,-0.018925716439826323
59,118.2,683.114,50.6447,-0.000128082,186.02,-0.996062,-0.265259,0.0336506,-0.0125943,-0.0196435,0.0257509,-0.000123,-3.41784e-05,0.0336035,0.03422318601040342,0.026085318783177103,-0.00012299243581004315,-0.012515323701830283,-3.4177815925184873e-05,-0.019451823570980853
60,121.3,686.043,50.8748,-0.00013414,186.841,-1.00543,-0.267741,0.0345341,-0.0129356,-0.0201795,0.0264333,-0.000127156,-3.53354e-05,0.0345644,0.03513732595710217,0.026785758367519952,-0.0001271479160184219,-0.012852294714476575,-3.533477571204813e-05,-0.019977256564924772
61,124.4,688.908,51.0999,-0.000140285,187.645,-1.01454,-0.270154,0.0354166,-0.0132767,-0.0207151,0.0271152,-0.000131325,-3.64963e-05,0.0355248,0.036051237851569606,0.027486162351749055,-0.00013131637724961287,-0.013188953376350399,-3.649563401808553e-05,-0.020502016203132967
62,127.4,691.712,51.3201,-0.000146514,188.431,-1.02339,-0.272501,0.0362983,-0.0136174,-0.0212502,0.0277964,-0.000135507,-3.76608e-05,0.0364844,0.03696512705683497,0.02818632437365287,-0.0001354978193410794,-0.013525102633657582,-3.7660090840940796e-05,-0.021026005368458445
63,130.5,694.457,51.5359,-0.000152826,189.202,-1.03202,-0.274786,0.0371791,-0.0139578,-0.0217849,0.0284771,-0.000139702,-3.88288e-05,0.0374435,0.037878888302123936,0.028886449065059105,-0.0001396922421299518,-0.013860841542716718,-3.882804617194591e-05,-0.02154932284199318
64,133.6,697.145,51.7472,-0.000159218,189.956,-1.04042,-0.277011,0.038059,-0.0142979,-0.0223191,0.0291572,-0.000143908,-4e-05,0.0384019,0.038792519829184746,0.029586432741536717,-0.00014389764574040953,-0.014196170444596201,-3.999920001063195e-05,-0.02207187160852897
65,136.7,699.779,51.9544,-0.00016569,190.695,-1.04861,-0.279181,0.038938,-0.0146377,-0.0228529,0.0298368,-0.000148126,-4.11744e-05,0.0393597,0.03970601987856903,0.030286377495515993,-0.00014811502988565373,-0.014531089679878373,-4.1173552346007725e-05,-0.02259375034163813
66,139.8,702.362,52.1576,-0.000172239,191.42,-1.0566,-0.281297,0.0398162,-0.0149772,-0.0233862,0.0305157,-0.000152354,-4.23517e-05,0.0403167,0.040619490751578446,0.030986076403117346,-0.00015234239471861866,-0.01486559958866207,-4.235080317938067e-05,-0.023114862127772584
67,142.9,704.896,52.357,-0.000178865,192.132,-1.0644,-0.283362,0.0406935,-0.0153164,-0.0239191,0.0311941,-0.000156593,-4.35318e-05,0.0412731,0.041532826807096024,0.03168573465459468,-0.00015658073995605815,-0.015199700510561964,-4.353085250496935e-05,-0.023635305533282747
68,146.0,707.382,52.5527,-0.000185565,192.83,-1.07201,-0.285378,0.04157,-0.0156552,-0.0244516,0.0318718,-0.000160841,-4.47147e-05,0.0422288,0.042446130526677006,0.032385145045412234,-0.00016082806577977227,-0.015533294338043624,-4.4713700312670746e-05,-0.02415508133049815
69,149.1,709.822,52.7448,-0.00019234,193.515,-1.07945,-0.287348,0.0424456,-0.0159938,-0.0249835,0.032549,-0.000165098,-4.59e-05,0.0431839,0.0433592960841056,0.033084513044914,-0.00016508437207507498,-0.01586657833641547,-4.589894661111149e-05,-0.024673995225354184
70,152.2,712.218,52.9335,-0.000199186,194.188,-1.08672,-0.289274,0.0433203,-0.016332,-0.025515,0.0332256,-0.000169365,-4.70878e-05,0.0441382,0.04427232171393625,0.033783734546399824,-0.00016935065855794296,-0.016199355983750108,-4.7086691386977186e-05,-0.025192243260276248
71,155.3,714.572,53.119,-0.000206104,194.849,-1.09383,-0.291157,0.0441942,-0.0166699,-0.0260461,0.0339016,-0.000173639,-4.8278e-05,0.0450918,0.045185310168083026,0.03448280861136532,-0.00017362392562125795,-0.016531726064275554,-4.827683463615173e-05,-0.025709826203564212
72,158.3,716.885,53.3013,-0.000213092,195.499,-1.10079,-0.292999,0.0450672,-0.0170076,-0.0265767,0.034577,-0.000177922,-4.94703e-05,0.0460447,0.046098155342802816,0.03518173430093796,-0.0001779061728195419,-0.01686378722870041,-4.946907636482756e-05,-0.026226647444979823
73,161.4,719.159,53.4805,-0.000220148,196.138,-1.1076,-0.294803,0.0459394,-0.0173449,-0.0271068,0.0352518,-0.000182212,-5.06647e-05,0.0469969,0.047010960170211336,0.035880510675877275,-0.00018219540040165239,-0.017195343153218134,-5.066341656578821e-05,-0.026742707905259788
74,164.5,721.395,53.6568,-0.000227273,196.766,-1.11427,-0.296569,0.0468107,-0.0176819,-0.0276365,0.0359261,-0.000186509,-5.18612e-05,0.0479483,0.047923618361610965,0.03657924045449579,-0.00018649160827766131,-0.017526492520772985,-5.185985523115111e-05,-0.027258105777704822
75,167.6,723.594,53.8303,-0.000234465,197.384,-1.1208,-0.2983,0.0476811,-0.0180185,-0.0281657,0.0365998,-0.000190813,-5.30595e-05,0.048899,0.04883612814568128,0.03727781917861139,-0.00019079479635730756,-0.017857137452726546,-5.305809236966219e-05,-0.02777274460268353
76,170.7,725.758,54.0011,-0.000241722,197.993,-1.12721,-0.299996,0.0485508,-0.0183549,-0.0286945,0.0372728,-0.000195124,-5.42597e-05,0.049849,0.04974869769967949,0.037976142110227595,-0.00019510496455033,-0.018187474745839594,-5.425822796911728e-05,-0.028286722467613212
77,173.8,727.887,54.1691,-0.000249045,198.591,-1.13349,-0.301659,0.0494195,-0.018691,-0.0292228,0.0379453,-0.000199441,-5.54616e-05,0.0507982,0.05066101059910677,0.03867441583401954,-0.0001994211129657808,-0.0185174064874426,-5.5460062033829693e-05,-0.028799943012989937
78,176.9,729.984,54.3347,-0.000256432,199.181,-1.13965,-0.303291,0.0502875,-0.0190267,-0.0297506,0.0386172,-0.000203764,-5.66651e-05,0.0517467,0.05157338026745961,0.039372535681117204,-0.00020374324152605539,-0.018846834896432574,-5.666349456356912e-05,-0.029312407151884767
79,180.0,732.048,54.4977,-0.000263883,199.762,-1.1457,-0.304892,0.0511546,-0.0193622,-0.030278,0.0392885,-0.000208093,-5.78702e-05,0.0526945,0.05248559497902261,0.04007050071007101,-0.00020807135015332712,-0.019175956570076758,-5.786852555222932e-05,-0.02982421281333658
80,183.1,734.082,54.6584,-0.000271397,200.334,-1.15163,-0.306463,0.0520208,-0.0196973,-0.0308049,0.0399592,-0.000212427,-5.90769e-05,0.0536414,0.053397652956676867,0.04076830997907699,-0.00021240443898229433,-0.019504575643829347,-5.9075154994259194e-05,-0.030335263787403144
81,186.2,736.085,54.8167,-0.000278972,200.897,-1.15746,-0.308006,0.0528862,-0.0200321,-0.0313313,0.0406294,-0.000216766,-6.02849e-05,0.0545877,0.05430965785314612,0.041466066692582126,-0.00021674250794800898,-0.019832790565660008,-6.0283082901957386e-05,-0.030845560982539988
82,189.2,738.06,54.9728,-0.000286609,201.453,-1.16319,-0.309522,0.0537508,-0.0203666,-0.0318573,0.0412989,-0.00022111,-6.14943e-05,0.0555332,0.05522160816263555,0.042163561684628315,-0.000221085556985412,-0.020160601667752354,-6.149240926422994e-05,-0.031355202170080476
83,192.3,740.006,55.1267,-0.000294307,202.001,-1.16881,-0.311012,0.0546145,-0.0207008,-0.0323828,0.0419679,-0.000225459,-6.2705e-05,0.0564779,0.05613339676483231,0.04286100237529378,-0.00022543358602955532,-0.020488009281815267,-6.270303408251188e-05,-0.03186409128901324
84,195.4,741.924,55.2785,-0.000302064,202.541,-1.17434,-0.312476,0.0554774,-0.0210346,-0.0329078,0.0426363,-0.000229812,-6.3917e-05,0.0574218,0.057045127582589394,0.043558283674732357,-0.0002297855952450023,-0.020814915820580482,-6.391495735202923e-05,-0.032372229243202266
85,198.5,743.817,55.4282,-0.000309881,203.073,-1.17978,-0.313916,0.0563395,-0.0213682,-0.0334324,0.0433041,-0.00023417,-6.51301e-05,0.058365,0.05795679910662477,0.04425540463935307,-0.00023414258434550916,-0.021141517484476235,-6.512797908109214e-05,-0.03287971364694353
86,201.6,745.683,55.576,-0.000317757,203.599,-1.18513,-0.315333,0.0572007,-0.0217015,-0.0339565,0.0439713,-0.000238532,-6.63443e-05,0.0593074,0.05886830393966003,0.0449523643252252,-0.00023850355350429897,-0.02146771665258751,-6.634209926559276e-05,-0.033386448587530815
87,204.7,747.524,55.7217,-0.000325691,204.117,-1.19039,-0.316726,0.0580612,-0.0220344,-0.0344802,0.0446379,-0.000242897,-6.75596e-05,0.0602491,0.05977985225261495,0.04564916178807654,-0.00024286750291191428,-0.021793415834077234,-6.755731790164532e-05,-0.0338925315750086
88,207.8,749.34,55.8656,-0.000333683,204.629,-1.19557,-0.318097,0.0589207,-0.022367,-0.0350034,0.045304,-0.000247266,-6.87759e-05,0.06119,0.060691124598817314,0.046345900717882804,-0.0002472354322821113,-0.02211871324401271,-6.87735349920171e-05,-0.03439786679526746
89,210.9,751.133,56.0077,-0.000341732,205.134,-1.20067,-0.319447,0.0597795,-0.0226993,-0.0355261,0.0459694,-0.000251639,-6.99932e-05,0.0621301,0.06160243739832838,0.04704237097017616,-0.0002516073415623765,-0.022443609211147186,-6.99907505331554e-05,-0.0349024551446403
90,214.0,752.903,56.148,-0.000349838,205.633,-1.20569,-0.320777,0.0606374,-0.0230313,-0.0360483,0.0466343,-0.000256015,-7.12114e-05,0.0630694,0.06251357690678194,0.04773878093847195,-0.0002559822309563531,-0.02276810406376284,-7.12088645283826e-05,-0.03540629751787039
91,217.1,754.65,56.2865,-0.000358001,206.125,-1.21064,-0.322086,0.0614946,-0.023363,-0.0365701,0.0472986,-0.000260394,-7.24304e-05,0.0640079,0.06342475401962311,0.048435025042524504,-0.00026036010042485014,-0.02309219812967267,-7.242777698190928e-05,-0.03590949121717224
92,220.1,756.376,56.4233,-0.000366219,206.611,-1.21551,-0.323377,0.0623509,-0.0236944,-0.0370914,0.0479623,-0.000264777,-7.36503e-05,0.0649457,0.06433575462573371,0.049131102336343435,-0.0002647419496636383,-0.023415891736219274,-7.364758788319659e-05,-0.036411940624584194
93,223.2,758.08,56.5585,-0.000374492,207.092,-1.22031,-0.324648,0.0632063,-0.0240255,-0.0376123,0.0486255,-0.000269162,-7.4871e-05,0.0658827,0.06524657693340363,0.04982711685631669,-0.0002691257791587187,-0.023739185210277403,-7.486819723656613e-05,-0.03691374293895344
94,226.3,759.763,56.6921,-0.000382821,207.566,-1.22504,-0.325901,0.064061,-0.0243563,-0.0381327,0.049288,-0.000273549,-7.60924e-05,0.0668189,0.06615743238133498,0.05052285775996124,-0.0002735115888835571,-0.024062078878252624,-7.608950504678358e-05,-0.0374148026400859
95,229.4,761.426,56.8241,-0.000391204,208.035,-1.22971,-0.327137,0.0649149,-0.0246868,-0.0386526,0.04995,-0.00027794,-7.73145e-05,0.0677543,0.0670682130152962,0.05121853413527244,-0.000277901378256451,-0.024384573066083326,-7.731151131107339e-05,-0.03791512061526625
96,232.5,763.069,56.9546,-0.000399641,208.499,-1.23431,-0.328356,0.0657679,-0.0250169,-0.0391721,0.0506114,-0.000282333,-7.85373e-05,0.068689,0.06797881051561872,0.051914040052202015,-0.0002822931477891588,-0.02470657056990222,-7.853421602699306e-05,-0.03841479390873104
97,235.6,764.693,57.0836,-0.000408132,208.957,-1.23885,-0.329558,0.0666201,-0.0253468,-0.0396911,0.0512722,-0.000286728,-7.97607e-05,0.0696228,0.06888932997517694,0.05260937456308912,-0.00028668689745547926,-0.025028266805559585,-7.97575191998634e-05,-0.0389137271463178
98,238.7,766.298,57.2111,-0.000416677,209.409,-1.24333,-0.330745,0.0674715,-0.0256763,-0.0402096,0.0519325,-0.000291125,-8.09847e-05,0.0705559,0.06979976986998437,0.053304642050412854,-0.0002910826272292111,-0.025349467070997167,-8.0981420827686e-05,-0.039411921210819933
99,241.8,767.884,57.3372,-0.000425275,209.857,-1.24775,-0.331916,0.0683222,-0.0260055,-0.0407277,0.0525921,-0.000295524,-8.22093e-05,0.0714882,0.0707102357459648,0.05399963097445881,-0.00029548033708393096,-0.02567026921950666,-8.220592090801837e-05,-0.03990947299252179
100,244.9,769.453,57.4619,-0.000433926,210.3,-1.25212,-0.333071,0.069172,-0.0263345,-0.0412453,0.0532512,-0.000299925,-8.34344e-05,0.0724197,0.0716205120259128,0.05469455111701027,-0.00029988002699343763,-0.02599077097550373,-8.343091944718051e-05,-0.04040628726267603
101,248.0,771.004,57.5853,-0.000442629,210.738,-1.25643,-0.334213,0.070021,-0.0266631,-0.0417625,0.0539097,-0.000304328,-8.466e-05,0.0733504,0.07253070416251228,0.0553892961986342,-0.0003042816969314188,-0.026310777828155718,-8.465641644328503e-05,-0.040902460809364216
102,251.0,772.538,57.7074,-0.000451385,211.171,-1.26068,-0.33534,0.0708691,-0.0269914,-0.0422792,0.0545676,-0.000308733,-8.58861e-05,0.0742803,0.0734407032832951,0.05608386527004661,-0.00030868534687156224,-0.026630387532991073,-8.588241189444457e-05,-0.0413978985005139
103,254.1,774.055,57.8281,-0.000460193,211.599,-1.26488,-0.336453,0.0717165,-0.0273194,-0.0427954,0.055225,-0.00031314,-8.71126e-05,0.0752095,0.07435072245592478,0.05677836305948647,-0.0003130909767874446,-0.026949600412106256,-8.710880580764524e-05,-0.04189260121155314
104,257.2,775.556,57.9476,-0.000469053,212.023,-1.26904,-0.337552,0.0725631,-0.0276471,-0.0433112,0.0558818,-0.000317548,-8.83396e-05,0.0761378,0.07526065289676365,0.05747268307807807,-0.0003174975869701946,-0.027268416787134986,-8.833569817245923e-05,-0.04238666557769433
105,260.3,777.041,58.0658,-0.000477964,212.442,-1.27314,-0.338639,0.0734089,-0.0279745,-0.0438265,0.056538,-0.000321957,-8.95669e-05,0.0770654,0.07617049307415469,0.05816682437556553,-0.0003219051774068227,-0.02758683697924913,-8.956288900496823e-05,-0.04287999661126507
106,263.4,778.51,58.1829,-0.000486927,212.857,-1.2772,-0.339713,0.0742539,-0.0283016,-0.0443413,0.0571936,-0.000326368,-9.07946e-05,0.0779922,0.07708024145536152,0.058860786001391,-0.00032631474775779434,-0.02790486130915859,-9.079047829507747e-05,-0.04337259518325842
107,266.5,779.964,58.2987,-0.000495941,213.268,-1.2812,-0.340775,0.0750981,-0.0286284,-0.0448557,0.0578487,-0.00033078,-9.20227e-05,0.0789182,0.07798989650657129,0.05955467296015837,-0.00033072529832745,-0.028222490097111863,-9.201846604123265e-05,-0.04386455777666887
108,269.6,781.403,58.4134,-0.000505006,213.675,-1.28517,-0.341825,0.0759415,-0.0289549,-0.0453697,0.0585032,-0.000335193,-9.32511e-05,0.0798434,0.07889945669289977,0.060248378483980014,-0.00033513682910268905,-0.028539723662897365,-9.324675225130807e-05,-0.04435588511202926
109,272.7,782.827,58.527,-0.000514121,214.077,-1.28909,-0.342863,0.0767842,-0.0292811,-0.0458831,0.0591571,-0.000339608,-9.44798e-05,0.0807678,0.07980902845929094,0.060941901621348826,-0.0003395503397306543,-0.028856562325843105,-9.447533692419352e-05,-0.04484638687803533
110,275.8,784.237,58.6395,-0.000523287,214.476,-1.29296,-0.34389,0.077626,-0.0296069,-0.0463961,0.0598105,-0.000344023,-9.57087e-05,0.0816914,0.08071839439787176,0.06163534758399303,-0.0003439638308733173,-0.02917290932211347,-9.570412006842943e-05,-0.045336255019645555
111,278.9,785.633,58.7508,-0.000532503,214.87,-1.2968,-0.344906,0.078467,-0.0299325,-0.0469087,0.0604633,-0.000348439,-9.69379e-05,0.0826142,0.08162766086051576,0.06232860939493179,-0.00034837830218181765,-0.029488959167131235,-9.693320167358799e-05,-0.04582549025361937
112,281.9,787.015,58.8611,-0.00054177,215.261,-1.30059,-0.345911,0.0793073,-0.0302578,-0.0474208,0.0611155,-0.000352857,-9.81674e-05,0.0835363,0.0825369345617788,0.06302168610172543,-0.00035279475329053067,-0.02980461506449894,-9.816258173844794e-05,-0.046313997926994976
113,285.0,788.383,58.9704,-0.000551086,215.648,-1.30435,-0.346906,0.0801467,-0.0305828,-0.0479324,0.0617672,-0.000357275,-9.9397e-05,0.0844575,0.08344599754500748,0.06371468312311035,-0.0003572111848874071,-0.03011987733170951,-9.939206028186653e-05,-0.04680177890064341
114,288.1,789.739,59.0786,-0.000560453,216.031,-1.30807,-0.347891,0.0809854,-0.0309075,-0.0484436,0.0624182,-0.000361693,-0.000100627,0.085378,0.0843550648672422,0.06440738683241687,-0.00036162759697244695,-0.030434746285799008,-0.00010062193727322644,-0.04728892930501749
115,291.2,791.081,59.1858,-0.000569869,216.411,-1.31175,-0.348866,0.0818233,-0.0312318,-0.0489543,0.0630688,-0.000366113,-0.000101857,0.0862977,0.08526402673248779,0.06510011559852269,-0.0003660459888137346,-0.030749125318263015,-0.00010185181275190747,-0.04777535462954241
116,294.3,792.41,59.2921,-0.000579335,216.787,-1.31539,-0.349831,0.0826604,-0.0315559,-0.0494646,0.0637187,-0.000370533,-0.000103087,0.0872166,0.086172881597397,0.06579254914555932,-0.00037046436112597725,-0.0310632086267979,-0.0001030816867177986,-0.04826115090461336
117,297.4,793.728,59.3974,-0.00058885,217.16,-1.319,-0.350787,0.0834968,-0.0318797,-0.0499744,0.0643681,-0.000374953,-0.000104318,0.0881347,0.08708173662575414,0.0664848996088383,-0.00037488271390884176,-0.03137689957054002,-0.00010431255906662162,-0.04874622371431725
118,300.5,795.032,59.5017,-0.000598415,217.529,-1.32257,-0.351734,0.0843323,-0.0322032,-0.0504838,0.0650169,-0.000379374,-0.000105548,0.089052,0.08799037294667134,0.06717705952410125,-0.0003793020467834918,-0.03169019846470067,-0.00010554243000582275,-0.04923066898926998
119,303.6,796.325,59.6051,-0.000608029,217.895,-1.32611,-0.352671,0.0851671,-0.0325263,-0.0509927,0.0656652,-0.000383796,-0.000106779,0.0899685,0.08889900652089278,0.06786913472372702,-0.0003837223597363826,-0.032003008824341816,-0.00010677329932540225,-0.04971439240795794
120,306.7,797.606,59.7076,-0.000617692,218.258,-1.32962,-0.353601,0.0860011,-0.0328492,-0.0515012,0.0663129,-0.000388218,-0.000108009,0.0908843,0.0898075270927492,0.06856101760437072,-0.00038814265314290886,-0.03231552459440601,-0.00010800316723791337,-0.05019748980149652
121,309.0,798.567,59.7845,-0.000628809,218.53,-1.33224,-0.354297,0.0866307,-0.033093,-0.051885,0.0668019,-0.000391558,-0.000108939,0.0915757,0.09049388595490404,0.0690836717204959,-0.00039148135117073046,-0.032551417313018916,-0.00010893306636261535,-0.05056195405974562
