,Time,S11,S22,S33,S12,S13,S23,LE11,LE22,LE33,LE12,LE13,LE23,SDV_EPBAR,E11,E12,E13,E22,E23,E33
0,0.000309,0.0019383,0.000139163,-7.79048e-12,0.000519365,9.3624e-20,3.36396e-20,9.1292e-09,-2.12864e-09,-3.00057e-09,6.49972e-09,9.45271e-25,4.67314e-25,0.0,9.129200062574228e-09,6.499720095476391e-09,0.0,-2.128640042009522e-09,0.0,-3.0005700146773506e-09
1,0.000618,0.00387659,0.000278327,3.25261e-19,0.00103873,3.61973e-20,-7.40724e-21,1.82584e-08,-4.2578e-09,-6.00057e-09,1.29997e-08,9.27189e-26,4.52981e-25,0.0,1.8258400125148455e-08,1.2999699983140545e-08,0.0,-4.257800001461476e-09,0.0,-6.000569929831556e-09
2,0.0010815,0.00678404,0.000487072,3.25261e-19,0.00181778,-8.55315e-21,3.19208e-20,3.19522e-08,-7.45077e-09,-1.05014e-08,2.27493e-08,2.14063e-25,-7.98907e-25,0.0,3.19522004410544e-08,2.2749300221391877e-08,0.0,-7.45077000097183e-09,0.0,-1.0501399971829528e-08
3,0.0017767,0.0111452,0.00080019,7.58942e-19,0.00298635,8.55315e-21,-3.19208e-20,5.24927e-08,-1.22421e-08,-1.72507e-08,3.73747e-08,4.28159e-25,-1.59792e-24,0.0,5.249270129681349e-08,3.737470066766946e-08,0.0,-1.2242099889370195e-08,0.0,-1.725069986857619e-08
4,0.0028196,0.017687,0.00126987,-2.27682e-18,0.00473921,-1.65988e-27,-4.44764e-28,8.33037e-08,-1.94275e-08,-2.73762e-08,5.93119e-08,1.2845e-24,-4.79383e-24,0.0,8.33037034908557e-08,5.931190183439128e-08,0.0,-1.9427499831081718e-08,0.0,-2.7376199640549714e-08
5,0.0043839,0.0274996,0.00197438,-4.01155e-18,0.00736849,1.71063e-20,-6.38416e-20,1.2952e-07,-3.02058e-08,-4.25643e-08,9.22178e-08,-1.48338e-24,-7.24799e-24,0.0,1.295200084960868e-07,9.221780428170234e-08,0.0,-3.0205799528282284e-08,0.0,-4.256429908533477e-08
6,0.0067304,0.0422185,0.00303115,-4.01155e-18,0.0113124,1.74418e-19,1.1516e-19,1.98845e-07,-4.63759e-08,-6.53437e-08,1.41578e-07,3.19598e-24,8.5636e-25,0.0,1.9884501978317815e-07,1.4157800998226833e-07,0.0,-4.637589889888716e-08,0.0,-6.534369789701344e-08
7,0.01025,0.0642969,0.00461631,8.13152e-18,0.0172283,2.08631e-19,-1.25227e-20,3.02832e-07,-7.06269e-08,-9.95172e-08,2.15616e-07,2.29126e-25,-1.36391e-23,0.0,3.0283204588421597e-07,2.156160232580362e-07,0.0,-7.062689755255036e-08,0.0,-9.951719504019962e-08
8,0.01553,0.0974145,0.00699405,2.92735e-18,0.0261021,-1.49373e-19,3.02101e-19,4.58812e-07,-1.07003e-07,-1.50778e-07,3.26673e-07,-3.42531e-24,1.27835e-23,0.0,4.5881210519738147e-07,3.266730532747175e-07,0.0,-1.0700299424293291e-07,0.0,-1.5077798865004155e-07
9,0.023449,0.147091,0.0105607,6.39679e-18,0.0394129,6.16725e-19,5.07377e-19,6.92782e-07,-1.61575e-07,-2.2766e-07,4.93263e-07,1.27839e-23,3.42544e-24,0.0,6.927822400193406e-07,4.932631216814087e-07,0.0,-1.6157498694546746e-07,0.0,-2.2765997409468497e-07
10,0.035328,0.221605,0.0159106,-7.48099e-18,0.059379,8.22001e-19,-2.58722e-19,1.04374e-06,-2.43427e-07,-3.4299e-07,7.43145e-07,1.27839e-23,3.42544e-24,0.0,1.0437405446594994e-06,7.43145276205226e-07,0.0,-2.4342697035883987e-07,0.0,-3.429899412266124e-07
11,0.053146,0.333377,0.0239354,-3.52366e-17,0.0893282,1.43291e-18,1.54718e-18,1.57017e-06,-3.66206e-07,-5.15985e-07,1.11797e-06,-4.82329e-29,-1.2924e-29,0.0,1.570171232812001e-06,1.1179706249642152e-06,0.0,-3.662059329112566e-07,0.0,-5.159848668334632e-07
12,0.079874,0.501035,0.0359727,-2.13588e-17,0.134252,1.15921e-18,2.56864e-18,2.35982e-06,-5.50367e-07,-7.75483e-07,1.6802e-06,-4.1105e-23,1.53406e-22,0.0,2.3598227842924757e-06,1.6802014115580022e-06,0.0,-5.503668485395963e-07,0.0,-7.754826992778519e-07
13,0.12,0.752521,0.0540286,-7.48099e-18,0.201637,2.25401e-18,-1.51722e-18,3.54429e-06,-8.26616e-07,-1.16472e-06,2.52354e-06,-1.0888e-28,-2.91744e-29,0.0,3.544296280910686e-06,2.523543184196342e-06,0.0,-8.266156583669471e-07,0.0,-1.1647193217667606e-06
14,0.1801,1.12975,0.0811124,2.02746e-17,0.302715,9.8783e-18,2.71531e-18,5.321e-06,-1.241e-06,-1.74857e-06,3.78857e-06,1.53406e-22,4.11051e-23,0.0,5.321014156622894e-06,3.788577176644381e-06,0.0,-1.2409992299344808e-06,0.0,-1.7485684712381655e-06
15,0.2703,1.69559,0.121738,-7.48099e-18,0.454332,-5.51699e-18,2.96936e-18,7.98605e-06,-1.86256e-06,-2.62435e-06,5.6861e-06,6.26956e-28,1.67992e-28,0.0,7.986081888677887e-06,5.686116165914967e-06,0.0,-1.862558265397496e-06,0.0,-2.6243465564013135e-06
16,0.4056,2.54435,0.182676,4.92119e-16,0.681756,-3.36327e-19,-2.16935e-20,1.19836e-05,-2.79488e-06,-3.93804e-06,8.53236e-06,2.19228e-22,-8.18169e-22,0.0,1.1983671803550422e-05,8.532396400751097e-06,0.0,-2.7948760943363737e-06,0.0,-3.938032245964784e-06
17,0.6086,3.81748,0.274083,3.81097e-16,1.02289,-3.36325e-19,-2.16927e-20,1.79799e-05,-4.19337e-06,-5.90853e-06,1.28018e-05,9.49301e-23,4.63893e-22,0.0,1.79800616393333e-05,1.2801881943413917e-05,0.0,-4.1933612078270954e-06,0.0,-5.908512544672284e-06
18,0.913,5.72716,0.411192,4.92119e-16,1.53459,3.23501e-17,8.73662e-18,2.69743e-05,-6.2911e-06,-8.86425e-06,1.92058e-05,4.09074e-22,1.09611e-22,0.0,2.697466380974234e-05,1.920598443261312e-05,0.0,-6.291080211107136e-06,0.0,-8.864210712666853e-06
19,1.37,8.59165,0.616853,-1.28424e-15,2.30213,-3.36733e-19,-2.18022e-20,4.04657e-05,-9.43765e-06,-1.32978e-05,2.88117e-05,4.38461e-22,-1.63636e-21,0.0,4.0466518747450664e-05,2.8812115061116472e-05,0.0,-9.4376054655676e-06,0.0,-1.3297711584647764e-05
20,2.055,12.8883,0.925338,-5.059e-15,3.45341,6.94144e-17,1.1511e-18,6.07025e-05,-1.41574e-05,-1.99479e-05,4.32204e-05,-7.0378e-26,-1.88577e-26,0.0,6.070434243410361e-05,4.322133401490902e-05,0.0,-1.4157299784489652e-05,0.0,-1.994770104196686e-05
21,3.082,19.3331,1.38805,-2.81516e-14,5.18029,7.817e-17,-3.15365e-17,9.10568e-05,-2.12368e-05,-2.99229e-05,6.48327e-05,8.76832e-22,-3.2728e-21,0.0,9.106094579625079e-05,6.483480168495426e-05,0.0,-2.123657450070482e-05,0.0,-2.992245231447921e-05
22,4.623,116.413,8.35811,-1.03265e-09,31.1929,9.83292e-16,7.71529e-16,0.000548295,-0.000127877,-0.000180179,0.000390388,3.49743e-21,-1.3096e-20,0.0,0.0005484453411794821,0.0003904642113123913,0.0,-0.0001278688240849979,0.0,-0.00018016276873877857
23,6.935,262.609,18.8545,-9.04826e-07,70.3658,1.26247e-15,-2.74743e-16,0.00123686,-0.000288468,-0.000406453,0.000880648,1.40118e-20,-5.23908e-20,0.0,0.0012376252267900512,0.0008810358843047705,0.0,-0.0002884263971069112,0.0,-0.00040637040916957634
24,10.03,446.439,32.0927,0.00247337,119.701,-0.0118046,-0.00316127,0.00215605,-0.000511247,-0.000723419,0.00153874,-1.52306e-07,-4.08441e-08,5.88627e-05,0.0021583759471202058,0.0015399244678453439,-1.5230598837678855e-07,-0.0005111163355207005,-4.08440992138992e-08,-0.0007231573955622794
25,13.12,468.016,33.7935,8.56958e-05,125.762,-0.121232,-0.0324402,0.00307237,-0.00085481,-0.00125136,0.00223588,-2.19099e-06,-5.9474e-07,0.000956963,0.0030770945660076876,0.0022383814436490734,-2.1909875997927486e-06,-0.0008544447540113076,-5.947398231676004e-07,-0.00125057737555756
26,16.21,485.781,35.1927,7.8643e-05,130.753,-0.210642,-0.0563377,0.00398762,-0.0012008,-0.00178372,0.00293359,-4.45249e-06,-1.21376e-06,0.00187392,0.003995581135108672,0.0029378971859534975,-4.4524800877354664e-06,-0.0012000793281697897,-1.2137592634298144e-06,-0.0017821301169232973
27,19.3,500.925,36.3848,3.16466e-05,135.006,-0.285375,-0.0762955,0.00490183,-0.0015483,-0.00231898,0.00363156,-6.90891e-06,-1.88934e-06,0.00280355,0.004913863622898029,0.003638162103576148,-6.908886133527581e-06,-0.001547102001921541,-1.8893382152107563e-06,-0.0023162932431262107
28,22.39,514.153,37.4253,1.24243e-05,138.72,-0.349234,-0.0933368,0.00581501,-0.0018968,-0.00285619,0.00432961,-9.53877e-06,-2.6149e-06,0.00374216,0.005831949990136476,0.004338996302830633,-9.538724506041873e-06,-0.0018950022117412146,-2.6148965811545466e-06,-0.0028521149699518578
29,25.48,525.915,38.3501,3.36262e-06,142.021,-0.404778,-0.10815,0.00672717,-0.00224595,-0.00339476,0.00502762,-1.23225e-05,-3.3846e-06,0.00468741,0.006749848233026379,0.0050402796885749,-1.2322424078337058e-05,-0.0022434297414434257,-3.3845942722932065e-06,-0.0033890043171672657
30,28.57,536.521,39.1835,-1.83807e-06,144.997,-0.45379,-0.121214,0.00763833,-0.00259554,-0.00393431,0.00572548,-1.5243e-05,-4.19336e-06,0.00563768,0.00766757645987548,0.005741901886717082,-1.5242883826038778e-05,-0.0025921744984485073,-4.193351207826268e-06,-0.003926580742166563
31,31.66,546.189,39.9428,-5.49172e-06,147.709,-0.49755,-0.132872,0.00854849,-0.00294541,-0.00447453,0.00642313,-1.82854e-05,-5.03683e-06,0.00659185,0.008585132679409302,0.006443802536593823,-1.8285232823100905e-05,-0.002941076535619813,-5.036817315229314e-06,-0.004464534205025128
32,34.75,555.081,40.6409,-8.55054e-06,150.203,-0.537008,-0.143379,0.00945767,-0.00329543,-0.00501521,0.0071205,-2.14368e-05,-5.9113e-06,0.00754906,0.009502535089105812,0.007145911037417019,-2.1436570233457353e-05,-0.0032900060302976097,-5.91128252824813e-06,-0.005002654832031772
33,37.84,563.318,41.2874,-1.14361e-05,152.513,-0.572884,-0.152928,0.0103659,-0.00364553,-0.00555621,0.00781755,-2.46862e-05,-6.81358e-06,0.00850868,0.010419812062728795,0.007848186826940218,-2.4685895298248717e-05,-0.0036388931229371924,-6.813556787665931e-06,-0.005540802813613022
34,40.93,570.996,41.8899,-1.43443e-05,154.666,-0.605736,-0.16167,0.0112731,-0.00399564,-0.00609739,0.00851425,-2.80243e-05,-7.74094e-06,0.00947023,0.011336880835731256,0.008550599315680918,-2.8023907322927144e-05,-0.0039876680517081375,-7.74091003896693e-06,-0.006078838641700224
35,44.02,578.19,42.4543,-1.73677e-05,156.683,-0.636005,-0.169721,0.0121794,-0.0043457,-0.00663865,0.00921056,-3.14426e-05,-8.691e-06,0.0104333,0.0122538709221236,0.00925310773692578,-3.144210568661876e-05,-0.004336271109076972,-8.690962233326438e-06,-0.006616662845002508
36,47.11,584.962,42.9855,-2.05492e-05,158.581,-0.664043,-0.177176,0.0130847,-0.00469567,-0.00717992,0.00990646,-3.49341e-05,-9.66171e-06,0.0113976,0.013170679282158204,0.009955691410235223,-3.493348981142841e-05,-0.004684662577439935,-9.661663325832848e-06,-0.0071542059528015844
37,50.2,591.361,43.4874,-2.39073e-05,160.375,-0.690139,-0.184113,0.013989,-0.00504552,-0.00772114,0.0106019,-3.84924e-05,-1.06513e-05,0.0123628,0.014087303916797023,0.010658299278760275,-3.849165917702013e-05,-0.005032812744518278,-1.0651243275150435e-05,-0.007691408567943148
38,53.29,597.429,43.9632,-2.74478e-05,162.076,-0.714528,-0.190595,0.0148924,-0.00539523,-0.00826224,0.0112969,-4.21119e-05,-1.16581e-05,0.0133288,0.015003844326123339,0.011360950939928172,-4.211101330642286e-05,-0.00538070188587203,-1.1658032044614686e-05,-0.008228201504340782
39,56.38,603.2,44.4158,-3.11704e-05,163.693,-0.737408,-0.196674,0.0157949,-0.00574476,-0.00880318,0.0119915,-4.57877e-05,-1.26807e-05,0.0142953,0.015920298783496545,0.012063686288183328,-4.5786651759249786e-05,-0.005728290419293014,-1.2680619600247134e-05,-0.008764545462989992
40,59.47,608.704,44.8475,-3.50711e-05,165.236,-0.758944,-0.202395,0.0166964,-0.0060941,-0.00934394,0.0126855,-4.95155e-05,-1.3718e-05,0.0152622,0.016836563877286936,0.012766302266011165,-4.951427412780429e-05,-0.006075568635700135,-1.3717905908650074e-05,-0.00930042104428741
41,62.56,613.966,45.2601,-3.91444e-05,166.711,-0.779276,-0.207794,0.017597,-0.00644324,-0.00988447,0.0133791,-5.32913e-05,-1.47688e-05,0.0162294,0.017752739378618543,0.013469000640888185,-5.328988004393853e-05,-0.006422526839648501,-1.476869094185762e-05,-0.009835779186097238
42,65.65,619.007,45.6556,-4.33843e-05,168.124,-0.798524,-0.212905,0.0184967,-0.00679216,-0.0104247,0.0140722,-5.71117e-05,-1.5832e-05,0.0171968,0.018668823556910796,0.014171679490458056,-5.711006915787298e-05,-0.00676914541699003,-1.5831874674576696e-05,-0.010370551140175155
43,68.74,623.848,46.0352,-4.77843e-05,169.481,-0.816792,-0.217754,0.0193954,-0.00714084,-0.0109647,0.0147647,-6.09734e-05,-1.69069e-05,0.0181642,0.019584712721793407,0.014874236610831426,-6.0971541160026455e-05,-0.007115404781000367,-1.690675707921585e-05,-0.010904806780554166
44,71.83,628.503,46.4004,-5.23384e-05,170.786,-0.834168,-0.222367,0.0202932,-0.00748928,-0.0115044,0.0154567,-6.48737e-05,-1.79926e-05,0.0191317,0.020500506915374306,0.01557677263199464,-6.487159574697365e-05,-0.007461305223083858,-1.7992438134162292e-05,-0.011438477432355598
45,74.92,632.988,46.7522,-5.70406e-05,172.043,-0.850732,-0.226762,0.0211901,-0.00783747,-0.0120438,0.0161482,-6.88098e-05,-1.90883e-05,0.020099,0.021416204403180705,0.016279286836562434,-6.880743266002298e-05,-0.007806837112353082,-1.9088117819587858e-05,-0.01197156373132846
46,78.01,637.315,47.0917,-6.18851e-05,173.256,-0.866552,-0.23096,0.0220861,-0.0081854,-0.0125829,0.0168392,-7.27795e-05,-2.01934e-05,0.0210662,0.022331803449443965,0.01698177850668614,-7.277685163642467e-05,-0.008151990831367861,-2.0193196114681733e-05,-0.012504066312353457
47,81.1,641.496,47.4198,-6.68667e-05,174.428,-0.881687,-0.234975,0.0229811,-0.00853307,-0.0131216,0.0175296,-7.67806e-05,-2.13074e-05,0.0220331,0.02324719999237934,0.017684145155635766,-7.677765244518131e-05,-0.008496766691131086,-2.1307172998974444e-05,-0.01303588711303727
48,84.19,645.541,47.7372,-7.19805e-05,175.562,-0.896193,-0.238823,0.0238753,-0.00888047,-0.01366,0.0182195,-8.08111e-05,-2.24295e-05,0.0229999,0.024162596851552864,0.018386487692579445,-8.080783487096621e-05,-0.008841155090653974,-2.2429248460631435e-05,-0.013567125569190486
49,87.28,649.459,48.0448,-7.72216e-05,176.661,-0.910116,-0.242516,0.0247685,-0.00922758,-0.014198,0.0189088,-8.48692e-05,-2.35594e-05,0.0239663,0.025077787546379682,0.01908870348941627,-8.48655987113478e-05,-0.009185136534157312,-2.3559122479532846e-05,-0.014097683722693821
50,90.37,653.259,48.3431,-8.25859e-05,177.726,-0.923499,-0.246065,0.0256609,-0.00957442,-0.0147356,0.0195975,-8.89533e-05,-2.46965e-05,0.0249323,0.025992975260007656,0.019790791615805325,-8.894934377245978e-05,-0.009528731171775329,-2.469619504397169e-05,-0.01462756236378393
51,93.46,656.947,48.6327,-8.80692e-05,178.761,-0.93638,-0.24948,0.0265523,-0.00992097,-0.0152728,0.0202857,-9.30618e-05,-2.58404e-05,0.025898,0.026907953143210595,0.020492853190274163,-9.305746988497177e-05,-0.009871919520591965,-2.584006613970402e-05,-0.01515676228145757
52,96.55,660.53,48.9141,-9.36678e-05,179.766,-0.948793,-0.252772,0.0274428,-0.0102672,-0.0158096,0.0209734,-9.71933e-05,-2.69908e-05,0.0268632,0.02782282196036867,0.021194887492239856,-9.718857688423288e-05,-0.010214672226837584,-2.699043575160598e-05,-0.015685284263473598
53,99.64,664.016,49.1879,-9.93781e-05,180.743,-0.96077,-0.255947,0.0283325,-0.0106132,-0.0163461,0.0216605,-0.000101346,-2.81472e-05,0.027828,0.028737682840581646,0.021896791610981348,-0.0001013408646676206,-0.010557078710509482,-2.8146803871309523e-05,-0.016213227475036396
54,102.7,667.408,49.4544,-0.000105197,181.695,-0.972339,-0.259014,0.0292212,-0.0109589,-0.0168821,0.022347,-0.00010552,-2.93094e-05,0.0287923,0.029652328381870374,0.02259856461444465,-0.00010551443296058505,-0.010899070011796907,-2.930897048369907e-05,-0.016740395891353232
55,105.8,670.712,49.7141,-0.000111121,182.622,-0.983525,-0.261979,0.0301091,-0.0113043,-0.0174177,0.0230329,-0.000109713,-3.04769e-05,0.0297562,0.030566962676046527,0.02330020557017165,-0.00010970698174883609,-0.01124064647936307,-3.0476435583959294e-05,-0.017266888727945906
56,108.9,673.934,49.9674,-0.000117147,183.526,-0.994352,-0.264849,0.0309961,-0.0116494,-0.0179529,0.0237183,-0.000113924,-3.16495e-05,0.0307194,0.0314814811009021,0.024001815945478455,-0.0001139175109075019,-0.01158180846137713,-3.164899915986119e-05,-0.01779270676764033
57,112.0,677.077,50.2145,-0.000123273,184.408,-1.00484,-0.267628,0.0318821,-0.0119941,-0.0184877,0.0244031,-0.000118153,-3.28269e-05,0.0316822,0.03239577866716936,0.024703292547213263,-0.00011814602020909781,-0.011922457497766104,-3.282636120316429e-05,-0.018317850792032297
58,115.1,680.145,50.4557,-0.000129496,185.269,-1.01501,-0.270324,0.0327673,-0.0123386,-0.019022,0.0250873,-0.000122398,-3.40089e-05,0.0326444,0.033310060011667586,0.025404634441676288,-0.00012239050967033371,-0.01226279158524568,-3.4008321703860034e-05,-0.018842223465719732
59,118.2,683.142,50.6915,-0.000135814,186.111,-1.02488,-0.272939,0.0336516,-0.0126828,-0.0195559,0.0257709,-0.000126658,-3.51952e-05,0.033606,0.03422422023410654,0.026105840694771176,-0.0001266499792140774,-0.012602712228683366,-3.5194580656261465e-05,-0.01936592378837021
60,121.3,686.071,50.922,-0.000142225,186.933,-1.03447,-0.275479,0.0345351,-0.0130267,-0.0200894,0.026454,-0.000130933,-3.63856e-05,0.034567,0.035138361094945614,0.026807013052703388,-0.00013092442864881537,-0.01294221977427934,-3.638493805202536e-05,-0.01988895253770473
61,124.4,688.936,51.1475,-0.000148725,187.737,-1.04378,-0.277948,0.0354176,-0.0133702,-0.0206224,0.0271364,-0.000135222,-3.75799e-05,0.0355274,0.03605227390332555,0.02750794528928946,-0.00013521285791739945,-0.013281215895869836,-3.7579193884362816e-05,-0.02041121253134992
62,127.4,691.74,51.3682,-0.000155314,188.525,-1.05285,-0.280349,0.0362993,-0.0137135,-0.021155,0.0278183,-0.000139524,-3.87778e-05,0.0364872,0.03696616402248054,0.028208841900722925,-0.00013951426697933478,-0.013619898316288959,-3.8777048150806515e-05,-0.020932802607788514
63,130.5,694.484,51.5843,-0.00016199,189.295,-1.06167,-0.282685,0.0371801,-0.0140564,-0.0216872,0.0284997,-0.000143839,-3.99793e-05,0.0374463,0.03787992618153102,0.028909702161567186,-0.00014382865566697767,-0.013958070070295592,-3.997850083847787e-05,-0.02145372354088515
64,133.6,697.173,51.7961,-0.000168749,190.05,-1.07026,-0.284961,0.03806,-0.014399,-0.0222189,0.0291804,-0.000148166,-4.1184e-05,0.0384048,0.03879355862222411,0.02961031942386083,-0.00014815502396026137,-0.01429583017388003,-4.118315195067446e-05,-0.021973878300681204
65,136.7,699.807,52.0037,-0.000175592,190.791,-1.07863,-0.287179,0.0389391,-0.0147414,-0.0227502,0.0298605,-0.000152504,-4.2392e-05,0.0393626,0.039707163555819935,0.030310795572015437,-0.00015249237185610554,-0.014633277507348219,-4.2391101471861425e-05,-0.022493365565128265
66,139.8,702.39,52.2072,-0.000182516,191.516,-1.0868,-0.289342,0.0398173,-0.0150834,-0.023281,0.0305401,-0.000156853,-4.36029e-05,0.0403198,0.0406206354336478,0.031011232770287833,-0.0001568406992112914,-0.014970215306792878,-4.360194940733475e-05,-0.023012088405465425
67,142.9,704.924,52.4069,-0.00018952,192.228,-1.09476,-0.291453,0.0406946,-0.0154251,-0.0238114,0.0312191,-0.000161212,-4.48166e-05,0.0412763,0.0415339724938355,0.0317115271203654,-0.00016119900604372184,-0.015306742485279745,-4.4815595751201975e-05,-0.023530145392916868
68,146.0,707.409,52.603,-0.000196602,192.927,-1.10254,-0.293513,0.0415711,-0.0157665,-0.0243413,0.0318975,-0.000165581,-4.60331e-05,0.0422321,0.042447277218051305,0.03241167768458286,-0.0001655672922227236,-0.015642859384975782,-4.603204049313803e-05,-0.024047439699642292
69,149.1,709.85,52.7954,-0.00020376,193.613,-1.11014,-0.295525,0.0424467,-0.0161075,-0.0248708,0.0325753,-0.000169959,-4.72521e-05,0.0431872,0.0433604437799624,0.03311168352489746,-0.00016994455778729378,-0.01597846794541391,-4.7250983637114885e-05,-0.024564069790434018
70,152.2,712.246,52.9845,-0.000210995,194.286,-1.11757,-0.297492,0.0433215,-0.0164483,-0.0253998,0.0332525,-0.000174346,-4.84735e-05,0.0441415,0.044273574841474206,0.03381154370289052,-0.00017433080261930467,-0.016313765345615905,-4.847232517890543e-05,-0.025079938938095236
71,155.3,714.6,53.1703,-0.000218303,194.948,-1.12483,-0.299415,0.0441954,-0.0167887,-0.0259283,0.0339291,-0.000178741,-4.96973e-05,0.0450952,0.04518656439120772,0.03451125727976967,-0.00017872502677906965,-0.016648555155433842,-4.9696065109627874e-05,-0.025595048060790937
72,158.3,716.913,53.3529,-0.000225685,195.599,-1.13193,-0.301296,0.0450684,-0.0171289,-0.0264564,0.0346052,-0.000183144,-5.09233e-05,0.0460482,0.0460994106613426,0.03521092683745808,-0.00018312723016133958,-0.01698303441882132,-5.092200343070896e-05,-0.026109495464117227
73,161.4,719.186,53.5324,-0.000233138,196.238,-1.13888,-0.303137,0.0459406,-0.0174687,-0.0269841,0.0352806,-0.000187555,-5.21514e-05,0.0470005,0.04701221658411736,0.03591034446418928,-0.00018753741266042123,-0.01731700683859827,-5.215004013936486e-05,-0.026623281908884633
74,164.5,721.422,53.7091,-0.000240663,196.867,-1.14569,-0.304939,0.0468119,-0.0178082,-0.0275112,0.0359555,-0.000191973,-5.33816e-05,0.047952,0.04792487587070737,0.03660971633215859,-0.0001919545743626072,-0.01765057108904111,-5.338017522771299e-05,-0.027136213581972046
75,167.6,723.622,53.8828,-0.000248257,197.486,-1.15235,-0.306705,0.0476824,-0.0181474,-0.0280379,0.0366298,-0.000196398,-5.46136e-05,0.0489028,0.048837491633534125,0.03730893797996626,-0.0001963787151751939,-0.017983727508804614,-5.4612108704499285e-05,-0.027648486019489438
76,170.7,725.785,54.0539,-0.000255921,198.094,-1.15889,-0.308435,0.048552,-0.0184863,-0.0285642,0.0373035,-0.00020083,-5.58474e-05,0.0498528,0.04974995739887267,0.038008008466936305,-0.00020080983500536664,-0.01831647643606138,-5.584584056295139e-05,-0.028160099978274733
77,173.8,727.915,54.2222,-0.000263652,198.694,-1.16529,-0.310132,0.0494208,-0.0188248,-0.02909,0.0379766,-0.000205268,-5.7083e-05,0.0508021,0.050662376459308156,0.03870692685202992,-0.00020524693396539728,-0.0186487200733797,-5.708137079651898e-05,-0.02867095908107864
78,176.9,730.012,54.3881,-0.00027145,199.284,-1.17157,-0.311795,0.0502887,-0.0191631,-0.0296153,0.0386491,-0.000209711,-5.83202e-05,0.0517507,0.051574642156273054,0.03940569219384882,-0.0002096890121852102,-0.01898065506140989,-5.8318499410181524e-05,-0.029181064235424437
79,180.0,732.076,54.5514,-0.000279315,199.865,-1.17774,-0.313427,0.0511558,-0.019501,-0.0301402,0.039321,-0.000214161,-5.9559e-05,0.0526985,0.052486857962494415,0.04010430355063699,-0.0002141380691699224,-0.019312085499738618,-5.955722639794381e-05,-0.02969051337818296
80,183.1,734.11,54.7123,-0.000287245,200.438,-1.18379,-0.315029,0.0520221,-0.0198387,-0.0306646,0.0399924,-0.000218616,-6.07992e-05,0.0536456,0.05339902237451599,0.040802864060563104,-0.00021859210526353756,-0.01964320789530205,-6.079735176611756e-05,-0.030199210280981936
81,186.2,736.113,54.8709,-0.000295239,201.002,-1.18972,-0.316602,0.0528875,-0.020176,-0.0311886,0.0406632,-0.000223075,-6.20409e-05,0.0545919,0.05431102845659219,0.04150126884054939,-0.00022305012062218132,-0.019973826479320222,-6.203897550316473e-05,-0.030707252776036476
82,189.2,738.088,55.0273,-0.000303297,201.558,-1.19556,-0.318146,0.0537521,-0.020513,-0.0317121,0.0413333,-0.00022754,-6.32839e-05,0.0555375,0.05522297995161751,0.04219941272778471,-0.000227514114737426,-0.020304039655751338,-6.32818976161742e-05,-0.03121454473395291
83,192.3,740.034,55.1814,-0.000311419,202.106,-1.20129,-0.319664,0.0546159,-0.0208496,-0.0322351,0.0420029,-0.00023201,-6.45282e-05,0.0564823,0.05613487535262274,0.04289750314913676,-0.00023198308776117837,-0.02063374982266908,-6.452611810048303e-05,-0.0317210870546939
84,195.4,741.952,55.3334,-0.000319603,202.646,-1.20692,-0.321155,0.0554788,-0.021186,-0.0327576,0.0426719,-0.000236483,-6.57737e-05,0.0574263,0.0570466074468039,0.04359543501092111,-0.00023645504009939255,-0.02096315322047082,-6.577153695763727e-05,-0.032226880636627486
85,198.5,743.844,55.4834,-0.000327849,203.18,-1.21246,-0.322621,0.0563409,-0.0215221,-0.0332797,0.0433404,-0.000240961,-6.70204e-05,0.0583696,0.05795828024718008,0.044293311798552226,-0.0002409319712298741,-0.021292152213295612,-6.701815418319601e-05,-0.032732023103331453
86,201.6,745.711,55.6314,-0.000336156,203.705,-1.2179,-0.324063,0.0572021,-0.0218578,-0.0338014,0.0440082,-0.000245443,-6.82681e-05,0.0593121,0.05886978635632323,0.04499092377888636,-0.00024541288133095307,-0.021620649296477223,-6.826576978624654e-05,-0.03323651519867321
87,204.7,747.552,55.7774,-0.000344523,204.224,-1.22326,-0.325482,0.0580625,-0.0221932,-0.0343225,0.0446755,-0.000249929,-6.95169e-05,0.0602538,0.05978122996731838,0.04568847893571748,-0.0002498977703492278,-0.0219487427063626,-6.951448375625002e-05,-0.033740164413402995
88,207.8,749.368,55.9215,-0.000352951,204.736,-1.22853,-0.326877,0.0589221,-0.0225283,-0.0348433,0.0453421,-0.000254418,-7.07667e-05,0.0611948,0.06069260956743139,0.046385767256152954,-0.00025438563848512175,-0.02227643277514435,-7.076419609608475e-05,-0.03424326151791934
89,210.9,751.161,56.0638,-0.000361438,205.242,-1.23371,-0.328251,0.0597809,-0.0228632,-0.0353635,0.0460082,-0.000258911,-7.20174e-05,0.062135,0.06160392364278122,0.04708299700230967,-0.0002588774854395126,-0.02260381757416341,-7.201480680929517e-05,-0.03474551752516397
90,214.0,752.931,56.2042,-0.000369985,205.741,-1.23882,-0.329604,0.0606389,-0.0231976,-0.0358833,0.0466737,-0.000263407,-7.3269e-05,0.0630744,0.06251517067834245,0.047780062659685374,-0.00026337231142192774,-0.02293060421579496,-7.326631589232857e-05,-0.03524712642570693
91,217.1,754.678,56.343,-0.000378589,206.234,-1.24385,-0.330935,0.061496,-0.0235318,-0.0364026,0.0473387,-0.000267906,-7.45215e-05,0.064013,0.06342624281532094,0.04847706812998687,-0.00026787011639206604,-0.02325708624967948,-7.45187233419653e-05,-0.03574799253181382
92,220.1,756.404,56.48,-0.000387252,206.72,-1.2488,-0.332247,0.0623523,-0.0238657,-0.0369215,0.048003,-0.000272408,-7.57748e-05,0.0649508,0.0643372446968331,0.04917380284115769,-0.0002723709003095154,-0.023583166266492372,-7.577192916230491e-05,-0.03624821310503745
93,223.2,758.108,56.6154,-0.000395972,207.201,-1.25368,-0.33354,0.0632078,-0.0241993,-0.0374398,0.0486668,-0.000276912,-7.70288e-05,0.0658879,0.06524817480446732,0.04987047561159508,-0.00027687366341078157,-0.02390884459606013,-7.702583335811308e-05,-0.036747596229868784
94,226.3,759.791,56.7492,-0.00040475,207.676,-1.2585,-0.334814,0.0640625,-0.0245325,-0.0379578,0.04933,-0.00028142,-7.82835e-05,0.0668242,0.06615903161868286,0.05056698064656118,-0.0002813804051061686,-0.024234023991144937,-7.828043592672529e-05,-0.03724643176546383
95,229.4,761.454,56.8814,-0.000413584,208.145,-1.26324,-0.336071,0.0649163,-0.0248654,-0.0384752,0.0499926,-0.000285929,-7.95389e-05,0.0677597,0.06706970691184022,0.051263316998694686,-0.00028588812619922965,-0.024558802422188997,-7.953573686558801e-05,-0.03774443161799701
96,232.5,763.097,57.0121,-0.000422474,208.609,-1.26791,-0.337309,0.0657694,-0.0251981,-0.0389923,0.0506546,-0.000290441,-8.07949e-05,0.0686944,0.06798041248503606,0.05195948372030834,-0.0002903988260958279,-0.024883277729162878,-8.079163617991103e-05,-0.03824188534466155
97,235.6,764.721,57.1412,-0.000431421,209.067,-1.27253,-0.338531,0.0666216,-0.0255304,-0.0395088,0.051316,-0.000294955,-8.20515e-05,0.0696284,0.06889093331037444,0.052655479863393584,-0.0002949115050504547,-0.025207255184138133,-8.204813386769594e-05,-0.03873850514777655
98,238.7,766.326,57.269,-0.000440422,209.52,-1.27708,-0.339736,0.067473,-0.0258624,-0.0400249,0.0519769,-0.000299472,-8.33087e-05,0.0705615,0.06980137457084279,0.0533514098147565,-0.0002994271627365652,-0.025530832658584024,-8.330522992661127e-05,-0.039234484206864706
99,241.8,767.912,57.3952,-0.00044948,209.968,-1.28157,-0.340925,0.0683237,-0.0261941,-0.0405405,0.0526372,-0.00030399,-8.45665e-05,0.0714939,0.07071184181252321,0.05404716742975468,-0.00030394379972153995,-0.025854010479386513,-8.456292435432555e-05,-0.039729727222186706
100,244.9,769.481,57.5201,-0.000458592,210.411,-1.286,-0.342099,0.0691735,-0.0265255,-0.0410557,0.0532969,-0.00030851,-8.58247e-05,0.0724255,0.07162211945788655,0.0547427517593726,-0.00030846241568349697,-0.02617678897296316,-8.582101716581025e-05,-0.04022433104583667
101,248.0,771.032,57.6437,-0.000467758,210.85,-1.29037,-0.343257,0.0700225,-0.0268566,-0.0415704,0.053956,-0.000313031,-8.70834e-05,0.0733563,0.07253231295977525,0.05543816185427941,-0.000312982010908458,-0.026499168465264122,-8.707960835074857e-05,-0.040718200474446964
102,251.0,772.566,57.7659,-0.000476979,211.283,-1.29469,-0.344401,0.0708707,-0.0271873,-0.0420846,0.0546146,-0.000317555,-8.83425e-05,0.0742863,0.07344242078979435,0.05613350237817727,-0.0003175045847477742,-0.026821051963882625,-8.833859791623766e-05,-0.04121133637965635
103,254.1,774.083,57.8868,-0.000486254,211.712,-1.29895,-0.345531,0.0717181,-0.0275178,-0.0425984,0.0552726,-0.00032208,-8.9602e-05,0.0752155,0.07435244141845598,0.05682866690679034,-0.00032202813780490835,-0.027142634461773563,-8.959798586061218e-05,-0.04170383546117595
104,257.2,775.584,58.0065,-0.000495583,212.136,-1.30317,-0.346647,0.0725647,-0.027848,-0.0431117,0.05593,-0.000326606,-9.0862e-05,0.0761439,0.0752623733151847,0.057523654489803455,-0.00032655267006653776,-0.027463818933399775,-9.085787217344432e-05,-0.042195602659584774
105,260.3,777.069,58.1249,-0.000504965,212.555,-1.30733,-0.34775,0.0734105,-0.0281778,-0.0436246,0.0565868,-0.000331133,-9.21222e-05,0.0770716,0.07617221494832105,0.05821846417659615,-0.0003310781815191177,-0.027784508481302317,-9.21179568803554e-05,-0.04268673457343464
106,263.4,778.539,58.2421,-0.000514401,212.971,-1.31144,-0.348839,0.0742555,-0.0285074,-0.044137,0.0572431,-0.000335662,-9.33828e-05,0.0779984,0.07708196478512663,0.05891320090755636,-0.0003356056718135658,-0.028104897904229542,-9.337843996204409e-05,-0.04317713623900277
107,266.5,779.992,58.3581,-0.000523889,213.382,-1.31551,-0.349916,0.0750997,-0.0288366,-0.0446489,0.0578988,-0.000340192,-9.46437e-05,0.0789245,0.07799162129178572,0.059607757979042386,-0.00034013414126299324,-0.028424793114198876,-9.463922142627368e-05,-0.04366680852064886
108,269.6,781.431,58.4729,-0.00053343,213.789,-1.31953,-0.350981,0.0759431,-0.0291655,-0.0451604,0.0585539,-0.000344723,-9.59049e-05,0.0798498,0.07890118293341142,0.06030213443947097,-0.0003446635898536332,-0.028744291655328325,-9.590030127204496e-05,-0.04415584786561544
109,272.7,782.856,58.5866,-0.000543024,214.191,-1.3235,-0.352034,0.0767858,-0.0294942,-0.0456715,0.0592085,-0.000349254,-9.71664e-05,0.0807743,0.0798107561551189,0.06099643543659905,-0.0003491930179214675,-0.02906349094338434,-9.716167949824772e-05,-0.04464425498869928
110,275.8,784.266,58.6992,-0.00055267,214.59,-1.32743,-0.353075,0.0776276,-0.0298225,-0.046182,0.0598624,-0.000353787,-9.84281e-05,0.081698,0.0807201235486863,0.06169044788837308,-0.00035372442475900545,-0.02938219708083256,-9.84232561134224e-05,-0.04513183962995848
111,278.9,785.661,58.8107,-0.000562368,214.985,-1.33132,-0.354104,0.0784687,-0.0301505,-0.0466922,0.0605158,-0.000358321,-9.969e-05,0.0826209,0.08162949962910204,0.06238438311097205,-0.0003582568106976769,-0.029700507514425212,-9.968503111701388e-05,-0.04561888910849232
112,281.9,787.044,58.9212,-0.000572118,215.376,-1.33516,-0.355123,0.0793089,-0.0304782,-0.0472018,0.0611687,-0.000362855,-0.000100952,0.083543,0.08253866662225984,0.06307824035975607,-0.0003627891760864532,-0.030018422564886738,-0.00010094690451822874,-0.04610511782100413
113,285.0,788.412,59.0306,-0.00058192,215.763,-1.33896,-0.356131,0.0801484,-0.0308057,-0.047711,0.061821,-0.00036739,-0.000102214,0.0844643,0.08344783940476863,0.06377191251251912,-0.0003673225205580444,-0.03033603951888164,-0.00010220877632705072,-0.04659071745085175
114,288.1,789.767,59.1389,-0.000591774,216.147,-1.34273,-0.357129,0.0809871,-0.0311328,-0.0482198,0.0624727,-0.000371925,-0.000103477,0.0853849,0.08435690827241937,0.06446539861580614,-0.00037185584447096964,-0.03065316473169888,-0.00010347164643986773,-0.04707568870666279
115,291.2,791.11,59.2463,-0.000601679,216.527,-1.34646,-0.358116,0.081825,-0.0314596,-0.0487281,0.0631238,-0.000376461,-0.000104739,0.0863046,0.08526587168290134,0.06515869771587424,-0.0003763901474490572,-0.030969895520834845,-0.00010473351506234962,-0.04755993705195005
116,294.3,792.439,59.3527,-0.000611636,216.903,-1.35015,-0.359094,0.0826621,-0.0317861,-0.0492359,0.0637744,-0.000380998,-0.000106002,0.0872236,0.0861747280928653,0.0658519154438828,-0.00038092542947865127,-0.03128623220517335,-0.00010599638198649508,-0.04804346333820064
117,297.4,793.757,59.4581,-0.000621644,217.276,-1.3538,-0.360062,0.0834984,-0.0321123,-0.0497433,0.0644244,-0.000385535,-0.000107265,0.0881418,0.0870834759579242,0.06654494439893144,-0.0003854606909318159,-0.031602175103139785,-0.00010725924731558312,-0.04852636356275575
118,300.5,795.062,59.5625,-0.000631703,217.645,-1.35741,-0.36102,0.084334,-0.0324382,-0.0502503,0.0650738,-0.000390072,-0.000108528,0.0890592,0.08799222253187744,0.06723778362637245,-0.00038999593180844006,-0.03191772453270125,-0.00010852211104961373,-0.04900863842941994
119,303.6,796.354,59.666,-0.000641813,218.012,-1.361,-0.36197,0.0851688,-0.0327638,-0.0507568,0.0657227,-0.000394609,-0.000109791,0.0899758,0.08890085765077749,0.06793053896432877,-0.0003945311521088568,-0.03223288081136699,-0.00010978497318869795,-0.04949019358991602
120,306.7,797.636,59.7686,-0.000651974,218.375,-1.36455,-0.36291,0.0860028,-0.0330891,-0.0512628,0.066371,-0.000399147,-0.000111054,0.0908916,0.08980937976712,0.06862310280305106,-0.00039906735143369065,-0.03254764425618906,-0.00011104783373272475,-0.04997102989011626
121,309.0,798.596,59.8456,-0.00066361,218.647,-1.3672,-0.363615,0.0866324,-0.0333347,-0.0516449,0.0668605,-0.000402575,-0.000112008,0.0915831,0.09049573979608594,0.06914632185928982,-0.0004024939775575387,-0.03278522137909479,-0.00011200172733816238,-0.050333966616118
