,Time,S11,S22,S33,S12,S13,S23,LE11,LE22,LE33,LE12,LE13,LE23,SDV_EPBAR,E11,E12,E13,E22,E23,E33
0,0.000309,0.0019383,0.000139163,-7.79048e-12,0.000519365,9.3624e-20,3.36396e-20,9.1292e-09,-2.12864e-09,-3.00057e-09,6.49972e-09,9.45271e-25,4.67314e-25,0.0,9.129200062574228e-09,6.499720095476391e-09,0.0,-2.128640042009522e-09,0.0,-3.0005700146773506e-09
1,0.000618,0.00387659,0.000278327,3.25261e-19,0.00103873,3.61973e-20,-7.40724e-21,1.82584e-08,-4.2578e-09,-6.00057e-09,1.29997e-08,9.27189e-26,4.52981e-25,0.0,1.8258400125148455e-08,1.2999699983140545e-08,0.0,-4.257800001461476e-09,0.0,-6.000569929831556e-09
2,0.0010815,0.00678404,0.000487072,3.25261e-19,0.00181778,-8.55315e-21,3.19208e-20,3.19522e-08,-7.45077e-09,-1.05014e-08,2.27493e-08,2.14063e-25,-7.98907e-25,0.0,3.19522004410544e-08,2.2749300221391877e-08,0.0,-7.45077000097183e-09,0.0,-1.0501399971829528e-08
3,0.0017767,0.0111452,0.00080019,7.58942e-19,0.00298635,8.55315e-21,-3.19208e-20,5.24927e-08,-1.22421e-08,-1.72507e-08,3.73747e-08,4.28159e-25,-1.59792e-24,0.0,5.249270129681349e-08,3.737470066766946e-08,0.0,-1.2242099889370195e-08,0.0,-1.725069986857619e-08
4,0.0028196,0.017687,0.00126987,-2.27682e-18,0.00473921,-1.65988e-27,-4.44764e-28,8.33037e-08,-1.94275e-08,-2.73762e-08,5.93119e-08,1.2845e-24,-4.79383e-24,0.0,8.33037034908557e-08,5.931190183439128e-08,0.0,-1.9427499831081718e-08,0.0,-2.7376199640549714e-08
5,0.0043839,0.0274996,0.00197438,-4.01155e-18,0.00736849,1.71063e-20,-6.38416e-20,1.2952e-07,-3.02058e-08,-4.25643e-08,9.22178e-08,-1.48338e-24,-7.24799e-24,0.0,1.295200084960868e-07,9.221780428170234e-08,0.0,-3.0205799528282284e-08,0.0,-4.256429908533477e-08
6,0.0067304,0.0422185,0.00303115,-4.01155e-18,0.0113124,1.74418e-19,1.1516e-19,1.98845e-07,-4.63759e-08,-6.53437e-08,1.41578e-07,3.19598e-24,8.5636e-25,0.0,1.9884501978317815e-07,1.4157800998226833e-07,0.0,-4.637589889888716e-08,0.0,-6.534369789701344e-08
7,0.01025,0.0642969,0.00461631,8.13152e-18,0.0172283,2.08631e-19,-1.25227e-20,3.02832e-07,-7.06269e-08,-9.95172e-08,2.15616e-07,2.29126e-25,-1.36391e-23,0.0,3.0283204588421597e-07,2.156160232580362e-07,0.0,-7.062689755255036e-08,0.0,-9.951719504019962e-08
8,0.01553,0.0974145,0.00699405,2.92735e-18,0.0261021,-1.49373e-19,3.02101e-19,4.58812e-07,-1.07003e-07,-1.50778e-07,3.26673e-07,-3.42531e-24,1.27835e-23,0.0,4.5881210519738147e-07,3.266730532747175e-07,0.0,-1.0700299424293291e-07,0.0,-1.5077798865004155e-07
9,0.023449,0.147091,0.0105607,6.39679e-18,0.0394129,6.16725e-19,5.07377e-19,6.92782e-07,-1.61575e-07,-2.2766e-07,4.93263e-07,1.27839e-23,3.42544e-24,0.0,6.927822400193406e-07,4.932631216814087e-07,0.0,-1.6157498694546746e-07,0.0,-2.2765997409468497e-07
10,0.035328,0.221605,0.0159106,-7.48099e-18,0.059379,8.22001e-19,-2.58722e-19,1.04374e-06,-2.43427e-07,-3.4299e-07,7.43145e-07,1.27839e-23,3.42544e-24,0.0,1.0437405446594994e-06,7.43145276205226e-07,0.0,-2.4342697035883987e-07,0.0,-3.429899412266124e-07
11,0.053146,0.333377,0.0239354,-3.52366e-17,0.0893282,1.43291e-18,1.54718e-18,1.57017e-06,-3.66206e-07,-5.15985e-07,1.11797e-06,-4.82329e-29,-1.2924e-29,0.0,1.570171232812001e-06,1.1179706249642152e-06,0.0,-3.662059329112566e-07,0.0,-5.159848668334632e-07
12,0.079874,0.501035,0.0359727,-2.13588e-17,0.134252,1.15921e-18,2.56864e-18,2.35982e-06,-5.50367e-07,-7.75483e-07,1.6802e-06,-4.1105e-23,1.53406e-22,0.0,2.3598227842924757e-06,1.6802014115580022e-06,0.0,-5.503668485395963e-07,0.0,-7.754826992778519e-07
13,0.12,0.752521,0.0540286,-7.48099e-18,0.201637,2.25401e-18,-1.51722e-18,3.54429e-06,-8.26616e-07,-1.16472e-06,2.52354e-06,-1.0888e-28,-2.91744e-29,0.0,3.544296280910686e-06,2.523543184196342e-06,0.0,-8.266156583669471e-07,0.0,-1.1647193217667606e-06
14,0.1801,1.12975,0.0811124,2.02746e-17,0.302715,9.8783e-18,2.71531e-18,5.321e-06,-1.241e-06,-1.74857e-06,3.78857e-06,1.53406e-22,4.11051e-23,0.0,5.321014156622894e-06,3.788577176644381e-06,0.0,-1.2409992299344808e-06,0.0,-1.7485684712381655e-06
15,0.2703,1.69559,0.121738,-7.48099e-18,0.454332,-5.51699e-18,2.96936e-18,7.98605e-06,-1.86256e-06,-2.62435e-06,5.6861e-06,6.26956e-28,1.67992e-28,0.0,7.986081888677887e-06,5.686116165914967e-06,0.0,-1.862558265397496e-06,0.0,-2.6243465564013135e-06
16,0.4056,2.54435,0.182676,4.92119e-16,0.681756,-3.36327e-19,-2.16935e-20,1.19836e-05,-2.79488e-06,-3.93804e-06,8.53236e-06,2.19228e-22,-8.18169e-22,0.0,1.1983671803550422e-05,8.532396400751097e-06,0.0,-2.7948760943363737e-06,0.0,-3.938032245964784e-06
17,0.6086,3.81748,0.274083,3.81097e-16,1.02289,-3.36325e-19,-2.16927e-20,1.79799e-05,-4.19337e-06,-5.90853e-06,1.28018e-05,9.49301e-23,4.63893e-22,0.0,1.79800616393333e-05,1.2801881943413917e-05,0.0,-4.1933612078270954e-06,0.0,-5.908512544672284e-06
18,0.913,5.72716,0.411192,4.92119e-16,1.53459,3.23501e-17,8.73662e-18,2.69743e-05,-6.2911e-06,-8.86425e-06,1.92058e-05,4.09074e-22,1.09611e-22,0.0,2.697466380974234e-05,1.920598443261312e-05,0.0,-6.291080211107136e-06,0.0,-8.864210712666853e-06
19,1.37,8.59165,0.616853,-1.28424e-15,2.30213,-3.36733e-19,-2.18022e-20,4.04657e-05,-9.43765e-06,-1.32978e-05,2.88117e-05,4.38461e-22,-1.63636e-21,0.0,4.0466518747450664e-05,2.8812115061116472e-05,0.0,-9.4376054655676e-06,0.0,-1.3297711584647764e-05
20,2.055,12.8883,0.925338,-5.059e-15,3.45341,6.94144e-17,1.1511e-18,6.07025e-05,-1.41574e-05,-1.99479e-05,4.32204e-05,-7.0378e-26,-1.88577e-26,0.0,6.070434243410361e-05,4.322133401490902e-05,0.0,-1.4157299784489652e-05,0.0,-1.994770104196686e-05
21,3.082,19.3331,1.38805,-2.81516e-14,5.18029,7.817e-17,-3.15365e-17,9.10568e-05,-2.12368e-05,-2.99229e-05,6.48327e-05,8.76832e-22,-3.2728e-21,0.0,9.106094579625079e-05,6.483480168495426e-05,0.0,-2.123657450070482e-05,0.0,-2.992245231447921e-05
22,4.623,116.413,8.35811,-1.03265e-09,31.1929,9.83292e-16,7.71529e-16,0.000548295,-0.000127877,-0.000180179,0.000390388,3.49743e-21,-1.3096e-20,0.0,0.0005484453411794821,0.0003904642113123913,0.0,-0.00012786882408488687,0.0,-0.00018016276873877857
23,6.935,262.609,18.8545,-9.04826e-07,70.3658,1.26247e-15,-2.74743e-16,0.00123686,-0.000288468,-0.000406453,0.000880648,1.40118e-20,-5.23908e-20,0.0,0.0012376252267900512,0.0008810358843047705,0.0,-0.0002884263971069112,0.0,-0.00040637040916957634
24,10.03,445.816,32.0389,0.0047826,119.521,-0.00963091,-0.00257907,0.00215608,-0.000510098,-0.000725897,0.00153832,-1.24456e-07,-3.33768e-08,6.20271e-05,0.002158406011872005,0.001539503821165411,-1.2445599228971815e-07,-0.0005099679221335363,-3.337679943538063e-08,-0.0007256336005101449
25,13.12,467.343,33.706,0.000218533,125.508,-0.0955812,-0.0255759,0.00307252,-0.000829693,-0.0012781,0.00222856,-1.72709e-06,-4.68809e-07,0.000959097,0.0030772450275831087,0.0022310450855478337,-1.7270885085407528e-06,-0.000829348899935245,-4.6880889015277205e-07,-0.0012772835780548997
26,16.21,485.073,35.0761,0.000124349,130.441,-0.165705,-0.0443183,0.00398793,-0.00115124,-0.00183518,0.00291913,-3.50233e-06,-9.54737e-07,0.0018749,0.003995892373787058,0.0029233948088125405,-3.502323866810819e-06,-0.0011505775774579563,-9.54736544267476e-07,-0.0018334970868241207
27,19.3,500.19,36.2443,5.12488e-05,134.646,-0.224565,-0.0600366,0.00490232,-0.00147399,-0.00239546,0.00360981,-5.4344e-06,-1.48609e-06,0.00280328,0.004914356030812028,0.003616333210940459,-5.434385233704653e-06,-0.001472904210286452,-1.4860888957191065e-06,-0.002392593175272517
28,22.39,513.395,37.2646,2.16534e-05,138.318,-0.275066,-0.0735129,0.0058157,-0.00179752,-0.00295792,0.00430043,-7.5064e-06,-2.0577e-06,0.00374059,0.0058326440144214065,0.0043096901184978,-7.506371827004088e-06,-0.0017959054284777398,-2.057697882973386e-06,-0.002953549664732713
29,25.48,525.138,38.1718,8.47814e-06,141.585,-0.319165,-0.085273,0.00672808,-0.00212155,-0.00352192,0.00499089,-9.70296e-06,-2.66498e-06,0.0046845,0.006750764375804907,0.005003365237040036,-9.702912926456975e-06,-0.0021193011034619236,-2.664976448962797e-06,-0.0035157253142864553
30,28.57,535.728,38.9897,1.76609e-06,144.53,-0.358224,-0.0956833,0.00763947,-0.00244589,-0.004087,0.00568112,-1.20106e-05,-3.30394e-06,0.0056334,0.007668725201567472,0.0056972881654890895,-1.2010527873029808e-05,-0.0024429012482697354,-3.303934541953879e-06,-0.004078659581798649
31,31.66,545.381,39.7352,-2.17978e-06,147.214,-0.393226,-0.105007,0.00854988,-0.00277042,-0.00465285,0.00637105,-1.44176e-05,-3.97118e-06,0.00658616,0.008586534613718166,0.006391388308236046,-1.4417496066898572e-05,-0.0027665859279923932,-3.971172114924926e-06,-0.00464204226219711
32,34.75,554.259,40.4209,-4.89886e-06,149.683,-0.424899,-0.11344,0.00945931,-0.00309505,-0.00521925,0.00706063,-1.69139e-05,-4.66378e-06,0.00754196,0.009504190674620938,0.007085615016702684,-1.6913756960779125e-05,-0.003090265270347503,-4.663769124557682e-06,-0.005205653379723563
33,37.84,562.485,41.0562,-7.08456e-06,151.97,-0.453795,-0.121131,0.0103678,-0.0034197,-0.00578601,0.00774984,-1.94909e-05,-5.37921e-06,0.00850015,0.010421731862195749,0.007779947736470616,-1.9490710053693405e-05,-0.0034138594854542514,-5.379195532118075e-06,-0.005769303281417226
34,40.93,570.152,41.6483,-9.06766e-06,154.102,-0.480344,-0.128194,0.0112753,-0.00374433,-0.006353,0.00843865,-2.2141e-05,-6.11534e-06,0.00946025,0.011339105779316405,0.008474355772414954,-2.2140754889821146e-05,-0.003737328737497325,-6.11532130134762e-06,-0.0063328623628702285
35,44.02,577.336,42.2033,-1.10123e-05,156.1,-0.504885,-0.134721,0.0121819,-0.00406887,-0.0069201,0.00912702,-2.48578e-05,-6.87028e-06,0.0104219,0.012256401559964214,0.009168798253961219,-2.4857491047414193e-05,-0.004060603364217763,-6.870256399671426e-06,-0.0068962112439511225
36,47.11,584.098,42.7257,-1.30016e-05,157.981,-0.527691,-0.140784,0.0130875,-0.00439331,-0.00748725,0.00981494,-2.76355e-05,-7.64241e-06,0.0113847,0.013173516164031618,0.009863264494877289,-2.763511814307673e-05,-0.004383673530786059,-7.642380796868409e-06,-0.00745929036748838
37,50.2,590.489,43.2194,-1.50779e-05,159.758,-0.548982,-0.146443,0.0139921,-0.00471762,-0.00805435,0.0105024,-3.04692e-05,-8.43029e-06,0.0123484,0.014090447592311817,0.010557743780700957,-3.0468735818689474e-05,-0.004706509509325496,-8.430254465174869e-06,-0.008022000632344706
38,53.29,596.548,43.6877,-1.72618e-05,161.444,-0.568942,-0.151746,0.0148959,-0.00504176,-0.00862137,0.0111893,-3.33544e-05,-9.23268e-06,0.0133129,0.015007396845795107,0.011252134356044108,-3.3353843748140655e-05,-0.005029071660861084,-9.232637378953079e-06,-0.008584312561425111
39,56.38,602.311,44.1332,-1.95623e-05,163.047,-0.587722,-0.156735,0.0157986,-0.00536573,-0.00918823,0.0118758,-3.62873e-05,-1.00485e-05,0.0142779,0.01592405769555616,0.011946597293408745,-3.628664162391715e-05,-0.005351360183789788,-1.004844951402184e-05,-0.009146147202169996
40,59.47,607.808,44.5581,-2.19826e-05,164.576,-0.605451,-0.161443,0.0167005,-0.0056895,-0.00975491,0.0125618,-3.92643e-05,-1.08766e-05,0.0152434,0.01684073291574517,0.01264103082261947,-3.92635291674992e-05,-0.005673345446505995,-1.0876540849968919e-05,-0.00970748519894371
41,62.56,613.063,44.9645,-2.45219e-05,166.039,-0.622237,-0.165899,0.0176014,-0.00601307,-0.0103214,0.0132472,-4.22823e-05,-1.17163e-05,0.0162091,0.017757217500523614,0.013335332895285212,-4.228140611617359e-05,-0.005995027675953835,-1.1716231364422569e-05,-0.010268317137812621
42,65.65,618.097,45.354,-2.7178e-05,167.44,-0.638173,-0.170129,0.0185014,-0.00633642,-0.0108876,0.0139321,-4.53386e-05,-1.25667e-05,0.017175,0.01867361131163281,0.014029603990782347,-4.533757222124901e-05,-0.0063163872251496,-1.2566621039322712e-05,-0.010828544601287682
43,68.74,622.931,45.728,-2.99477e-05,168.785,-0.653339,-0.174154,0.0194005,-0.00665955,-0.0114535,0.0146165,-4.84305e-05,-1.34271e-05,0.0181409,0.01958991261708798,0.01472384339337851,-4.842932726223381e-05,-0.006637424339790754,-1.342700985684786e-05,-0.011388158370247647
44,71.83,627.58,46.0878,-3.28274e-05,170.079,-0.667804,-0.177992,0.0202987,-0.00698244,-0.0120191,0.0153004,-5.15559e-05,-1.42969e-05,0.0191068,0.020506119683597612,0.015418050386898807,-5.1554571017464745e-05,-0.006958119404444685,-1.4296797799850935e-05,-0.011947159127557061
45,74.92,632.059,46.4345,-3.58134e-05,171.326,-0.68163,-0.181659,0.0211959,-0.00730508,-0.0125845,0.0159837,-5.47125e-05,-1.51754e-05,0.0200727,0.02142212863434656,0.016112122643509696,-5.471100329845768e-05,-0.007278462756231785,-1.5175284854174187e-05,-0.012505646304583395
46,78.01,636.38,46.7692,-3.89019e-05,172.53,-0.694869,-0.185171,0.0220923,-0.00762748,-0.0131494,0.0166664,-5.78986e-05,-1.60621e-05,0.0210383,0.02233814192627448,0.016806059237942428,-5.789692390834045e-05,-0.007598464592771137,-1.60619710051213e-05,-0.013063324333996373
47,81.1,640.556,47.0927,-4.20893e-05,173.693,-0.707569,-0.188538,0.0229877,-0.00794962,-0.0137141,0.0173486,-6.11124e-05,-1.69566e-05,0.0220038,0.023253953446185527,0.017499960994532104,-6.111053267532363e-05,-0.007918105336088499,-1.695645623767117e-05,-0.013620490144172437
48,84.19,644.595,47.4057,-4.53724e-05,174.818,-0.719771,-0.191773,0.0238822,-0.0082715,-0.0142783,0.0180303,-6.43522e-05,-1.78583e-05,0.022969,0.024169663597851443,0.018193827195365886,-6.435012944161489e-05,-0.008237385268673902,-1.7858140541560097e-05,-0.014176848500182415
49,87.28,648.508,47.7091,-4.87479e-05,175.908,-0.731513,-0.194886,0.0247758,-0.00859312,-0.0148422,0.0187113,-6.76167e-05,-1.87669e-05,0.0239339,0.025085270641541868,0.018887453344583305,-6.76144140424606e-05,-0.008556304672645343,-1.8766723902885474e-05,-0.014732597467165376
50,90.37,652.302,48.0033,-5.22129e-05,176.965,-0.742827,-0.197884,0.0256686,-0.00891447,-0.0154057,0.0193919,-7.09044e-05,-1.9682e-05,0.0248984,0.026000875436332782,0.019581144181543886,-7.090188634240047e-05,-0.008874853918497627,-1.9681806310734018e-05,-0.015287639250783136
51,93.46,655.985,48.289,-5.57645e-05,177.992,-0.753743,-0.200777,0.0265604,-0.00923556,-0.0159688,0.0200718,-7.42141e-05,-2.06033e-05,0.0258626,0.026916271131318892,0.02027459311272417,-7.421134620178016e-05,-0.009193043205220186,-2.0603087753423566e-05,-0.015841974693329708
52,96.55,659.564,48.5668,-5.94002e-05,178.989,-0.764288,-0.203571,0.0274513,-0.00955636,-0.0165315,0.0207512,-7.75447e-05,-2.15304e-05,0.0268263,0.027831558491485442,0.02096800319601777,-7.754169348739293e-05,-0.009510843099131416,-2.1530168222594348e-05,-0.016395604635777383
53,99.64,663.044,48.837,-6.31174e-05,179.96,-0.774487,-0.206273,0.0283413,-0.00987689,-0.0170937,0.02143,-8.08951e-05,-2.24629e-05,0.0277896,0.02874673577202347,0.02166127154524533,-8.089182807957673e-05,-0.009828273712857882,-2.246264771099682e-05,-0.016948431612627046
54,102.7,666.432,49.1001,-6.6914e-05,180.904,-0.784361,-0.208889,0.0292305,-0.0101971,-0.0176556,0.0221082,-8.42643e-05,-2.34007e-05,0.0287524,0.029661904193051702,0.022354397231960643,-8.42607498635628e-05,-0.010145285843396468,-2.3400426205744118e-05,-0.01750065312773985
55,105.8,669.732,49.3565,-7.07879e-05,181.825,-0.79393,-0.211424,0.0301187,-0.0105171,-0.018217,0.0227859,-8.76514e-05,-2.43435e-05,0.0297147,0.03057685616637662,0.02304748163208692,-8.764755872825436e-05,-0.010461988676770728,-2.434320369937293e-05,-0.018052073462903273
56,108.9,672.948,49.6065,-7.47369e-05,182.722,-0.803213,-0.213882,0.0310061,-0.0108368,-0.018778,0.023463,-9.10554e-05,-2.5291e-05,0.0306764,0.03149179596728735,0.02374042165026924,-9.105125458286345e-05,-0.010778293414984152,-2.5290680185308112e-05,-0.01860279175876489
57,112.0,676.087,49.8506,-7.87593e-05,183.598,-0.812226,-0.216269,0.0318925,-0.0111562,-0.0193386,0.0241395,-9.44757e-05,-2.6243e-05,0.0316377,0.032406515639099576,0.024433216356903653,-9.447123731154417e-05,-0.011094200375040386,-2.6242655655539515e-05,-0.019152808849509984
58,115.1,679.151,50.0889,-8.28533e-05,184.453,-0.820985,-0.218588,0.0327781,-0.0114753,-0.0198987,0.0248155,-9.79113e-05,-2.71993e-05,0.0325983,0.03332121982057856,0.025125967334610477,-9.790650684504687e-05,-0.011409709873482998,-2.719893010239005e-05,-0.019702027538221367
59,118.2,682.143,50.3218,-8.70173e-05,185.289,-0.829503,-0.220843,0.0336628,-0.0117942,-0.0204583,0.0254908,-0.000101362,-2.81597e-05,0.0335584,0.03423580361023992,0.0258184686971199,-0.00010135686304602043,-0.011724921053910098,-2.8159303519403878e-05,-0.020250448821024447
60,121.3,685.069,50.5495,-9.12498e-05,186.105,-0.837794,-0.223038,0.0345467,-0.0121127,-0.0210175,0.0261656,-0.000104826,-2.9124e-05,0.0345179,0.03515036876957889,0.02651092460814497,-0.00010482050594684544,-0.012039636545452037,-2.912357590045822e-05,-0.020798171612478322
61,124.4,687.93,50.7724,-9.55492e-05,186.904,-0.845869,-0.225175,0.0354296,-0.012431,-0.0215763,0.0268398,-0.000108304,-3.0092e-05,0.0354768,0.03606470660520844,0.027203231623986968,-0.00010829813533352883,-0.012354054286901395,-3.0091547240318484e-05,-0.021345196741126005
62,127.4,690.729,50.9905,-9.99143e-05,187.686,-0.85374,-0.227258,0.0363117,-0.012749,-0.0221346,0.0275134,-0.000111795,-3.10635e-05,0.036435,0.03697902248263696,0.027895388813178768,-0.00011178875117179299,-0.012668075765576825,-3.1063017534527226e-05,-0.021891427223357907
63,130.5,693.47,51.2041,-0.000104344,188.452,-0.861417,-0.22929,0.0371929,-0.0130667,-0.0226924,0.0281864,-0.000115298,-3.20385e-05,0.0373927,0.03789321112960953,0.028587395243894864,-0.00011529135344101604,-0.012981701295852743,-3.2037986772759375e-05,-0.022436864048780092
64,133.6,696.154,51.4135,-0.000108836,189.202,-0.868908,-0.231272,0.0380732,-0.013384,-0.0232498,0.0288589,-0.000118812,-3.30167e-05,0.0383496,0.038807270787697856,0.02927935291188355,-0.00011880494213378778,-0.013294832521135502,-3.301615495476806e-05,-0.02298160590709908
65,136.7,698.785,51.6187,-0.000113391,189.937,-0.876224,-0.233208,0.0389527,-0.0137011,-0.0238067,0.0295307,-0.000122338,-3.3998e-05,0.0393059,0.03972130366939686,0.02997105509791953,-0.0001223305170119371,-0.013607667127194745,-3.399742207454981e-05,-0.023525555973815004
66,139.8,701.364,51.82,-0.000118006,190.658,-0.883372,-0.235099,0.0398313,-0.014018,-0.0243631,0.030202,-0.000125875,-3.49823e-05,0.0402616,0.04063520422452527,0.030662706794124528,-0.00012586707807449304,-0.01392020533318794,-3.498168812643421e-05,-0.024068715233552584
67,142.9,703.893,52.0175,-0.000122681,191.366,-0.89036,-0.236948,0.040709,-0.0143345,-0.0249191,0.0308727,-0.000129422,-3.59695e-05,0.0412165,0.041548970691026366,0.03135420413928425,-0.0001294136253342515,-0.014232250204494257,-3.5968853105305953e-05,-0.024611182208089222
68,146.0,706.376,52.2114,-0.000127415,192.06,-0.897195,-0.238756,0.0415859,-0.0146507,-0.0254746,0.0315428,-0.000132979,-3.69594e-05,0.0421708,0.04246270555192333,0.03204554619976574,-0.00013297015868463102,-0.014543900692440714,-3.695871700981623e-05,-0.02515286023137231
69,149.1,708.812,52.4018,-0.000132207,192.742,-0.903884,-0.240525,0.0424619,-0.0149666,-0.0260296,0.0322124,-0.000136545,-3.79519e-05,0.0431244,0.043376302979237336,0.03273683531526772,-0.00013653567815574696,-0.01485515710867269,-3.7951179835737925e-05,-0.025693750283070638
70,152.2,711.205,52.5889,-0.000137056,193.411,-0.910433,-0.242258,0.0433371,-0.0152823,-0.0265842,0.0328813,-0.00014012,-3.8947e-05,0.0440773,0.044289865636309544,0.033427864073212854,-0.00014011018365123196,-0.015166118247775029,-3.894624157541049e-05,-0.026233950717736598
71,155.3,713.555,52.7727,-0.000141961,194.069,-0.916848,-0.243954,0.0442114,-0.0155976,-0.0271382,0.0335497,-0.000143705,-3.99444e-05,0.0450294,0.04520328751002256,0.034118838155372755,-0.0001436946749310275,-0.015476587422654009,-3.994360223302795e-05,-0.026773267704440107
72,158.3,715.865,52.9535,-0.000146922,194.715,-0.923135,-0.245617,0.0450848,-0.0159127,-0.0276918,0.0342175,-0.000147297,-4.09442e-05,0.0459809,0.04611656683235754,0.03480965335301445,-0.0001472861523295066,-0.015786761879405198,-4.09433617977184e-05,-0.02731189691711655
73,161.4,718.135,53.1312,-0.000151937,195.351,-0.929299,-0.247247,0.0459574,-0.0162274,-0.0282449,0.0348846,-0.000150898,-4.19462e-05,0.0469316,0.04702980653711131,0.03550020518071917,-0.0001508866154693589,-0.01609644505423824,-4.194532027046449e-05,-0.0278497419521756
74,164.5,720.367,53.3061,-0.000157006,195.976,-0.935344,-0.248845,0.0468291,-0.0165419,-0.0287976,0.0355513,-0.000154506,-4.29503e-05,0.0478816,0.04794290033358228,0.036190803352833534,-0.00015449406456258252,-0.0164058340682961,-4.29493776490375e-05,-0.028386900942237836
75,167.6,722.563,53.4781,-0.000162128,196.592,-0.941275,-0.250414,0.0477,-0.0168561,-0.0293497,0.0362173,-0.000158122,-4.39566e-05,0.0488309,0.04885595133583176,0.03688113628321554,-0.00015810949937533625,-0.016714830809301806,-4.395563392278756e-05,-0.0289231804806388
76,170.7,724.724,53.6475,-0.000167303,197.197,-0.947097,-0.251953,0.0485701,-0.01717,-0.0299014,0.0368827,-0.000161745,-4.49647e-05,0.0497794,0.04976895804505688,0.037571306585493014,-0.0001617319199825884,-0.01702343558585706,-4.4963689103005855e-05,-0.029458775804412474
77,173.8,726.85,53.8142,-0.00017253,197.793,-0.952814,-0.253464,0.0494393,-0.0174835,-0.0304526,0.0375476,-0.000165375,-4.59748e-05,0.0507272,0.05068181389306847,0.03826141714907427,-0.00016536132630839973,-0.017331550439274146,-4.597374317505398e-05,-0.029993590718658147
78,176.9,728.943,53.9785,-0.000177808,198.38,-0.95843,-0.254949,0.0503076,-0.0177968,-0.0310033,0.0382119,-0.000169012,-4.69867e-05,0.0516743,0.05159451710482732,0.03895136334874416,-0.0001689977182764979,-0.017639372241718188,-4.698559614224607e-05,-0.030527626188086465
79,180.0,731.005,54.1403,-0.000183136,198.958,-0.963947,-0.256408,0.0511751,-0.0181098,-0.0315535,0.0388756,-0.000172655,-4.80004e-05,0.0526206,0.0525071711548748,0.03964114424706944,-0.00017264009598316754,-0.017946803002782508,-4.7999247999253036e-05,-0.0310608831757081
80,183.1,733.035,54.2997,-0.000188515,199.527,-0.969371,-0.257841,0.0520418,-0.0184226,-0.0321033,0.0395387,-0.000176304,-4.90157e-05,0.0535662,0.053419774539664955,0.04033075890629112,-0.00017628845936301651,-0.01825394120388435,-4.901449875016617e-05,-0.03159345948349557
81,186.2,735.035,54.4569,-0.000193943,200.088,-0.974704,-0.259251,0.0529076,-0.018735,-0.0326526,0.0402013,-0.000179959,-5.00327e-05,0.054511,0.05433222032124174,0.04102031049035393,-0.00017994280835043064,-0.018560590771495966,-5.00314483853348e-05,-0.03212525912405828
82,189.2,737.006,54.6118,-0.000199421,200.641,-0.97995,-0.260638,0.0537726,-0.0190471,-0.0332013,0.0408632,-0.00018362,-5.10513e-05,0.055455,0.055244612244437,0.041709589925731594,-0.00018360314287946267,-0.018866850216843756,-5.1049996904528605e-05,-0.032656186321179836
83,192.3,738.949,54.7646,-0.000204947,201.186,-0.985111,-0.262002,0.0546368,-0.0193589,-0.0337496,0.0415246,-0.000187286,-5.20713e-05,0.0563983,0.05615694880218447,0.04239880454665901,-0.00018726846307182132,-0.019172719845392816,-5.206994431339318e-05,-0.03318643555310874
84,195.4,740.865,54.9153,-0.000210521,201.724,-0.99019,-0.263344,0.0555001,-0.0196705,-0.0342974,0.0421854,-0.000190957,-5.30928e-05,0.0573408,0.05706912277932985,0.04308784931202081,-0.00019093876887243955,-0.01947829801433787,-5.3091390602277855e-05,-0.033715910987150766
85,198.5,742.754,55.064,-0.000216143,202.254,-0.99519,-0.264666,0.0563626,-0.0199817,-0.0348448,0.0428456,-0.000194634,-5.41157e-05,0.0582826,0.05798123819095413,0.04377672328241289,-0.00019461506003171092,-0.01978338889339304,-5.411423577195151e-05,-0.03424471015194064
86,201.6,744.617,55.2107,-0.000221812,202.778,-1.00011,-0.265967,0.0572243,-0.0202927,-0.0353916,0.0435053,-0.000198315,-5.514e-05,0.0592236,0.05889329352650918,0.04446552996466546,-0.0001982953368802054,-0.02008818886059538,-5.5138479818084285e-05,-0.034772640795037835
87,204.7,746.455,55.3555,-0.000227528,203.294,-1.00496,-0.267248,0.0580851,-0.0206033,-0.035938,0.0441643,-0.000202001,-5.61655e-05,0.0601638,0.059805181293764775,0.045154059594507245,-0.00020198059917164723,-0.020392502206826202,-5.616392274787607e-05,-0.035299896964604116
88,207.8,748.269,55.4984,-0.00023329,203.803,-1.00974,-0.268511,0.0589451,-0.0209137,-0.0364838,0.0448228,-0.000205692,-5.71923e-05,0.0611033,0.06071700577800665,0.04584252019352486,-0.00020567084685085835,-0.020696525187333448,-5.7190664551565185e-05,-0.035826286616037484
89,210.9,750.059,55.6395,-0.000239099,204.306,-1.01445,-0.269755,0.0598043,-0.0212238,-0.0370292,0.0454807,-0.000209387,-5.82203e-05,0.0620419,0.06162876546524276,0.04653080637447338,-0.00020936508007196597,-0.021000160113844424,-5.8218605231252774e-05,-0.03635200358326829
90,214.0,751.826,55.7789,-0.00024496,204.803,-1.01909,-0.270981,0.0606627,-0.0215336,-0.0375741,0.046138,-0.000213087,-5.92495e-05,0.0629798,0.06254045884033266,0.04721891719635041,-0.00021306429857759213,-0.021303407288828402,-5.924774478305306e-05,-0.03687695234123789
91,217.1,753.57,55.9165,-0.000250859,205.294,-1.02367,-0.27219,0.0615202,-0.0218431,-0.0381185,0.0467948,-0.00021679,-6.02797e-05,0.063917,0.06345197804179192,0.04790695650854104,-0.00021676650274593534,-0.02160626701431234,-6.0277883215387185e-05,-0.03740113383323507
92,220.1,755.293,56.0525,-0.000256803,205.778,-1.02818,-0.273383,0.0623769,-0.0221523,-0.0386625,0.047451,-0.000220497,-6.13111e-05,0.0648533,0.06436342771510262,0.04859481871630966,-0.00022047269232305933,-0.02190873959188122,-6.130922051295062e-05,-0.03792464520842531
93,223.2,756.994,56.1869,-0.000262792,206.256,-1.03263,-0.274559,0.0632328,-0.0224612,-0.0392059,0.0481066,-0.000224208,-6.23434e-05,0.0657889,0.06527480634173033,0.049282502877696865,-0.00022418286726466619,-0.02221082532267804,-6.234145669059554e-05,-0.038447294939426335
94,226.3,758.674,56.3197,-0.000268825,206.729,-1.03702,-0.275719,0.0640879,-0.0227698,-0.0397489,0.0487616,-0.000227923,-6.33768e-05,0.0667237,0.06618611240201067,0.049970008050445935,-0.00022789702752623597,-0.02251252450740504,-6.337479173301741e-05,-0.0389692763275018
95,229.4,760.334,56.4509,-0.000274902,207.196,-1.04136,-0.276864,0.0649422,-0.0230782,-0.0402913,0.0494161,-0.000231641,-6.44111e-05,0.0676577,0.0670973443751528,0.05065743835774361,-0.00023161417329486955,-0.022813935164934573,-6.440902564963658e-05,-0.03949039805103449
96,232.5,761.974,56.5806,-0.000281023,207.658,-1.04564,-0.277994,0.0657956,-0.0233862,-0.0408333,0.05007,-0.000235363,-6.54464e-05,0.0685909,0.06800839393839864,0.05134468792844471,-0.0002353353043019757,-0.023114862127772584,-6.544425843102442e-05,-0.04001085319920461
97,235.6,763.596,56.7089,-0.000287188,208.114,-1.04986,-0.27911,0.0666483,-0.023694,-0.0413749,0.0507233,-0.000239088,-6.64825e-05,0.0695233,0.06891947307929791,0.05203175581935793,-0.00023905942074176068,-0.023415501102497793,-6.648029008760048e-05,-0.04053064254945005
98,238.7,765.198,56.8357,-0.000293395,208.566,-1.05403,-0.280212,0.0675001,-0.0240015,-0.0419159,0.051376,-0.000242816,-6.75195e-05,0.070455,0.06983036658093345,0.052718641087003304,-0.00024278652258091782,-0.023715754669557,-6.751722060982512e-05,-0.041049575087922285
99,241.8,766.782,56.9612,-0.000299645,209.012,-1.05815,-0.2813,0.0683511,-0.0243087,-0.0424564,0.0520282,-0.000246547,-6.85573e-05,0.0713859,0.07074117971891614,0.053405448128150956,-0.0002465166097859184,-0.024015623127568997,-6.855495000201994e-05,-0.04156774774381211
100,244.9,768.348,57.0852,-0.000305938,209.453,-1.06222,-0.282374,0.0692014,-0.0246156,-0.0429965,0.0526798,-0.000250281,-6.95959e-05,0.0723159,0.07165201813210409,0.05409207079552214,-0.00025024968232323364,-0.024315106774714934,-6.95934782615204e-05,-0.04208525723723677
101,248.0,769.896,57.208,-0.000312274,209.889,-1.06624,-0.283436,0.0700508,-0.0249222,-0.0435361,0.0533308,-0.000254017,-7.06353e-05,0.0732452,0.07256266605372619,0.054778508144724514,-0.00025398474041338215,-0.02461420590873764,-7.063280538588401e-05,-0.04260200860037522
102,251.0,771.427,57.3294,-0.000318651,210.321,-1.07021,-0.284485,0.0708994,-0.0252285,-0.0440752,0.0539813,-0.000257757,-7.16754e-05,0.0741738,0.07347322902936715,0.05546486477756485,-0.0002577237835184043,-0.02491292082694252,-7.167283137987646e-05,-0.04311800275881672
103,254.1,772.942,57.4496,-0.000325071,210.748,-1.07413,-0.285522,0.0717472,-0.0255346,-0.0446138,0.0546312,-0.000261499,-7.27162e-05,0.0751015,0.07438370552939166,0.05615103433983171,-0.0002614648121165297,-0.02521134930506863,-7.271355624116627e-05,-0.04363324063651486
104,257.2,774.44,57.5685,-0.000331532,211.17,-1.07802,-0.286547,0.0725942,-0.0258403,-0.0451519,0.0552805,-0.000265243,-7.37577e-05,0.0760284,0.07529409402307574,0.05683701588623724,-0.0002652078261853319,-0.025509296652013735,-7.375497996775504e-05,-0.044147723155792296
105,260.3,775.922,57.6862,-0.000338035,211.588,-1.08185,-0.287561,0.0734404,-0.0261458,-0.0456896,0.0559293,-0.00026899,-7.47998e-05,0.0769546,0.07620439297860693,0.05752291422350453,-0.00026895382543346,-0.02580695809178657,-7.479700256474153e-05,-0.04466154677119294
106,263.4,777.389,57.8027,-0.000344579,212.002,-1.08565,-0.288563,0.0742858,-0.026451,-0.0462268,0.0565775,-0.00027274,-7.58426e-05,0.0778799,0.07711460086309363,0.05820862279064176,-0.00027270280982727435,-0.026104236441193307,-7.583972402269712e-05,-0.04517461676532808
107,266.5,778.84,57.918,-0.000351164,212.411,-1.0894,-0.289554,0.0751304,-0.0267559,-0.0467635,0.0572252,-0.000276491,-7.6886e-05,0.0788045,0.07802471614256246,0.05889424653090214,-0.0002764527798859717,-0.026401131995475113,-7.688304434727566e-05,-0.045686934055867656
108,269.6,780.276,58.0322,-0.000357791,212.817,-1.09311,-0.290534,0.0759743,-0.0270605,-0.0472997,0.0578722,-0.000280245,-7.79299e-05,0.0797283,0.07893484517544724,0.059579572787544555,-0.00028020573503795276,-0.0266976450494385,-7.792686354424205e-05,-0.04619849955885891
109,272.7,781.698,58.1453,-0.000364458,213.218,-1.09678,-0.291504,0.0768173,-0.0273648,-0.0478354,0.0585187,-0.000284,-7.89744e-05,0.0806513,0.07984477072966434,0.060264812461209516,-0.00028395967581740233,-0.02699377589745644,-7.897128160416766e-05,-0.0467093141887307
110,275.8,783.105,58.2573,-0.000371165,213.616,-1.10042,-0.292463,0.0776595,-0.0276689,-0.0483707,0.0591647,-0.000287758,-8.00195e-05,0.0815735,0.08075459907050897,0.060949964810441015,-0.00028771660163773305,-0.027289622104510358,-8.001629852516512e-05,-0.047219474136353634
111,278.9,784.499,58.3683,-0.000377913,214.009,-1.10401,-0.293413,0.078501,-0.0279726,-0.0489055,0.0598101,-0.000291518,-8.10651e-05,0.082495,0.08166443682617275,0.061634922929938885,-0.00029147551275654493,-0.027584989392484216,-8.106181431355441e-05,-0.047728884932996984
112,281.9,785.878,58.4781,-0.000384701,214.399,-1.10757,-0.294353,0.0793416,-0.0282761,-0.0494398,0.0604549,-0.000295279,-8.21111e-05,0.0834156,0.08257406621543861,0.06231968587209158,-0.00029523540944664806,-0.027880072567066705,-8.210772897587759e-05,-0.04823754748847453
113,285.0,787.244,58.587,-0.000391529,214.785,-1.11109,-0.295283,0.0801815,-0.0285793,-0.0499736,0.0610991,-0.000299042,-8.31576e-05,0.0843355,0.0834837021217778,0.06300425268902798,-0.00029899729139781783,-0.02817477464997109,-8.315414250259501e-05,-0.04874546271099178
114,288.1,788.597,58.6948,-0.000398398,215.167,-1.11458,-0.296204,0.0810206,-0.0288822,-0.0505069,0.0617429,-0.000302807,-8.42046e-05,0.0852545,0.08439323483731309,0.06368883517036439,-0.00030276115858751673,-0.02846909593352087,-8.420105489215235e-05,-0.049252631507148203
115,291.2,789.937,58.8017,-0.000405306,215.546,-1.11804,-0.297116,0.0818589,-0.0291849,-0.0510398,0.062386,-0.000306573,-8.52521e-05,0.0861728,0.08530266281955767,0.06437311346636476,-0.0003065260112997681,-0.028763133833300536,-8.52484661429953e-05,-0.04975914980603058
116,294.3,791.264,58.9076,-0.000412253,215.921,-1.12146,-0.298019,0.0826964,-0.0294872,-0.0515722,0.0630286,-0.000310341,-8.62999e-05,0.0870903,0.08621198452498313,0.06505729943448624,-0.00031029284921313405,-0.02905669436403291,-8.629617627076147e-05,-0.05026492338580002
117,297.4,792.578,59.0125,-0.00041924,216.293,-1.12484,-0.298914,0.0835332,-0.0297893,-0.0521042,0.0636706,-0.000314111,-8.73481e-05,0.088007,0.08712130712114607,0.0657412857568398,-0.00031406167230485504,-0.02934997203484291,-8.734428526580018e-05,-0.05077004807147889
118,300.5,793.881,59.1165,-0.000426267,216.661,-1.1282,-0.2998,0.0843691,-0.0300911,-0.0526356,0.0643121,-0.000317882,-8.83967e-05,0.0889229,0.08803041172910486,0.06642517812667736,-0.0003178314808702787,-0.029642870012754785,-8.839279312677917e-05,-0.05127433486706512
119,303.6,795.171,59.2196,-0.000433333,217.026,-1.13152,-0.300677,0.0852043,-0.0303926,-0.0531666,0.064953,-0.000321654,-8.94457e-05,0.0898381,0.08893951431737568,0.06710886908870539,-0.0003216022748981917,-0.02993538858805478,-8.944169985258821e-05,-0.051777974467103194
120,306.7,796.45,59.3218,-0.000440438,217.388,-1.13482,-0.301547,0.0860387,-0.0306939,-0.0536971,0.0655934,-0.000325428,-9.04951e-05,0.0907524,0.0898485046261408,0.06779246447234888,-0.00032537505405205724,-0.030227625027842597,-9.049100544189503e-05,-0.05228087284605887
121,309.0,797.408,59.3985,-0.000448997,217.659,-1.13729,-0.302199,0.0866686,-0.0309213,-0.0540976,0.0660768,-0.000328279,-9.12878e-05,0.0914427,0.09053521645638973,0.06830876012828102,-0.0003282251223449828,-0.03044812619397863,-9.128363339550027e-05,-0.05266035835943761
