,Time,S11,S22,S33,S12,S13,S23,LE11,LE22,LE33,LE12,LE13,LE23,SDV_EPBAR,E11,E12,E13,E22,E23,E33
0,0.000309,0.0019383,0.000139163,-7.79048e-12,0.000519365,9.3624e-20,3.36396e-20,9.1292e-09,-2.12864e-09,-3.00057e-09,6.49972e-09,9.45271e-25,4.67314e-25,0.0,9.129200062574228e-09,6.499720095476391e-09,0.0,-2.128640042009522e-09,0.0,-3.0005700146773506e-09
1,0.000618,0.00387659,0.000278327,3.25261e-19,0.00103873,3.61973e-20,-7.40724e-21,1.82584e-08,-4.2578e-09,-6.00057e-09,1.29997e-08,9.27189e-26,4.52981e-25,0.0,1.8258400125148455e-08,1.2999699983140545e-08,0.0,-4.257800001461476e-09,0.0,-6.000569929831556e-09
2,0.0010815,0.00678404,0.000487072,3.25261e-19,0.00181778,-8.55315e-21,3.19208e-20,3.19522e-08,-7.45077e-09,-1.05014e-08,2.27493e-08,2.14063e-25,-7.98907e-25,0.0,3.19522004410544e-08,2.2749300221391877e-08,0.0,-7.45077000097183e-09,0.0,-1.0501399971829528e-08
3,0.0017767,0.0111452,0.00080019,7.58942e-19,0.00298635,8.55315e-21,-3.19208e-20,5.24927e-08,-1.22421e-08,-1.72507e-08,3.73747e-08,4.28159e-25,-1.59792e-24,0.0,5.249270129681349e-08,3.737470066766946e-08,0.0,-1.2242099889370195e-08,0.0,-1.725069986857619e-08
4,0.0028196,0.017687,0.00126987,-2.27682e-18,0.00473921,-1.65988e-27,-4.44764e-28,8.33037e-08,-1.94275e-08,-2.73762e-08,5.93119e-08,1.2845e-24,-4.79383e-24,0.0,8.33037034908557e-08,5.931190183439128e-08,0.0,-1.9427499831081718e-08,0.0,-2.7376199640549714e-08
5,0.0043839,0.0274996,0.00197438,-4.01155e-18,0.00736849,1.71063e-20,-6.38416e-20,1.2952e-07,-3.02058e-08,-4.25643e-08,9.22178e-08,-1.48338e-24,-7.24799e-24,0.0,1.295200084960868e-07,9.221780428170234e-08,0.0,-3.0205799528282284e-08,0.0,-4.256429908533477e-08
6,0.0067304,0.0422185,0.00303115,-4.01155e-18,0.0113124,1.74418e-19,1.1516e-19,1.98845e-07,-4.63759e-08,-6.53437e-08,1.41578e-07,3.19598e-24,8.5636e-25,0.0,1.9884501978317815e-07,1.4157800998226833e-07,0.0,-4.637589889888716e-08,0.0,-6.534369789701344e-08
7,0.01025,0.0642969,0.00461631,8.13152e-18,0.0172283,2.08631e-19,-1.25227e-20,3.02832e-07,-7.06269e-08,-9.95172e-08,2.15616e-07,2.29126e-25,-1.36391e-23,0.0,3.0283204588421597e-07,2.156160232580362e-07,0.0,-7.062689755255036e-08,0.0,-9.951719504019962e-08
8,0.01553,0.0974145,0.00699405,2.92735e-18,0.0261021,-1.49373e-19,3.02101e-19,4.58812e-07,-1.07003e-07,-1.50778e-07,3.26673e-07,-3.42531e-24,1.27835e-23,0.0,4.5881210519738147e-07,3.266730532747175e-07,0.0,-1.0700299424293291e-07,0.0,-1.5077798865004155e-07
9,0.023449,0.147091,0.0105607,6.39679e-18,0.0394129,6.16725e-19,5.07377e-19,6.92782e-07,-1.61575e-07,-2.2766e-07,4.93263e-07,1.27839e-23,3.42544e-24,0.0,6.927822400193406e-07,4.932631216814087e-07,0.0,-1.6157498694546746e-07,0.0,-2.2765997409468497e-07
10,0.035328,0.221605,0.0159106,-7.48099e-18,0.059379,8.22001e-19,-2.58722e-19,1.04374e-06,-2.43427e-07,-3.4299e-07,7.43145e-07,1.27839e-23,3.42544e-24,0.0,1.0437405446594994e-06,7.43145276205226e-07,0.0,-2.4342697035883987e-07,0.0,-3.429899412266124e-07
11,0.053146,0.333377,0.0239354,-3.52366e-17,0.0893282,1.43291e-18,1.54718e-18,1.57017e-06,-3.66206e-07,-5.15985e-07,1.11797e-06,-4.82329e-29,-1.2924e-29,0.0,1.570171232812001e-06,1.1179706249642152e-06,0.0,-3.662059329112566e-07,0.0,-5.159848668334632e-07
12,0.079874,0.501035,0.0359727,-2.13588e-17,0.134252,1.15921e-18,2.56864e-18,2.35982e-06,-5.50367e-07,-7.75483e-07,1.6802e-06,-4.1105e-23,1.53406e-22,0.0,2.3598227842924757e-06,1.6802014115580022e-06,0.0,-5.503668485395963e-07,0.0,-7.754826992778519e-07
13,0.12,0.752521,0.0540286,-7.48099e-18,0.201637,2.25401e-18,-1.51722e-18,3.54429e-06,-8.26616e-07,-1.16472e-06,2.52354e-06,-1.0888e-28,-2.91744e-29,0.0,3.544296280910686e-06,2.523543184196342e-06,0.0,-8.266156583669471e-07,0.0,-1.1647193217667606e-06
14,0.1801,1.12975,0.0811124,2.02746e-17,0.302715,9.8783e-18,2.71531e-18,5.321e-06,-1.241e-06,-1.74857e-06,3.78857e-06,1.53406e-22,4.11051e-23,0.0,5.321014156622894e-06,3.788577176644381e-06,0.0,-1.2409992299344808e-06,0.0,-1.7485684712381655e-06
15,0.2703,1.69559,0.121738,-7.48099e-18,0.454332,-5.51699e-18,2.96936e-18,7.98605e-06,-1.86256e-06,-2.62435e-06,5.6861e-06,6.26956e-28,1.67992e-28,0.0,7.986081888677887e-06,5.686116165914967e-06,0.0,-1.862558265397496e-06,0.0,-2.6243465564013135e-06
16,0.4056,2.54435,0.182676,4.92119e-16,0.681756,-3.36327e-19,-2.16935e-20,1.19836e-05,-2.79488e-06,-3.93804e-06,8.53236e-06,2.19228e-22,-8.18169e-22,0.0,1.1983671803550422e-05,8.532396400751097e-06,0.0,-2.7948760943363737e-06,0.0,-3.938032245964784e-06
17,0.6086,3.81748,0.274083,3.81097e-16,1.02289,-3.36325e-19,-2.16927e-20,1.79799e-05,-4.19337e-06,-5.90853e-06,1.28018e-05,9.49301e-23,4.63893e-22,0.0,1.79800616393333e-05,1.2801881943413917e-05,0.0,-4.1933612078270954e-06,0.0,-5.908512544672284e-06
18,0.913,5.72716,0.411192,4.92119e-16,1.53459,3.23501e-17,8.73662e-18,2.69743e-05,-6.2911e-06,-8.86425e-06,1.92058e-05,4.09074e-22,1.09611e-22,0.0,2.697466380974234e-05,1.920598443261312e-05,0.0,-6.291080211107136e-06,0.0,-8.864210712666853e-06
19,1.37,8.59165,0.616853,-1.28424e-15,2.30213,-3.36733e-19,-2.18022e-20,4.04657e-05,-9.43765e-06,-1.32978e-05,2.88117e-05,4.38461e-22,-1.63636e-21,0.0,4.0466518747450664e-05,2.8812115061116472e-05,0.0,-9.4376054655676e-06,0.0,-1.3297711584647764e-05
20,2.055,12.8883,0.925338,-5.059e-15,3.45341,6.94144e-17,1.1511e-18,6.07025e-05,-1.41574e-05,-1.99479e-05,4.32204e-05,-7.0378e-26,-1.88577e-26,0.0,6.070434243410361e-05,4.322133401490902e-05,0.0,-1.4157299784489652e-05,0.0,-1.994770104196686e-05
21,3.082,19.3331,1.38805,-2.81516e-14,5.18029,7.817e-17,-3.15365e-17,9.10568e-05,-2.12368e-05,-2.99229e-05,6.48327e-05,8.76832e-22,-3.2728e-21,0.0,9.106094579625079e-05,6.483480168495426e-05,0.0,-2.123657450070482e-05,0.0,-2.992245231447921e-05
22,4.623,116.413,8.35811,-1.03265e-09,31.1929,9.83292e-16,7.71529e-16,0.000548295,-0.000127877,-0.000180179,0.000390388,3.49743e-21,-1.3096e-20,0.0,0.0005484453411794821,0.0003904642113123913,0.0,-0.00012786882408488687,0.0,-0.00018016276873877857
23,6.935,262.609,18.8545,-9.04826e-07,70.3658,1.26247e-15,-2.74743e-16,0.00123686,-0.000288468,-0.000406453,0.000880648,1.40118e-20,-5.23908e-20,0.0,0.0012376252267900512,0.0008810358843047705,0.0,-0.0002884263971069112,0.0,-0.00040637040916957634
24,10.03,446.388,32.0869,0.00286139,119.684,-0.0112664,-0.00301715,0.00215605,-0.000511046,-0.000723732,0.00153868,-1.45382e-07,-3.89874e-08,5.91306e-05,0.0021583759471202058,0.0015398643754516161,-1.453819894470243e-07,-0.0005109154382348935,-3.898739919794281e-08,-0.0007234701691649637
25,13.12,467.964,33.7807,0.000115521,125.731,-0.115398,-0.0308791,0.00307229,-0.000850788,-0.00125543,0.0022351,-2.08553e-06,-5.66112e-07,0.000957146,0.0030770143198433075,0.0022375996980166235,-2.0855278253240073e-06,-0.0008504261825067472,-5.661118397393139e-07,-0.001254642277435547
26,16.21,485.729,35.1739,8.85992e-05,130.711,-0.200431,-0.0536065,0.00398746,-0.00119287,-0.00179163,0.00293205,-4.23674e-06,-1.15495e-06,0.00187401,0.003995420495828572,0.0029363526627810277,-4.2367310250090995e-06,-0.001192158813393962,-1.1549493330598182e-06,-0.0017900259890457626
27,19.3,500.874,36.3609,3.60644e-05,134.955,-0.27153,-0.0725939,0.0049016,-0.00153641,-0.00233078,0.00362923,-6.57374e-06,-1.79768e-06,0.00280353,0.004913632492735909,0.0036358236293825286,-6.573718392965944e-06,-0.0015352303263873601,-1.7976783841522348e-06,-0.002328065841407434
28,22.39,514.101,37.3972,1.45882e-05,138.661,-0.332307,-0.0888127,0.00581471,-0.0018809,-0.00287193,0.00432648,-9.0761e-06,-2.48807e-06,0.00374204,0.005831648240596676,0.004335852726691902,-9.076058812285126e-06,-0.0018791322161102464,-2.4880669047266935e-06,-0.002867809954142375
29,25.48,525.865,38.3182,4.60735e-06,141.955,-0.38519,-0.102916,0.0067268,-0.00222603,-0.00341448,0.00502366,-1.17253e-05,-3.22055e-06,0.00468717,0.0067494757356514334,0.005036299736947525,-1.1725231258918889e-05,-0.002223554232604341,-3.2205448140532056e-06,-0.0034086572922231717
30,28.57,536.471,39.1482,-9.40199e-07,144.925,-0.431871,-0.115359,0.00763789,-0.00257156,-0.00395802,0.00572068,-1.45049e-05,-3.9903e-06,0.00563733,0.007667133086239453,0.005737074337174297,-1.4504794804470755e-05,-0.0025682563720157425,-3.99029203879131e-06,-0.003950197362961094
31,31.66,546.139,39.9046,-4.6634e-06,147.631,-0.473566,-0.126466,0.00854799,-0.00291735,-0.00450226,0.00641746,-1.74009e-05,-4.79318e-06,0.00659138,0.008584628386969051,0.006438096016411432,-1.7400748605234106e-05,-0.0029130986696996874,-4.793168512762236e-06,-0.00449214002073528
32,34.75,555.031,40.5999,-7.64277e-06,150.12,-0.511176,-0.136481,0.00945711,-0.00326329,-0.00504698,0.00711396,-2.0401e-05,-5.62567e-06,0.00754847,0.009501969767844454,0.007139324324697327,-2.0400791901020732e-05,-0.0032579712562953445,-5.625654175944739e-06,-0.005034265395551296
33,37.84,563.268,41.244,-1.03608e-05,152.425,-0.545385,-0.145587,0.0103652,-0.00360928,-0.00559202,0.00781013,-2.34949e-05,-6.48474e-06,0.00850798,0.010419104769108234,0.00784070862113806,-2.3494623996977992e-05,-0.003602774378164586,-6.484718974131276e-06,-0.005576413759846521
34,40.93,570.947,41.8442,-1.30442e-05,154.574,-0.576721,-0.153925,0.0112724,-0.00395528,-0.00613725,0.00850593,-2.66735e-05,-7.36778e-06,0.0094694,0.011336172900162422,0.00854220820960161,-2.667314426541001e-05,-0.003947468182762814,-7.367752857923016e-06,-0.00611845554962176
35,44.02,578.141,42.4065,-1.58025e-05,156.587,-0.605605,-0.161608,0.0121786,-0.00430123,-0.00668258,0.00920134,-2.99289e-05,-8.27254e-06,0.0104323,0.012253061119350761,0.009243802466169626,-2.9928452134897476e-05,-0.004291992958535662,-8.272505782613848e-06,-0.006660301216480091
36,47.11,584.913,42.9357,-1.86888e-05,158.482,-0.63237,-0.168724,0.0130839,-0.00464708,-0.00722793,0.00989632,-3.32543e-05,-9.19706e-06,0.0113965,0.01316986874593895,0.009945450511445797,-3.325374708185169e-05,-0.004636299030211788,-9.197017707185395e-06,-0.007201871335157262
37,50.2,591.313,43.4357,-2.17273e-05,160.272,-0.65729,-0.175349,0.0139882,-0.00499281,-0.00777322,0.0105909,-3.66436e-05,-1.01396e-05,0.0123616,0.014086492647278348,0.010647182098612928,-3.6642928631480665e-05,-0.0049803666418730685,-1.013954859441224e-05,-0.007743086653675957
38,53.29,597.381,43.9099,-2.4928e-05,161.97,-0.680588,-0.18154,0.0148915,-0.00533839,-0.0083184,0.0112849,-4.00917e-05,-1.10987e-05,0.0133274,0.015002930823074356,0.01134881468133453,-4.009089633849605e-05,-0.005324166118235829,-1.1098638409645645e-05,-0.008283897844576393
39,56.38,603.152,44.3608,-2.82927e-05,163.584,-0.702453,-0.18735,0.015794,-0.00568379,-0.00886344,0.0119785,-4.35938e-05,-1.2073e-05,0.0142938,0.01591938445563934,0.012050529545780675,-4.359284980415268e-05,-0.0056676678250988655,-1.2072927121575816e-05,-0.008824275511795987
40,59.47,608.656,44.7909,-3.18194e-05,165.124,-0.723041,-0.192818,0.0166954,-0.006029,-0.00940828,0.0126717,-4.71458e-05,-1.30614e-05,0.0152606,0.016835547041231358,0.012752326187475127,-4.7144688654188194e-05,-0.006010862049041776,-1.306131470024674e-05,-0.00936416060467371
41,62.56,613.918,45.2021,-3.5504e-05,166.596,-0.742485,-0.197982,0.017596,-0.006374,-0.0099529,0.0133643,-5.07439e-05,-1.40626e-05,0.0162277,0.01775172162638805,0.013454001410673211,-5.074261255011425e-05,-0.006353729153658505,-1.4062501122125148e-05,-0.009903533805476705
42,65.65,618.96,45.5962,-3.93414e-05,168.007,-0.760899,-0.202871,0.0184956,-0.00671878,-0.0104973,0.0140564,-5.43847e-05,-1.50759e-05,0.017195,0.01866770302182119,0.014155655704510162,-5.438322117901073e-05,-0.006696259462727783,-1.5075786359175503e-05,-0.010442395630175905
43,68.74,623.801,45.9745,-4.33262e-05,169.361,-0.778381,-0.207512,0.0193943,-0.00706333,-0.0110414,0.014748,-5.80654e-05,-1.61004e-05,0.0181623,0.019583591179226367,0.014857288352598585,-5.806371423733303e-05,-0.007038443313421849,-1.6100270389229898e-05,-0.010980667472579309
44,71.83,628.456,46.3384,-4.74578e-05,170.664,-0.795017,-0.211927,0.0202921,-0.00740764,-0.0115852,0.015439,-6.17831e-05,-1.71352e-05,0.0191296,0.020499384365434192,0.01555879708220309,-6.178119146360572e-05,-0.0073802710562725915,-1.7135053193340077e-05,-0.01151834997648471
45,74.92,632.941,46.689,-5.17207e-05,171.919,-0.81088,-0.216137,0.0211889,-0.00775169,-0.0121287,0.0161296,-6.55354e-05,-1.81798e-05,0.0200968,0.021414978704470844,0.016260384217622326,-6.5533252602612e-05,-0.007721723132354197,-1.8179634748483053e-05,-0.01205544378480905
46,78.01,637.269,47.0274,-5.61152e-05,173.13,-0.826036,-0.220158,0.0220849,-0.00809549,-0.0126718,0.0168195,-6.932e-05,-1.92333e-05,0.0210638,0.022330576652015877,0.016961744162988568,-6.93175974243454e-05,-0.008062809767788948,-1.9233115041261684e-05,-0.012591850798780002
47,81.1,641.45,47.3544,-6.06364e-05,174.3,-0.840542,-0.224006,0.0229799,-0.00843902,-0.0132146,0.017509,-7.31349e-05,-2.02954e-05,0.0220307,0.023245972096475942,0.017663181078176216,-7.313222570837219e-05,-0.00840351142677842,-2.0295194049779752e-05,-0.013127670507541933
48,84.19,645.495,47.6708,-6.52796e-05,175.432,-0.854449,-0.227695,0.023874,-0.00878228,-0.0137571,0.0181979,-7.69782e-05,-2.13654e-05,0.0229972,0.024161265441042357,0.018364490782012854,-7.697523725436195e-05,-0.008743828425497924,-2.136517176143382e-05,-0.013662903551201366
49,87.28,649.413,47.9773,-7.00405e-05,176.529,-0.867802,-0.231236,0.0247672,-0.00912527,-0.0142992,0.0188862,-8.08483e-05,-2.24429e-05,0.0239635,0.025076454946121984,0.019065672344970475,-8.084503186422953e-05,-0.009083761079703323,-2.2442648159981538e-05,-0.014197451988741672
50,90.37,653.213,48.2746,-7.49153e-05,177.593,-0.880641,-0.234641,0.0256595,-0.00946797,-0.0148409,0.019574,-8.47433e-05,-2.35273e-05,0.0249294,0.02599153887084782,0.01976682681378983,-8.473970938793762e-05,-0.009423289893196074,-2.3527023235270228e-05,-0.014731316618709633
51,93.46,656.901,48.5632,-7.99001e-05,178.625,-0.893004,-0.237919,0.0265509,-0.0098104,-0.0153822,0.0202612,-8.86621e-05,-2.46184e-05,0.025895,0.026906515473082537,0.020467851421643868,-8.865816963210538e-05,-0.009762435005993608,-2.4618096969630798e-05,-0.015264498238399704
52,96.55,660.485,48.8438,-8.49916e-05,179.629,-0.904922,-0.241079,0.0274414,-0.0101525,-0.0159231,0.0209479,-9.26031e-05,-2.57157e-05,0.0268601,0.02782138300942516,0.021168847354621878,-9.259881246526103e-05,-0.010101137338640598,-2.5715369354251116e-05,-0.015796997643855448
53,99.64,663.97,49.1166,-9.01865e-05,180.605,-0.916425,-0.244128,0.028331,-0.0104944,-0.0164637,0.0216339,-9.65651e-05,-2.68189e-05,0.0278248,0.028736139735214605,0.021869609517847888,-9.656043774075584e-05,-0.010439525908962355,-2.681854037656084e-05,-0.01632891399698455
54,102.7,667.362,49.3823,-9.54817e-05,181.555,-0.92754,-0.247074,0.0292198,-0.0108359,-0.0170038,0.0223195,-0.000100547,-2.79276e-05,0.028789,0.029650886869619697,0.02257044354058424,-0.00010054194531972094,-0.010777403115047601,-2.79272100282002e-05,-0.016860051303993595
55,105.8,670.667,49.6412,-0.000100874,182.48,-0.93829,-0.249924,0.0301076,-0.0111772,-0.0175435,0.0230044,-0.000104548,-2.90415e-05,0.0297526,0.030565416826761727,0.023271041929896708,-0.0001045425350482132,-0.011114967178780355,-2.904107829970748e-05,-0.01739050877747983
56,108.9,673.889,49.8936,-0.000106362,183.383,-0.9487,-0.252683,0.0309945,-0.0115182,-0.0180828,0.0236888,-0.000108566,-3.01604e-05,0.0307158,0.031479830731852676,0.023971608337472583,-0.00010856010692505969,-0.011452119487236678,-3.0159945179741854e-05,-0.017920287208501806
57,112.0,677.031,50.14,-0.000111942,184.263,-0.958788,-0.255356,0.0318806,-0.0118588,-0.0186216,0.0243726,-0.000112601,-3.1284e-05,0.0316784,0.03239423007466269,0.024672039573400806,-0.00011259466074531321,-0.011788761561939642,-3.1283510660728986e-05,-0.01844928923181144
58,115.1,680.1,50.3805,-0.000117612,185.123,-0.968572,-0.257949,0.0327657,-0.0121992,-0.0191601,0.0250558,-0.000116653,-3.2412e-05,0.0326405,0.03330840671689428,0.0253723347044148,-0.00011664619630336048,-0.012125091420914225,-3.241147473675987e-05,-0.018977711998960478
59,118.2,683.097,50.6155,-0.00012337,185.963,-0.978071,-0.260465,0.03365,-0.0125392,-0.0196981,0.0257384,-0.000120719,-3.35442e-05,0.033602,0.0342225654766779,0.026072492796854974,-0.00012071171375471756,-0.012460911797132268,-3.354363739960231e-05,-0.019505360039854924
60,121.3,686.026,50.8453,-0.000129213,186.784,-0.9873,-0.262911,0.0345334,-0.012879,-0.0202356,0.0264205,-0.0001248,-3.46804e-05,0.0345628,0.03513660136122776,0.02677261559392674,-0.00012479221280392583,-0.012796420573134126,-3.4679798641912285e-05,-0.02003223429869172
61,124.4,688.891,51.0701,-0.000135141,187.587,-0.996273,-0.265288,0.035416,-0.0132184,-0.0207728,0.0271019,-0.000128894,-3.58205e-05,0.0355231,0.036050616221013465,0.02747249687666553,-0.00012888569352520474,-0.013131420615268619,-3.581985845357849e-05,-0.020558531606312935
62,127.4,691.695,51.2902,-0.00014115,188.373,-1.005,-0.267601,0.0362976,-0.0135576,-0.0213095,0.0277828,-0.000133001,-3.69641e-05,0.0364828,0.03696440118150024,0.028172341134727663,-0.00013299215575901524,-0.013466109670923099,-3.696341683612214e-05,-0.021084056805098172
63,130.5,694.439,51.5056,-0.000147239,189.143,-1.01351,-0.269853,0.0371784,-0.0138964,-0.0218457,0.0284631,-0.000137121,-3.81111e-05,0.0374418,0.037878161787156195,0.028872044755602566,-0.00013711159934526318,-0.013800290739497179,-3.8110373781208295e-05,-0.021608810834711112
64,133.6,697.128,51.7168,-0.000153408,189.897,-1.02179,-0.272047,0.0380583,-0.014235,-0.0223815,0.0291428,-0.000141252,-3.92614e-05,0.0384001,0.038791792674675474,0.02957160680365223,-0.0001412420244059076,-0.014134161433554171,-3.926062928127916e-05,-0.022132892419871375
65,136.7,699.762,51.9237,-0.000159653,190.636,-1.02986,-0.274185,0.0389373,-0.0145732,-0.0229168,0.029822,-0.000145395,-4.04148e-05,0.0393578,0.03970529208460971,0.030271129369965344,-0.00014538443065914564,-0.014467524885220406,-4.041398333298751e-05,-0.022656204605556507
66,139.8,702.345,52.1267,-0.000165973,191.361,-1.03774,-0.276272,0.0398155,-0.0149111,-0.0234517,0.0305005,-0.000149548,-4.15712e-05,0.0403148,0.04061876231818995,0.03097040553385466,-0.000149536818255247,-0.014800480052618026,-4.157033592966375e-05,-0.02317884600880815
67,142.9,704.879,52.3258,-0.000172368,192.071,-1.04543,-0.278308,0.0406928,-0.0152487,-0.0239862,0.0311785,-0.000153711,-4.27303e-05,0.0412712,0.0415320977343725,0.03166964048266885,-0.00015369918706942265,-0.015133027273423139,-4.272938707372553e-05,-0.023700817406333563
68,146.0,707.365,52.5212,-0.000178835,192.769,-1.05294,-0.280297,0.0415693,-0.015586,-0.0245202,0.0318559,-0.000157884,-4.38921e-05,0.0422269,0.0424454008146411,0.03236873025210385,-0.00015787153697710554,-0.015465166884829129,-4.389113675584699e-05,-0.02422202199582779
69,149.1,709.805,52.7132,-0.000185374,193.454,-1.06027,-0.28224,0.0424449,-0.015923,-0.0250537,0.0325326,-0.000162066,-4.50565e-05,0.0431818,0.043358565732853904,0.0330675705978285,-0.00016205286801518337,-0.01579689922355043,-4.5055484971134874e-05,-0.02474246070772279
70,152.2,712.201,52.9017,-0.000191984,194.126,-1.06745,-0.284139,0.0433196,-0.0162597,-0.0255868,0.0332089,-0.000166257,-4.62233e-05,0.0441361,0.0442715907235669,0.03376647050218806,-0.00016624318007085748,-0.016128224625820198,-4.622223171968365e-05,-0.025262231944586433
71,155.3,714.555,53.0869,-0.000198663,194.787,-1.07446,-0.285997,0.0441934,-0.016596,-0.0261194,0.0338845,-0.000170456,-4.73924e-05,0.0450896,0.04518447402016923,0.0344651191065839,-0.00017044147320133263,-0.016459045073302425,-4.739127699793233e-05,-0.0257812390559905
72,158.3,716.868,53.269,-0.000205409,195.437,-1.08133,-0.287815,0.0450665,-0.0169321,-0.0266515,0.0345595,-0.000174663,-4.85637e-05,0.0460425,0.046097423074350496,0.035163618779098904,-0.00017464774730613364,-0.01678955764250456,-4.8562520802653e-05,-0.026299482967668375
73,161.4,719.142,53.4481,-0.000212223,196.075,-1.08805,-0.289595,0.0459386,-0.0172678,-0.0271832,0.0352339,-0.000178877,-4.97371e-05,0.0469946,0.04701012256177828,0.035861968580688464,-0.00017886100246322645,-0.01711956599300335,-4.97358631309508e-05,-0.02681706192201605
74,164.5,721.378,53.6242,-0.000219103,196.703,-1.09463,-0.291338,0.0468099,-0.0176033,-0.0277145,0.0359078,-0.000183099,-5.09124e-05,0.047946,0.0479227800230515,0.03656027122796446,-0.00018308223840102222,-0.01744926706816463,-5.091110398569576e-05,-0.027333976686450212
75,167.6,723.577,53.7975,-0.000226048,197.321,-1.10109,-0.293047,0.0476804,-0.0179384,-0.0282452,0.0365811,-0.000187328,-5.20897e-05,0.0488967,0.04883539396064851,0.03725842226475451,-0.00018731045520570255,-0.01777846465863331,-5.20883433551278e-05,-0.02785003359720928
76,170.7,725.741,53.968,-0.000233058,197.929,-1.10741,-0.294721,0.04855,-0.0182732,-0.0287755,0.0372537,-0.000191563,-5.32689e-05,0.0498466,0.04974785790105729,0.03795631695524393,-0.00019154465297999135,-0.018107257385691744,-5.3267481237351255e-05,-0.02836542805547415
77,173.8,727.87,54.136,-0.000240131,198.528,-1.11361,-0.296363,0.0494188,-0.0186077,-0.0293054,0.0379258,-0.000195805,-5.44497e-05,0.0507958,0.05066027513665672,0.038654161880387505,-0.00019578583145207773,-0.01843564558210864,-5.444821764200025e-05,-0.02888016082465572
78,176.9,729.967,54.3013,-0.000247266,199.117,-1.1197,-0.297974,0.0502867,-0.0189419,-0.0298348,0.0385973,-0.000200052,-5.56322e-05,0.0517442,0.05157253900909198,0.03935185237345662,-0.0002000319909328807,-0.01876362958017619,-5.563065255786981e-05,-0.029394135606386373
79,180.0,732.031,54.4642,-0.000254464,199.697,-1.12567,-0.299555,0.0511538,-0.0192757,-0.0303637,0.0392683,-0.000204305,-5.68163e-05,0.0526919,0.0524847529908834,0.04004949149815018,-0.0002042841311545862,-0.019091111620829104,-5.6814685984618585e-05,-0.029907353315677065
80,183.1,734.065,54.6247,-0.000261722,200.269,-1.13153,-0.301107,0.05202,-0.0196093,-0.0308921,0.0399386,-0.000208564,-5.80019e-05,0.0536388,0.053396810238891756,0.04074687037272029,-0.0002085422520408109,-0.01941828824989622,-5.800021792234933e-05,-0.030419814865920047
81,186.2,736.068,54.7829,-0.000269041,200.832,-1.13729,-0.302632,0.0528854,-0.0199426,-0.0314201,0.0406083,-0.000212828,-5.91889e-05,0.054585,0.0543088144057573,0.04144409199040888,-0.00021280535372769638,-0.019745061674606323,-5.918714837160888e-05,-0.030931618075733303
82,189.2,738.043,54.9388,-0.00027642,201.388,-1.14294,-0.304129,0.05375,-0.0202755,-0.0319476,0.0412775,-0.000217097,-6.03773e-05,0.0555305,0.05522076398568654,0.04214125962304127,-0.00021707343615151586,-0.020071334232494298,-6.037547732751225e-05,-0.03144266684623487
83,192.3,739.989,55.0925,-0.000283858,201.935,-1.1485,-0.305601,0.0546137,-0.0206081,-0.0324747,0.0419461,-0.00022137,-6.1567e-05,0.0564751,0.056132551858453006,0.042838268253245104,-0.0002213454994693942,-0.02039720431153058,-6.15651047911614e-05,-0.03195305889089983
84,195.4,741.907,55.2442,-0.000291354,202.475,-1.15397,-0.307048,0.0554766,-0.0209405,-0.0330013,0.0426141,-0.000225648,-6.27579e-05,0.057419,0.05704428194682554,0.04353511693798651,-0.00022562254340474652,-0.02072277016877422,-6.275593076421337e-05,-0.03246269821027781
85,198.5,743.799,55.3937,-0.000298909,203.007,-1.15934,-0.308471,0.0563387,-0.0212725,-0.0335274,0.0432815,-0.000229931,-6.395e-05,0.0583622,0.057955952741523875,0.0442318047338881,-0.00022990456789340197,-0.02104783624512363,-6.394795524233832e-05,-0.03297158571015513
86,201.6,745.666,55.5413,-0.00030652,203.532,-1.16463,-0.309871,0.0571999,-0.0216042,-0.034053,0.0439483,-0.000234217,-6.51433e-05,0.0593045,0.05886745684535577,0.044928330697233454,-0.0002341895733396493,-0.021372500829243135,-6.514117822131738e-05,-0.03347972229471341
87,204.7,747.507,55.687,-0.000314189,204.051,-1.16983,-0.311248,0.0580603,-0.0219356,-0.0345782,0.0446145,-0.000238507,-6.63376e-05,0.0602461,0.05977889845117734,0.045624693883966394,-0.0002384785594665706,-0.02169676424905187,-6.633539971001579e-05,-0.03398720546781786
88,207.8,749.323,55.8307,-0.000321913,204.562,-1.17495,-0.312604,0.0589199,-0.0222667,-0.035103,0.0452802,-0.000242801,-6.7533e-05,0.061187,0.0606902760462571,0.04632099798178935,-0.00024277152622265152,-0.02202062683199979,-6.753071969822777e-05,-0.03449403597843004
89,210.9,751.116,55.9726,-0.000329694,205.067,-1.17999,-0.313939,0.0597786,-0.0225974,-0.0356272,0.0459453,-0.000247099,-6.87293e-05,0.062127,0.061601481956564674,0.047017137553099664,-0.00024706847355648875,-0.022343991139471164,-6.872693819570674e-05,-0.035000021574358775
90,214.0,752.886,56.1128,-0.00033753,205.565,-1.18496,-0.315253,0.0606366,-0.0229279,-0.036151,0.0466098,-0.0002514,-6.99266e-05,0.0630663,0.06251272689626042,0.04771311165278891,-0.0002513684016679507,-0.022667053061476428,-6.992415519224693e-05,-0.03550535620436479
91,217.1,754.633,56.2511,-0.00034542,206.057,-1.18985,-0.316548,0.0614937,-0.023258,-0.0366743,0.0472737,-0.000255704,-7.11247e-05,0.0640048,0.06342379693777511,0.04840891933541824,-0.00025567131051851266,-0.02298961742508343,-7.112217069848992e-05,-0.036009944214495215
92,220.1,756.358,56.3879,-0.000353366,206.543,-1.19467,-0.317824,0.06235,-0.0235879,-0.0371972,0.047937,-0.000260011,-7.23237e-05,0.0649425,0.06433479672398579,0.04910455965522065,-0.0002599772000694278,-0.02331187999016182,-7.232108470422993e-05,-0.03651388284842727
93,223.2,758.062,56.5229,-0.000361365,207.023,-1.19942,-0.319082,0.0632055,-0.0239174,-0.0377196,0.0485997,-0.000264322,-7.35235e-05,0.0658794,0.06524572473648282,0.04980003166610225,-0.00026428707001779905,-0.023633645711891305,-7.352079721367755e-05,-0.03701707655038877
94,226.3,759.746,56.6564,-0.000369418,207.498,-1.2041,-0.320322,0.0640601,-0.0242467,-0.0382415,0.0492619,-0.000268635,-7.47241e-05,0.0668156,0.06615647284007764,0.050495439471183845,-0.00026859892084907244,-0.023955110220322262,-7.472130822394618e-05,-0.037519526212493104
95,229.4,761.408,56.7882,-0.000377524,207.966,-1.20872,-0.321544,0.064914,-0.0245756,-0.038763,0.0499235,-0.00027295,-7.59253e-05,0.067751,0.06706725265433655,0.05119067721322357,-0.00027291275253771285,-0.02427607859842751,-7.592241774734276e-05,-0.038021328923143805
96,232.5,763.052,56.9186,-0.000385683,208.43,-1.21327,-0.32275,0.065767,-0.0249042,-0.039284,0.0505845,-0.000277268,-7.71273e-05,0.0686856,0.06797784933512174,0.05188574394510881,-0.0002772295647803791,-0.02459664880643042,-7.71243257662313e-05,-0.038522389273219604
97,235.6,764.675,57.0475,-0.000393895,208.887,-1.21776,-0.32394,0.0666192,-0.0252325,-0.0398045,0.0512449,-0.000281589,-7.83299e-05,0.0696194,0.06888836797521303,0.052580638719409656,-0.0002815493575385464,-0.024916821167458525,-7.832683229347381e-05,-0.03902270815031961
98,238.7,766.28,57.1749,-0.000402159,209.34,-1.2222,-0.325114,0.0674706,-0.0255605,-0.0403246,0.0519048,-0.000285911,-7.95331e-05,0.0705524,0.0697988070506248,0.053275465915919584,-0.00028587013134506734,-0.025236596004175493,-7.952993732684988e-05,-0.039522382488235364
99,241.8,767.867,57.3009,-0.000410475,209.787,-1.22657,-0.326273,0.0683212,-0.0258882,-0.0408442,0.052564,-0.000290236,-8.07369e-05,0.0714846,0.07070916503626457,0.053970014000948696,-0.0002901938856065822,-0.02555597363878137,-8.073364086413903e-05,-0.04002131702387679
100,244.9,769.435,57.4255,-0.000418842,210.23,-1.23089,-0.327417,0.069171,-0.0262156,-0.0413633,0.0532227,-0.000294563,-8.19413e-05,0.0724161,0.07161944040593671,0.054664492750637006,-0.0002945196205789147,-0.02587495439301335,-8.193794290334289e-05,-0.04051951264035025
101,248.0,770.987,57.5488,-0.000427261,210.668,-1.23516,-0.328546,0.07002,-0.0265427,-0.041882,0.0538809,-0.000298892,-8.31462e-05,0.0733468,0.07252963163234472,0.055358901424590545,-0.0002988473362361965,-0.02619353858814566,-8.314274345044836e-05,-0.041017066117494005
102,251.0,772.521,57.6707,-0.000435731,211.1,-1.23937,-0.329662,0.0708682,-0.0268695,-0.0424002,0.0545384,-0.000303223,-8.43516e-05,0.0742766,0.07343973718709695,0.056053028071406,-0.00030317703255244854,-0.02651172654499101,-8.434804250379013e-05,-0.04151388233763165
103,254.1,774.038,57.7913,-0.000444252,211.529,-1.24354,-0.330764,0.0717156,-0.027196,-0.042918,0.0551954,-0.000307555,-8.55574e-05,0.0752057,0.07434975554070977,0.056747082882888655,-0.00030750770980925157,-0.026829518583900702,-8.555374007002126e-05,-0.04201005797839763
104,257.2,775.539,57.9107,-0.000452823,211.952,-1.24765,-0.331853,0.0725622,-0.0275222,-0.0434353,0.0558518,-0.000311889,-8.67637e-05,0.076134,0.0752596851626115,0.05744095937344351,-0.0003118403676819481,-0.02714691502476474,-8.675993613904698e-05,-0.042505498018790666
105,260.3,777.023,58.0289,-0.000461445,212.371,-1.25171,-0.332929,0.073408,-0.027848,-0.0439521,0.0565076,-0.000316224,-8.79704e-05,0.0770616,0.07616952452114667,0.058134656593057166,-0.00031617400646077876,-0.027463818933399775,-8.796653071785343e-05,-0.04300020333455057
106,263.4,778.493,58.1458,-0.000470117,212.786,-1.25573,-0.333993,0.074253,-0.0281736,-0.0444685,0.0571628,-0.000320561,-8.91775e-05,0.0779883,0.07707927208358045,0.05882817359141601,-0.00032050962581242626,-0.02778042516766288,-8.91735238048863e-05,-0.04349427045043974
107,266.5,779.946,58.2616,-0.000478839,213.197,-1.2597,-0.335045,0.0750972,-0.0284989,-0.0449844,0.0578175,-0.000324899,-9.0385e-05,0.0789142,0.0779889263161011,0.059521615370063286,-0.0003248462260355689,-0.028096636760751914,-9.038091539892434e-05,-0.04398760448985728
108,269.6,781.385,58.3762,-0.00048761,213.603,-1.26363,-0.336085,0.0759406,-0.0288238,-0.0454998,0.0584716,-0.000329239,-9.15928e-05,0.0798394,0.07889848568382574,0.06021487516457524,-0.0003291848067882297,-0.028412356871958866,-9.15886055075088e-05,-0.044480206324105875
109,272.7,782.81,58.4896,-0.000496431,214.006,-1.26751,-0.337113,0.0767832,-0.0291485,-0.0460148,0.0591252,-0.000333579,-9.28009e-05,0.0807637,0.07980794865080254,0.060908058114493846,-0.000333523368711508,-0.02872778016793931,-9.279659412964048e-05,-0.04497217232573003
110,275.8,784.219,58.602,-0.000505302,214.404,-1.27135,-0.338131,0.077625,-0.0294729,-0.0465293,0.0597781,-0.000337921,-9.40093e-05,0.0816873,0.08071731368001789,0.06160095115595654,-0.0003378639111296655,-0.029042809775487788,-9.400488126420914e-05,-0.04546340776191615
111,278.9,785.615,58.7133,-0.000514221,214.798,-1.27515,-0.339137,0.078466,-0.0297969,-0.0470434,0.0604305,-0.000342264,-9.5218e-05,0.0826101,0.08162657923339545,0.06229376558798516,-0.0003422054343591441,-0.02935734894702302,-9.521346691010457e-05,-0.04595400890415702
112,281.9,786.997,58.8235,-0.00052319,215.189,-1.27891,-0.340134,0.0793063,-0.0301207,-0.047557,0.0610824,-0.000346608,-9.6427e-05,0.0835321,0.0825358520253856,0.06298650066623779,-0.00034654793838684306,-0.029671592158712623,-9.642235106621655e-05,-0.046443881115231345
113,285.0,788.366,58.9327,-0.000532207,215.576,-1.28264,-0.341119,0.0801457,-0.0304441,-0.0480702,0.0617336,-0.000350952,-9.76362e-05,0.0844533,0.08344491409955168,0.06367894291019627,-0.0003508904235506316,-0.029985345629137683,-9.763143374130756e-05,-0.04693312056586241
114,288.1,789.721,59.0408,-0.000541273,215.959,-1.28632,-0.342095,0.0809844,-0.0307673,-0.0485829,0.0623843,-0.000355298,-9.88456e-05,0.0853737,0.08435398051271936,0.06437130403361002,-0.0003552348891402435,-0.030298803707876187,-9.884071493460045e-05,-0.047421632714158
115,291.2,791.063,59.148,-0.000550388,216.338,-1.28997,-0.343062,0.0818223,-0.0310902,-0.0490951,0.0630345,-0.000359644,-0.000100055,0.0862934,0.0852629414690036,0.06506358329109019,-0.0003595793358489585,-0.030611869676938075,-0.00010004999466539655,-0.047909418421298255
116,294.3,792.393,59.2541,-0.000559551,216.714,-1.29358,-0.344018,0.0826594,-0.0314127,-0.0496069,0.063684,-0.000363991,-0.000101265,0.0872122,0.08617179542505848,0.06575556678575167,-0.0003639247633128173,-0.030924446943173978,-0.00010125987287290528,-0.04839657370727857
117,297.4,793.71,59.3593,-0.000568763,217.087,-1.29716,-0.344966,0.0834957,-0.031735,-0.0501182,0.064333,-0.000368339,-0.000102475,0.0881303,0.08708054083650163,0.06644746664581436,-0.0003682711715189413,-0.031236729666859975,-0.00010246974961647393,-0.04888300417259661
118,300.5,795.015,59.4636,-0.000578023,217.456,-1.3007,-0.345904,0.0843313,-0.032057,-0.0506291,0.0649815,-0.000372687,-0.000103685,0.0890475,0.08798928495684244,0.06713928212485798,-0.0003726175608266269,-0.03154862122267188,-0.0001036796248961025,-0.04936880573718805
119,303.6,796.307,59.5669,-0.000587331,217.822,-1.30421,-0.346834,0.085166,-0.0323786,-0.0511395,0.0656293,-0.000377036,-0.000104896,0.089964,0.08889780873264441,0.0678307989099225,-0.00037696493085948024,-0.031860025109657686,-0.00010489049860695765,-0.04985388409621205
120,306.7,797.589,59.6693,-0.000596687,218.184,-1.30769,-0.347756,0.086,-0.0327,-0.0516495,0.0662766,-0.000381385,-0.000106106,0.0908797,0.08980632830512869,0.06852222954343912,-0.00038131228198567957,-0.032171135299501885,-0.00010610037095748481,-0.0503383350698241
121,309.0,798.549,59.7461,-0.000607483,218.456,-1.31029,-0.348446,0.0866297,-0.0329426,-0.0520344,0.0667653,-0.00038467,-0.00010702,0.091571,0.0904927954615633,0.06904454397415294,-0.00038459602398133175,-0.03240590210371319,-0.00010701427356407667,-0.050703789508437236
