,Time,S11,S22,S33,S12,S13,S23,LE11,LE22,LE33,LE12,LE13,LE23,SDV_EPBAR,E11,E12,E13,E22,E23,E33
0,0.000309,0.0019383,0.000139163,-7.79048e-12,0.000519365,9.3624e-20,3.36396e-20,9.1292e-09,-2.12864e-09,-3.00057e-09,6.49972e-09,9.45271e-25,4.67314e-25,0.0,9.129200062574228e-09,6.499720095476391e-09,0.0,-2.128640042009522e-09,0.0,-3.0005700146773506e-09
1,0.000618,0.00387659,0.000278327,3.25261e-19,0.00103873,3.61973e-20,-7.40724e-21,1.82584e-08,-4.2578e-09,-6.00057e-09,1.29997e-08,9.27189e-26,4.52981e-25,0.0,1.8258400125148455e-08,1.2999699983140545e-08,0.0,-4.257800001461476e-09,0.0,-6.000569929831556e-09
2,0.0010815,0.00678404,0.000487072,3.25261e-19,0.00181778,-8.55315e-21,3.19208e-20,3.19522e-08,-7.45077e-09,-1.05014e-08,2.27493e-08,2.14063e-25,-7.98907e-25,0.0,3.19522004410544e-08,2.2749300221391877e-08,0.0,-7.45077000097183e-09,0.0,-1.0501399971829528e-08
3,0.0017767,0.0111452,0.00080019,7.58942e-19,0.00298635,8.55315e-21,-3.19208e-20,5.24927e-08,-1.22421e-08,-1.72507e-08,3.73747e-08,4.28159e-25,-1.59792e-24,0.0,5.249270129681349e-08,3.737470066766946e-08,0.0,-1.2242099889370195e-08,0.0,-1.725069986857619e-08
4,0.0028196,0.017687,0.00126987,-2.27682e-18,0.00473921,-1.65988e-27,-4.44764e-28,8.33037e-08,-1.94275e-08,-2.73762e-08,5.93119e-08,1.2845e-24,-4.79383e-24,0.0,8.33037034908557e-08,5.931190183439128e-08,0.0,-1.9427499831081718e-08,0.0,-2.7376199640549714e-08
5,0.0043839,0.0274996,0.00197438,-4.01155e-18,0.00736849,1.71063e-20,-6.38416e-20,1.2952e-07,-3.02058e-08,-4.25643e-08,9.22178e-08,-1.48338e-24,-7.24799e-24,0.0,1.295200084960868e-07,9.221780428170234e-08,0.0,-3.0205799528282284e-08,0.0,-4.256429908533477e-08
6,0.0067304,0.0422185,0.00303115,-4.01155e-18,0.0113124,1.74418e-19,1.1516e-19,1.98845e-07,-4.63759e-08,-6.53437e-08,1.41578e-07,3.19598e-24,8.5636e-25,0.0,1.9884501978317815e-07,1.4157800998226833e-07,0.0,-4.637589889888716e-08,0.0,-6.534369789701344e-08
7,0.01025,0.0642969,0.00461631,8.13152e-18,0.0172283,2.08631e-19,-1.25227e-20,3.02832e-07,-7.06269e-08,-9.95172e-08,2.15616e-07,2.29126e-25,-1.36391e-23,0.0,3.0283204588421597e-07,2.156160232580362e-07,0.0,-7.062689755255036e-08,0.0,-9.951719504019962e-08
8,0.01553,0.0974145,0.00699405,2.92735e-18,0.0261021,-1.49373e-19,3.02101e-19,4.58812e-07,-1.07003e-07,-1.50778e-07,3.26673e-07,-3.42531e-24,1.27835e-23,0.0,4.5881210519738147e-07,3.266730532747175e-07,0.0,-1.0700299424293291e-07,0.0,-1.5077798865004155e-07
9,0.023449,0.147091,0.0105607,6.39679e-18,0.0394129,6.16725e-19,5.07377e-19,6.92782e-07,-1.61575e-07,-2.2766e-07,4.93263e-07,1.27839e-23,3.42544e-24,0.0,6.927822400193406e-07,4.932631216814087e-07,0.0,-1.6157498694546746e-07,0.0,-2.2765997409468497e-07
10,0.035328,0.221605,0.0159106,-7.48099e-18,0.059379,8.22001e-19,-2.58722e-19,1.04374e-06,-2.43427e-07,-3.4299e-07,7.43145e-07,1.27839e-23,3.42544e-24,0.0,1.0437405446594994e-06,7.43145276205226e-07,0.0,-2.4342697035883987e-07,0.0,-3.429899412266124e-07
11,0.053146,0.333377,0.0239354,-3.52366e-17,0.0893282,1.43291e-18,1.54718e-18,1.57017e-06,-3.66206e-07,-5.15985e-07,1.11797e-06,-4.82329e-29,-1.2924e-29,0.0,1.570171232812001e-06,1.1179706249642152e-06,0.0,-3.662059329112566e-07,0.0,-5.159848668334632e-07
12,0.079874,0.501035,0.0359727,-2.13588e-17,0.134252,1.15921e-18,2.56864e-18,2.35982e-06,-5.50367e-07,-7.75483e-07,1.6802e-06,-4.1105e-23,1.53406e-22,0.0,2.3598227842924757e-06,1.6802014115580022e-06,0.0,-5.503668485395963e-07,0.0,-7.754826992778519e-07
13,0.12,0.752521,0.0540286,-7.48099e-18,0.201637,2.25401e-18,-1.51722e-18,3.54429e-06,-8.26616e-07,-1.16472e-06,2.52354e-06,-1.0888e-28,-2.91744e-29,0.0,3.544296280910686e-06,2.523543184196342e-06,0.0,-8.266156583669471e-07,0.0,-1.1647193217667606e-06
14,0.1801,1.12975,0.0811124,2.02746e-17,0.302715,9.8783e-18,2.71531e-18,5.321e-06,-1.241e-06,-1.74857e-06,3.78857e-06,1.53406e-22,4.11051e-23,0.0,5.321014156622894e-06,3.788577176644381e-06,0.0,-1.2409992299344808e-06,0.0,-1.7485684712381655e-06
15,0.2703,1.69559,0.121738,-7.48099e-18,0.454332,-5.51699e-18,2.96936e-18,7.98605e-06,-1.86256e-06,-2.62435e-06,5.6861e-06,6.26956e-28,1.67992e-28,0.0,7.986081888677887e-06,5.686116165914967e-06,0.0,-1.862558265397496e-06,0.0,-2.6243465564013135e-06
16,0.4056,2.54435,0.182676,4.92119e-16,0.681756,-3.36327e-19,-2.16935e-20,1.19836e-05,-2.79488e-06,-3.93804e-06,8.53236e-06,2.19228e-22,-8.18169e-22,0.0,1.1983671803550422e-05,8.532396400751097e-06,0.0,-2.7948760943363737e-06,0.0,-3.938032245964784e-06
17,0.6086,3.81748,0.274083,3.81097e-16,1.02289,-3.36325e-19,-2.16927e-20,1.79799e-05,-4.19337e-06,-5.90853e-06,1.28018e-05,9.49301e-23,4.63893e-22,0.0,1.79800616393333e-05,1.2801881943413917e-05,0.0,-4.1933612078270954e-06,0.0,-5.908512544672284e-06
18,0.913,5.72716,0.411192,4.92119e-16,1.53459,3.23501e-17,8.73662e-18,2.69743e-05,-6.2911e-06,-8.86425e-06,1.92058e-05,4.09074e-22,1.09611e-22,0.0,2.697466380974234e-05,1.920598443261312e-05,0.0,-6.291080211107136e-06,0.0,-8.864210712666853e-06
19,1.37,8.59165,0.616853,-1.28424e-15,2.30213,-3.36733e-19,-2.18022e-20,4.04657e-05,-9.43765e-06,-1.32978e-05,2.88117e-05,4.38461e-22,-1.63636e-21,0.0,4.0466518747450664e-05,2.8812115061116472e-05,0.0,-9.4376054655676e-06,0.0,-1.3297711584647764e-05
20,2.055,12.8883,0.925338,-5.059e-15,3.45341,6.94144e-17,1.1511e-18,6.07025e-05,-1.41574e-05,-1.99479e-05,4.32204e-05,-7.0378e-26,-1.88577e-26,0.0,6.070434243410361e-05,4.322133401490902e-05,0.0,-1.4157299784489652e-05,0.0,-1.994770104196686e-05
21,3.082,19.3331,1.38805,-2.81516e-14,5.18029,7.817e-17,-3.15365e-17,9.10568e-05,-2.12368e-05,-2.99229e-05,6.48327e-05,8.76832e-22,-3.2728e-21,0.0,9.106094579625079e-05,6.483480168495426e-05,0.0,-2.123657450070482e-05,0.0,-2.992245231447921e-05
22,4.623,116.413,8.35811,-1.03265e-09,31.1929,9.83292e-16,7.71529e-16,0.000548295,-0.000127877,-0.000180179,0.000390388,3.49743e-21,-1.3096e-20,0.0,0.0005484453411794821,0.0003904642113123913,0.0,-0.00012786882408488687,0.0,-0.00018016276873877857
23,6.935,262.609,18.8545,-9.04826e-07,70.3658,1.26247e-15,-2.74743e-16,0.00123686,-0.000288468,-0.000406453,0.000880648,1.40118e-20,-5.23908e-20,0.0,0.0012376252267900512,0.0008810358843047705,0.0,-0.0002884263971069112,0.0,-0.00040637040916957634
24,10.03,446.359,32.0836,0.00309023,119.675,-0.0109676,-0.00293711,0.00215605,-0.000510934,-0.000723905,0.00153865,-1.41536e-07,-3.79561e-08,5.92783e-05,0.0021583759471202058,0.0015398343292563066,-1.415359900391877e-07,-0.0005108034954510732,-3.7956099263602994e-08,-0.0007236430439897523
25,13.12,467.935,33.7737,0.00013477,125.714,-0.11218,-0.0300178,0.00307224,-0.00084857,-0.00125767,0.00223466,-2.02734e-06,-5.50317e-07,0.000957248,0.0030769641659937896,0.0022371587135696647,-2.027337944965346e-06,-0.0008482100662943193,-5.503168485354593e-07,-0.0012568794645311243
26,16.21,485.701,35.1635,9.41687e-05,130.688,-0.194797,-0.0520997,0.00398738,-0.0011885,-0.00179599,0.0029312,-4.11772e-06,-1.1225e-06,0.00187406,0.00399534017619807,0.002935500167243754,-4.117711522200196e-06,-0.001187794013591037,-1.1224993700098551e-06,-0.0017943781750446863
27,19.3,500.845,36.3478,3.85412e-05,134.926,-0.263892,-0.0705517,0.00490147,-0.00152986,-0.00233729,0.00362795,-6.38882e-06,-1.74712e-06,0.00280352,0.004913501853972324,0.0036345389763505764,-6.3887995915834495e-06,-0.0015286903607275582,-1.7471184737827272e-06,-0.002334560664558283
28,22.39,514.073,37.3816,1.58011e-05,138.628,-0.322967,-0.0863165,0.00581454,-0.00187215,-0.00288061,0.00432475,-8.82084e-06,-2.41809e-06,0.00374197,0.005831477249230943,0.004334115227169644,-8.82080109654293e-06,-0.0018703986203076894,-2.418087076461184e-06,-0.002876465023988972
29,25.48,525.837,38.3006,5.30143e-06,141.918,-0.374381,-0.100028,0.0067266,-0.00221504,-0.00342535,0.00502148,-1.13957e-05,-3.13003e-06,0.00468704,0.006749274385776438,0.005034108760202383,-1.139563506924457e-05,-0.002212588609209365,-3.1300251014387825e-06,-0.0034194901812414358
30,28.57,536.443,39.1288,-4.45471e-07,144.885,-0.419775,-0.112127,0.00763765,-0.00255834,-0.00397109,0.00571803,-1.40976e-05,-3.87825e-06,0.00563714,0.007666891246156382,0.005734409137458707,-1.409750062930648e-05,-0.002555070237204915,-3.8782424796046655e-06,-0.0039632156488068615
31,31.66,546.112,39.8835,-4.21355e-06,147.588,-0.460329,-0.122931,0.00854772,-0.00290189,-0.00451754,0.00641434,-1.69128e-05,-4.65874e-06,0.00659112,0.008584356069156307,0.006434955934450537,-1.691265697945088e-05,-0.0028976835870467843,-4.658729148121488e-06,-0.00450735126462154
32,34.75,555.004,40.5773,-7.15507e-06,150.074,-0.496917,-0.132674,0.0094568,-0.00324558,-0.00506448,0.00711036,-1.98295e-05,-5.46805e-06,0.00754815,0.009501656822282323,0.007135698629656018,-1.9829303396723397e-05,-0.0032403187986541626,-5.468035050193443e-06,-0.005051677143553701
33,37.84,563.241,41.22,-9.78655e-06,152.377,-0.530204,-0.141534,0.0103649,-0.00358932,-0.00561175,0.00780604,-2.28375e-05,-6.30326e-06,0.00850758,0.010418801643421904,0.007836586561069447,-2.2837239226247696e-05,-0.003582886091056725,-6.30324013450867e-06,-0.005596033543653123
34,40.93,570.92,41.8189,-1.23521e-05,154.523,-0.560703,-0.149649,0.0112721,-0.00393305,-0.00615921,0.00850135,-2.5928e-05,-7.16184e-06,0.00946894,0.011335869499356166,0.008537589096865972,-2.5927663872327145e-05,-0.003925325688867609,-7.161814354117446e-06,-0.00614028094869401
35,44.02,578.115,42.38,-1.49706e-05,156.534,-0.588819,-0.157128,0.0121782,-0.00427673,-0.00670678,0.00919625,-2.90934e-05,-8.04158e-06,0.0104318,0.012252656218207258,0.009238665428288995,-2.909297679110079e-05,-0.004267597813523927,-8.041547666537419e-06,-0.006684339746323098
36,47.11,584.887,42.9082,-1.77006e-05,158.427,-0.61488,-0.164057,0.0130835,-0.00462032,-0.00725437,0.00989073,-3.23271e-05,-8.9406e-06,0.0113959,0.013169463478072574,0.009939804932156848,-3.2326577484975694e-05,-0.004609662741181686,-8.940560032977274e-06,-0.007228120570662577
37,50.2,591.286,43.4072,-2.05697e-05,160.215,-0.639148,-0.170508,0.0139877,-0.00496378,-0.0078019,0.0105848,-3.56232e-05,-9.85722e-06,0.0123609,0.014085985604158635,0.010641017169605194,-3.5622565501380876e-05,-0.00495148080264074,-9.857171417770871e-06,-0.00777154417386805
38,53.29,597.354,43.8804,-2.35898e-05,161.911,-0.661843,-0.176539,0.0148911,-0.00530708,-0.00834934,0.0112783,-3.89766e-05,-1.079e-05,0.0133267,0.015002524821983165,0.011342139801184814,-3.897584042222846e-05,-0.005293022330323582,-1.0789941788158508e-05,-0.008314581066105275
39,56.38,603.126,44.3304,-2.67643e-05,163.524,-0.683145,-0.182199,0.0157935,-0.00565021,-0.00889662,0.0119714,-4.23827e-05,-1.17376e-05,0.014293,0.01591887649607382,0.0120433440125296,-4.238180186599827e-05,-0.005634277584765424,-1.1737531114608402e-05,-0.008857162176741706
40,59.47,608.63,44.7597,-3.0092e-05,165.062,-0.703207,-0.187528,0.0166949,-0.00599314,-0.00944372,0.012664,-4.58375e-05,-1.26988e-05,0.0152598,0.01683503862358493,0.012744528024586366,-4.583644947786514e-05,-0.005975216959442142,-1.2698719370596301e-05,-0.0093992681167131
41,62.56,613.892,45.1701,-3.35698e-05,166.533,-0.722158,-0.19256,0.0175954,-0.00633587,-0.00999059,0.0133561,-4.93374e-05,-1.36728e-05,0.0162268,0.017751110975538387,0.013445691121933834,-4.9336182930459493e-05,-0.006315840699012254,-1.3672706527745326e-05,-0.009940849838062649
42,65.65,618.934,45.5633,-3.7193e-05,167.942,-0.740109,-0.197327,0.018495,-0.00667837,-0.0105372,0.0140477,-5.28791e-05,-1.46585e-05,0.0171939,0.01866709182138271,0.014146832588686209,-5.2877701925080345e-05,-0.006656119247545167,-1.4658392564759204e-05,-0.010481878190907845
43,68.74,623.775,45.9409,-4.09566e-05,169.295,-0.757156,-0.201852,0.0193937,-0.00702065,-0.0110836,0.0147388,-5.64596e-05,-1.5655e-05,0.0181612,0.019582979429255243,0.01484795170849429,-5.6458006186810294e-05,-0.006996062809788928,-1.5654877461135364e-05,-0.011022403207781806
44,71.83,628.431,46.3041,-4.48556e-05,170.597,-0.77338,-0.206158,0.0202915,-0.00736268,-0.0116296,0.0154293,-6.00765e-05,-1.66618e-05,0.0191284,0.02049877206598727,0.015548946209648307,-6.007469544322408e-05,-0.007335641870002685,-1.666166119296264e-05,-0.011562237587433688
45,74.92,632.916,46.6541,-4.8885e-05,171.85,-0.788854,-0.210264,0.0211883,-0.00770445,-0.0121754,0.0161193,-6.37271e-05,-1.7678e-05,0.0200955,0.02141436585566736,0.016249916789572216,-6.372506947149859e-05,-0.0076748467993446035,-1.7677843745067534e-05,-0.012101579718301947
46,78.01,637.243,46.9918,-5.30399e-05,173.06,-0.80364,-0.214187,0.0220842,-0.00804597,-0.0127208,0.0168087,-6.74095e-05,-1.87031e-05,0.0210625,0.02232986102086265,0.01695076103546067,-6.740722803066923e-05,-0.008013687821879278,-1.8702925098090795e-05,-0.012640232612726843
47,81.1,641.425,47.3182,-5.73157e-05,174.229,-0.817796,-0.217942,0.0229792,-0.00838723,-0.0132659,0.0174976,-7.11214e-05,-1.97365e-05,0.0220293,0.023245255824546396,0.01765157978403953,-7.111887093314007e-05,-0.008352155314780063,-1.9736305236550677e-05,-0.013178295759495806
48,84.19,645.47,47.634,-6.17081e-05,175.36,-0.831369,-0.221542,0.0238733,-0.00872822,-0.0138106,0.018186,-7.48613e-05,-2.07777e-05,0.0229958,0.024160548528407322,0.018352372316677412,-7.485849796273758e-05,-0.008690239668371458,-2.0777484145084735e-05,-0.013715671174314936
49,87.28,649.388,47.9399,-6.62131e-05,176.456,-0.844405,-0.224999,0.0247665,-0.00906893,-0.0143549,0.0188738,-7.86272e-05,-2.18261e-05,0.023962,0.025075737392854736,0.019053036008978674,-7.862410896275485e-05,-0.009027931286091806,-2.182586181243007e-05,-0.01425235966147298
50,90.37,653.188,48.2367,-7.0827e-05,177.519,-0.856941,-0.228324,0.0256588,-0.00940936,-0.0148989,0.019561,-8.24178e-05,-2.28815e-05,0.0249279,0.025990820677021853,0.019753569931211246,-8.241440374645581e-05,-0.009365230490802512,-2.28812382204735e-05,-0.014788460545155813
51,93.46,656.876,48.5248,-7.55461e-05,178.55,-0.869014,-0.231525,0.0265502,-0.00974951,-0.0154425,0.0202477,-8.62316e-05,-2.39433e-05,0.0258933,0.02690579663877335,0.020454075198639288,-8.622788216239297e-05,-0.00970213760492522,-2.394301336150484e-05,-0.015323875998898506
52,96.55,660.46,48.8048,-8.03672e-05,179.553,-0.880656,-0.234611,0.0274407,-0.0100894,-0.0159856,0.0209338,-9.00672e-05,-2.50113e-05,0.0268584,0.02782066353470869,0.02115444897538299,-9.006314407145055e-05,-0.010038672749669741,-2.5010987220075442e-05,-0.015858508409271277
53,99.64,663.945,49.0772,-8.52931e-05,180.528,-0.891894,-0.23759,0.0283303,-0.010429,-0.0165284,0.0216193,-9.39235e-05,-2.6085e-05,0.027823,0.02873541962016901,0.02185469033045928,-9.391908932609994e-05,-0.0103748065376561,-2.6084659789371578e-05,-0.016392555457425573
54,102.7,667.337,49.3424,-9.03086e-05,181.477,-0.902755,-0.240469,0.029219,-0.0107682,-0.0170708,0.0223043,-9.77993e-05,-2.71641e-05,0.0287871,0.029650063149239347,0.022554900587969273,-9.779451780433934e-05,-0.010710430478240385,-2.7163731059154372e-05,-0.016925919473947948
55,105.8,670.642,49.6009,-9.54177e-05,182.402,-0.913262,-0.243254,0.0301068,-0.0111072,-0.0176128,0.0229887,-0.000101694,-2.82484e-05,0.0297507,0.03056459237475817,0.023254976700650687,-0.00010168882934047385,-0.011045742803657776,-2.8248001017749935e-05,-0.01745860125579002
56,108.9,673.864,49.8528,-0.000100618,183.304,-0.923438,-0.24595,0.0309937,-0.0114459,-0.0181543,0.0236725,-0.000105605,-2.93375e-05,0.0307138,0.031479005548318284,0.02395491773628544,-0.00010559942398824518,-0.011380644891699987,-2.93370696597961e-05,-0.017990503397707913
57,112.0,677.007,50.0987,-0.000105906,184.183,-0.933301,-0.248564,0.0318797,-0.0117843,-0.0186954,0.0243557,-0.000109534,-3.04313e-05,0.0316763,0.032393300920273704,0.02465472276225955,-0.00010952800137042917,-0.011715137082197957,-3.0430836972739073e-05,-0.018521725001353184
58,115.1,680.075,50.3389,-0.00011128,185.042,-0.942869,-0.251099,0.0327649,-0.0121224,-0.0192361,0.0250384,-0.000113478,-3.15294e-05,0.0326383,0.03330758007049939,0.025354493381011034,-0.00011347156161523042,-0.012049219714499126,-3.152890295365918e-05,-0.01905226685972805
59,118.2,683.072,50.5735,-0.000116739,185.882,-0.95216,-0.253561,0.0336491,-0.0124602,-0.0197764,0.0257205,-0.000117437,-3.26317e-05,0.0335997,0.03422163467678785,0.02605412626361492,-0.00011743010454545733,-0.012382893127467098,-3.263116759189e-05,-0.01958212976458984
60,121.3,686.002,50.8029,-0.000122279,186.702,-0.961188,-0.255953,0.0345325,-0.0127977,-0.0203162,0.026402,-0.00012141,-3.3738e-05,0.0345605,0.03513566973870552,0.026753620476243523,-0.00012140263010418373,-0.012716157659483418,-3.3737430880087516e-05,-0.020111216517581076
61,124.4,688.867,51.0273,-0.0001279,187.504,-0.969968,-0.258279,0.035415,-0.0131349,-0.0208555,0.0270829,-0.000125396,-3.4848e-05,0.0355207,0.03604958017091531,0.027452975084682363,-0.00012538813825013762,-0.013049013648447017,-3.484739281545135e-05,-0.02063952806649938
62,127.4,691.67,51.2469,-0.0001336,188.29,-0.978512,-0.260542,0.0362967,-0.0134718,-0.0213945,0.0277632,-0.000129396,-3.59615e-05,0.0364803,0.036963467913959214,0.028152189154331486,-0.00012938762869862952,-0.013381461431775432,-3.596085339296895e-05,-0.021167261124035885
63,130.5,694.415,51.4621,-0.000139376,189.059,-0.986833,-0.262746,0.0371775,-0.0138084,-0.021933,0.028443,-0.000133407,-3.70784e-05,0.0374392,0.03787722769723101,0.028851364635338994,-0.0001333981016817809,-0.0137135013464047,-3.7077712604638435e-05,-0.021694220657332286
64,133.6,697.103,51.6728,-0.000145227,189.812,-0.994942,-0.264894,0.0380573,-0.0141446,-0.022471,0.0291221,-0.00013743,-3.81985e-05,0.0383975,0.03879075388340203,0.029550294891970363,-0.00013742055693011235,-0.014045035133299688,-3.819777044655748e-05,-0.022220407609636617
65,136.7,699.738,51.8794,-0.000151153,190.55,-1.00285,-0.266988,0.0389364,-0.0144806,-0.0230086,0.0298007,-0.000141464,-3.93217e-05,0.0393552,0.03970435635026792,0.030249184828619935,-0.00014145399444009943,-0.014376260352541914,-3.9320926912056464e-05,-0.02274592064794423
66,139.8,702.321,52.082,-0.00015715,191.274,-1.01056,-0.269031,0.0398145,-0.0148163,-0.0235457,0.0304787,-0.000145509,-4.04478e-05,0.0403121,0.04061772169994793,0.030947930623991482,-0.00014549841407884845,-0.014707078710973431,-4.044698199878738e-05,-0.023270662881822557
67,142.9,704.854,52.2808,-0.000163219,191.984,-1.01809,-0.271025,0.0406918,-0.0151516,-0.0240824,0.0311561,-0.000149564,-4.15767e-05,0.0412684,0.04153105620279551,0.03164653134154527,-0.00014955281586248592,-0.015037392047356102,-4.157583570096879e-05,-0.02379473287029299
68,146.0,707.34,52.476,-0.000169358,192.681,-1.02545,-0.272973,0.0415683,-0.0154867,-0.0246186,0.0318329,-0.000153628,-4.27083e-05,0.042224,0.04244435836976157,0.03234498604436764,-0.00015361619982301455,-0.015367397721742226,-4.270738801348539e-05,-0.02431803382500397
69,149.1,709.78,52.6676,-0.000175565,193.366,-1.03264,-0.274877,0.0424438,-0.0158214,-0.0251544,0.0325092,-0.000157701,-4.38423e-05,0.0431789,0.04335741803906279,0.033043397099507654,-0.00015768856585085533,-0.01569689910859151,-4.3841338940420194e-05,-0.0248406641973008
70,152.2,712.177,52.8558,-0.000181839,194.038,-1.03967,-0.276738,0.0433185,-0.0161558,-0.0256897,0.0331848,-0.000161783,-4.49788e-05,0.0441331,0.04427044202544894,0.03374155703045756,-0.00016176991383609618,-0.016025995037623586,-4.497778846890288e-05,-0.025362527300634707
71,155.3,714.53,53.0407,-0.00018818,194.698,-1.04655,-0.278559,0.0441924,-0.0164899,-0.0262246,0.0338599,-0.000165873,-4.61176e-05,0.0450866,0.045183428836218065,0.03443967157765959,-0.00016585924383449857,-0.0163546858418252,-4.611653659980508e-05,-0.025883721478971777
72,158.3,716.844,53.2225,-0.000194587,195.347,-1.05328,-0.280341,0.0450654,-0.0168237,-0.026759,0.0345343,-0.000169971,-4.72585e-05,0.0460393,0.04609627236781799,0.035137532984588216,-0.0001699565557479188,-0.016682971853707595,-4.725738333466456e-05,-0.02640415014728792
73,161.4,719.117,53.4013,-0.000201058,195.985,-1.05987,-0.282087,0.0459376,-0.0171572,-0.0272929,0.0352082,-0.000174077,-4.84016e-05,0.0469914,0.04700907555217926,0.03583534727018134,-0.0001740618494781021,-0.017010853405306725,-4.8400428661499184e-05,-0.026923814234851795
74,164.5,721.353,53.5771,-0.000207592,196.613,-1.06632,-0.283796,0.0468089,-0.0174904,-0.0278263,0.0358815,-0.00017819,-4.95466e-05,0.0479427,0.04792173210079542,0.03653301005131726,-0.0001781741251047908,-0.0173383308281837,-4.954537258750058e-05,-0.027442714669290158
75,167.6,723.552,53.7502,-0.000214189,197.23,-1.07265,-0.285471,0.0476793,-0.0178233,-0.0283593,0.0365542,-0.00018231,-5.06935e-05,0.0488933,0.048834240242349614,0.037230520388477295,-0.00018229338254172056,-0.01766540445342535,-5.0692215106229455e-05,-0.027960949580498884
76,170.7,725.716,53.9204,-0.000220848,197.837,-1.07886,-0.287114,0.0485489,-0.0181559,-0.0288919,0.0372263,-0.000186436,-5.18423e-05,0.0498431,0.04974670317904861,0.03792787734178393,-0.00018641862188883973,-0.017992074611645537,-5.184095621113549e-05,-0.02847851973758464
77,173.8,727.846,54.0881,-0.000227568,198.435,-1.08494,-0.288725,0.0494177,-0.0184881,-0.029424,0.0378979,-0.000190569,-5.29928e-05,0.0507923,0.05065911941098977,0.03862518383351654,-0.00019055084288144286,-0.018318243464813366,-5.299139590642099e-05,-0.02899532880798561
78,176.9,729.943,54.2532,-0.000234347,199.024,-1.09091,-0.290306,0.0502856,-0.0188201,-0.0299556,0.0385688,-0.000194707,-5.41449e-05,0.0517406,0.051571382279935074,0.039322231267766794,-0.0001946880458222333,-0.018644107711525026,-5.414343419130052e-05,-0.029511377713239306
79,180.0,732.007,54.4158,-0.000241187,199.604,-1.09677,-0.291857,0.0511526,-0.0191517,-0.0304867,0.0392392,-0.000198852,-5.52987e-05,0.0526882,0.05248349000993757,0.04001922649830547,-0.00019883223025141117,-0.018969471377130787,-5.5297171055013195e-05,-0.030026667373254434
80,183.1,734.041,54.5761,-0.000248085,200.175,-1.10253,-0.293381,0.0520189,-0.0194831,-0.0310174,0.0399089,-0.000203002,-5.64539e-05,0.0536351,0.05339565150303782,0.04071596064968186,-0.0002029813964881111,-0.01929453102895695,-5.6452306508525396e-05,-0.030541295652187328
81,186.2,736.044,54.734,-0.000255041,200.738,-1.10818,-0.294877,0.0528843,-0.0198141,-0.0315476,0.0405781,-0.000207157,-5.76106e-05,0.0545812,0.05430765466669918,0.04141264085374541,-0.00020713554447016058,-0.019619090821577423,-5.760894054118726e-05,-0.031055166418054392
82,189.2,738.018,54.8897,-0.000262054,201.293,-1.11373,-0.296348,0.0537488,-0.0201448,-0.0320773,0.0412467,-0.000211317,-5.87686e-05,0.0555266,0.055219497721529454,0.04210916216654814,-0.00021129467413527614,-0.019943249185703005,-5.876687315964357e-05,-0.031568280586117825
83,192.3,739.964,55.0432,-0.000269125,201.84,-1.11919,-0.297793,0.0546125,-0.0204752,-0.0326066,0.0419147,-0.000215481,-5.9928e-05,0.0564712,0.056131284500151146,0.04280552364571499,-0.00021545778563669682,-0.02026700644852708,-5.992620435324447e-05,-0.032080735861950815
84,195.4,741.883,55.1946,-0.000276252,202.38,-1.12456,-0.299214,0.0554754,-0.0208053,-0.0331354,0.0425822,-0.000219651,-6.10886e-05,0.057415,0.05704301349444818,0.043501828698706335,-0.0002196268784852018,-0.020590362936773743,-6.10867341294119e-05,-0.03259243626331698
85,198.5,743.775,55.344,-0.000283434,202.911,-1.12984,-0.300612,0.0563375,-0.0211351,-0.0336637,0.043249,-0.000223824,-6.22505e-05,0.0583581,0.0579546831951423,0.044197867751713193,-0.0002237989532771767,-0.020913318976699014,-6.224856247782906e-05,-0.03310338270085367
86,201.6,745.641,55.4913,-0.000290671,203.436,-1.13504,-0.301987,0.0571987,-0.0214646,-0.0341916,0.0439153,-0.000228002,-6.34134e-05,0.0593004,0.058866186205170035,0.044893848631277544,-0.00022797600951929287,-0.0212358748940904,-6.3411389412793e-05,-0.033613672722224486
87,204.7,747.482,55.6367,-0.000297964,203.954,-1.14015,-0.303341,0.0580591,-0.0217938,-0.034719,0.0445809,-0.000232184,-6.45775e-05,0.0602419,0.05977762671726228,0.04558956148447946,-0.00023215704738099863,-0.021558031014268453,-6.457541491811103e-05,-0.03412321049430944
88,207.8,749.299,55.7803,-0.00030531,204.465,-1.14518,-0.304673,0.0589187,-0.0221226,-0.0352459,0.045246,-0.000236369,-6.57426e-05,0.0611827,0.06068900321868953,0.046285214415560993,-0.0002363410670487287,-0.02187968985006039,-6.574043900264837e-05,-0.03463199692314434
89,210.9,751.092,55.922,-0.00031271,204.97,-1.15014,-0.305985,0.0597774,-0.0224512,-0.0357724,0.0459105,-0.000240559,-6.69087e-05,0.0621226,0.06160020803555066,0.04698070199069537,-0.00024053006800373034,-0.02220104738204165,-6.69064616628523e-05,-0.03514012939915212
90,214.0,752.862,56.0619,-0.000320163,205.468,-1.15502,-0.307277,0.0606353,-0.0227794,-0.0362984,0.0465745,-0.000244751,-6.80757e-05,0.0630618,0.06251134563061322,0.047676128032712484,-0.0002447210509173292,-0.022521908342127195,-6.807338290204523e-05,-0.03564751223770313
91,217.1,754.609,56.2001,-0.00032767,205.959,-1.15983,-0.308551,0.0614924,-0.0231074,-0.0368239,0.0472378,-0.000248947,-6.92437e-05,0.0640003,0.06342241448773778,0.04837128213080599,-0.00024891601526677576,-0.02284246858143779,-6.924130271035445e-05,-0.036154146340252935
92,220.1,756.334,56.3366,-0.000335228,206.445,-1.16457,-0.309805,0.0623487,-0.023435,-0.037349,0.0479006,-0.000253146,-7.04125e-05,0.0649379,0.06433341308964935,0.049066372944251535,-0.000253113961254825,-0.0231625329593228,-7.041002109808847e-05,-0.036660128940651626
93,223.2,758.038,56.4715,-0.000342839,206.925,-1.16924,-0.311042,0.0632042,-0.0237623,-0.0378736,0.0485628,-0.000257348,-7.15821e-05,0.0658748,0.06524433991794076,0.04976129475963398,-0.00025731488884384035,-0.02348219954599473,-7.157953806258277e-05,-0.0371653645021347
94,226.3,759.721,56.6048,-0.000350501,207.399,-1.17385,-0.312262,0.0640588,-0.0240894,-0.0383977,0.0492244,-0.000261553,-7.27525e-05,0.0668109,0.06615508683756377,0.05045604663082415,-0.0002615187979959632,-0.023801566283245812,-7.274985360106179e-05,-0.03766985392159894
95,229.4,761.384,56.7365,-0.000358215,207.867,-1.17839,-0.313465,0.0649127,-0.0244161,-0.0389214,0.0498854,-0.000265761,-7.39237e-05,0.0677462,0.0670658654678098,0.05115062761137157,-0.00026572568867355706,-0.024120438220973872,-7.392096771063894e-05,-0.038173694276988024
96,232.5,763.027,56.8666,-0.000365979,208.33,-1.18287,-0.314651,0.0657657,-0.0247425,-0.0394446,0.0505458,-0.000269971,-7.50956e-05,0.0686807,0.06797646096482013,0.051845036754507356,-0.00026993456110879777,-0.024438913331973233,-7.50927803959689e-05,-0.03867679017877779
97,235.6,764.651,56.9953,-0.000373795,208.787,-1.1873,-0.315822,0.0666179,-0.0250686,-0.0399673,0.0512057,-0.000274184,-7.62681e-05,0.0696144,0.06888697842123781,0.05253937836708,-0.0002741464150022299,-0.024756991936800365,-7.626519166237244e-05,-0.039179142519329746
98,238.7,766.256,57.1226,-0.00038166,209.24,-1.19166,-0.316977,0.0674693,-0.0253944,-0.0404896,0.051865,-0.000278399,-7.74413e-05,0.0705474,0.06979741631307945,0.053233546386580066,-0.0002783602505943561,-0.02507467435555122,-7.743830149986586e-05,-0.039680848221342324
99,241.8,767.842,57.2484,-0.000389576,209.687,-1.19597,-0.318118,0.0683199,-0.0257199,-0.0410114,0.0525237,-0.000282616,-7.86151e-05,0.0714796,0.07070777311525478,0.05392753986524412,-0.0002825760678601963,-0.025391960907860667,-7.861200991399198e-05,-0.040181812041912957
100,244.9,769.411,57.3729,-0.000397541,210.129,-1.20022,-0.319244,0.0691697,-0.0260451,-0.0415327,0.0531818,-0.000286835,-7.97894e-05,0.0724109,0.07161804730156973,0.05462135785499811,-0.0002867938667743264,-0.025708851912903286,-7.978621691051568e-05,-0.04068203486888755
101,248.0,770.962,57.496,-0.000405556,210.566,-1.20442,-0.320356,0.0700187,-0.02637,-0.0420536,0.0538394,-0.000291056,-8.09644e-05,0.0733415,0.0725282373447298,0.05531510493896463,-0.00029101364731154433,-0.026025347689393796,-8.09611224713569e-05,-0.041181613470381406
102,251.0,772.496,57.6177,-0.000413621,210.999,-1.20857,-0.321455,0.0708669,-0.0266946,-0.042574,0.0544964,-0.00029528,-8.21398e-05,0.0742713,0.07343834171634556,0.056008674775652745,-0.00029523640915141147,-0.026341448555587732,-8.213642661891729e-05,-0.04168045274949328
103,254.1,774.013,57.7382,-0.000421734,211.427,-1.21267,-0.32254,0.0717142,-0.0270189,-0.0430939,0.0551528,-0.000299505,-8.33157e-05,0.0752004,0.07434825145210477,0.056702066416015606,-0.00029946015285498007,-0.026657154829281993,-8.331222934343518e-05,-0.042178553589575674
104,257.2,775.514,57.8574,-0.000429896,211.85,-1.21672,-0.323613,0.0725608,-0.0273428,-0.0436134,0.0558086,-0.000303731,-8.44922e-05,0.0761286,0.07525817980010618,0.05739527891070373,-0.00030368487840948255,-0.026972369525056994,-8.448863063459378e-05,-0.0426760126048189
105,260.3,776.999,57.9754,-0.000438106,212.269,-1.22073,-0.324673,0.0734066,-0.0276665,-0.0441324,0.0564639,-0.00030796,-8.5669e-05,0.077056,0.07616801788486693,0.058088417118904,-0.0003079125851866982,-0.0272872875968021,-8.566533051601599e-05,-0.04317273484370632
106,263.4,778.468,58.0922,-0.000446365,212.684,-1.22468,-0.325721,0.0742516,-0.0279899,-0.0446509,0.0571186,-0.00031219,-8.68463e-05,0.0779827,0.07707776417365508,0.058781374420412646,-0.00031214127377277023,-0.027601812026651573,-8.684252896917766e-05,-0.04366872118511911
107,266.5,779.922,58.2078,-0.000454672,213.094,-1.2286,-0.326757,0.0750958,-0.028313,-0.045169,0.0577727,-0.000316421,-8.80239e-05,0.0789086,0.07798741713266066,0.059474149864929826,-0.0003163709441551532,-0.027915943130573107,-8.802002601016046e-05,-0.04416406808997686
108,269.6,781.361,58.3223,-0.000463027,213.5,-1.23247,-0.327782,0.0759392,-0.0286358,-0.0456866,0.0584262,-0.000320654,-8.9202e-05,0.0798336,0.07889697522700301,0.0601667425018626,-0.0003206025960006409,-0.028229681224077874,-8.91980216198851e-05,-0.04465868075153412
109,272.7,782.785,58.4356,-0.000471429,213.902,-1.2363,-0.328795,0.0767818,-0.0289583,-0.0462038,0.0590792,-0.000324888,-9.03803e-05,0.0807579,0.07980643692073275,0.06085925746624388,-0.00032483522960879974,-0.028543026622221856,-9.037621582375088e-05,-0.04515265552896053
110,275.8,784.195,58.5479,-0.00047988,214.3,-1.24008,-0.329798,0.0776236,-0.0292804,-0.0467205,0.0597316,-0.000329123,-9.1559e-05,0.0816814,0.08071580067683759,0.061551587859433265,-0.0003290688449669732,-0.028855882525198884,-9.15548086026785e-05,-0.04564589771175709
111,278.9,785.59,58.659,-0.000488377,214.694,-1.24383,-0.33079,0.0784646,-0.0296023,-0.0472367,0.0603835,-0.00033336,-9.27381e-05,0.0826042,0.08162506495724475,0.062243838954287645,-0.00033330444172907647,-0.029168443507225028,-9.27337999553357e-05,-0.0461384081714723
112,281.9,786.972,58.7691,-0.000496922,215.085,-1.24754,-0.331772,0.0793048,-0.0299239,-0.0477525,0.0610347,-0.000337597,-9.39174e-05,0.0835261,0.08253422822282519,0.062935797419438,-0.0003375400205450907,-0.029480612736290435,-9.391298989902541e-05,-0.046630283115084326
113,285.0,788.341,58.8781,-0.000505514,215.471,-1.25121,-0.332744,0.0801443,-0.0302452,-0.0482678,0.0616854,-0.000341836,-9.5097e-05,0.0844472,0.08344339727773353,0.06362767482071896,-0.00034177758073139497,-0.029792390525634316,-9.509247842354185e-05,-0.047121427975853614
114,288.1,789.696,58.9861,-0.000514154,215.854,-1.25484,-0.333706,0.080983,-0.0305662,-0.0487827,0.0623356,-0.000346075,-9.62768e-05,0.0853676,0.08435246241820948,0.06431947041326258,-0.0003460151229548458,-0.03010377718804247,-9.62721655376475e-05,-0.04761193885972481
115,291.2,791.038,59.0931,-0.000522839,216.234,-1.25844,-0.334659,0.0818208,-0.0308869,-0.0492971,0.0629852,-0.000350315,-9.74569e-05,0.0862871,0.08526131357581246,0.06501107695072594,-0.0003502536468650286,-0.03041477303584872,-9.745215123058149e-05,-0.04810172129553281
116,294.3,792.368,59.1992,-0.000531572,216.609,-1.262,-0.335603,0.0826579,-0.0312073,-0.0498111,0.0636342,-0.000354556,-9.86372e-05,0.0872059,0.08617016616858741,0.06570249348006207,-0.00035449315244950874,-0.030725378380934587,-9.863233551132833e-05,-0.048590871288469506
117,297.4,793.685,59.3043,-0.000540351,216.982,-1.26553,-0.336537,0.0834943,-0.0315273,-0.0503245,0.0642826,-0.000358798,-9.98177e-05,0.0881239,0.08707901892480985,0.06639371904794644,-0.0003587336396954077,-0.031035496638285198,-9.981271837911088e-05,-0.04907919937060512
118,300.5,794.99,59.4084,-0.000549177,217.351,-1.26903,-0.337463,0.0843298,-0.0318471,-0.0508376,0.0649305,-0.000363041,-0.000100998,0.0890411,0.0879876529741388,0.06708485940926079,-0.00036297510859029103,-0.03134532194275352,-0.00010099289987364202,-0.049566991679589556
119,303.6,796.282,59.5116,-0.00055805,217.716,-1.27249,-0.33838,0.0851646,-0.0321667,-0.0513501,0.0655778,-0.000367284,-0.000102179,0.0899575,0.08889628427677931,0.06777580703983155,-0.0003672165594885701,-0.031654854511921404,-0.00010217377990373588,-0.05005396379908911
120,306.7,797.563,59.6139,-0.000566968,218.079,-1.27592,-0.339289,0.0859986,-0.0324859,-0.0518623,0.0662246,-0.000371528,-0.00010336,0.0908731,0.08980480257733703,0.06846666783211997,-0.0003714589920190692,-0.03196390095592472,-0.00010335465853916759,-0.050540401571482985
121,309.0,798.524,59.6906,-0.000577309,218.35,-1.27849,-0.33997,0.0866282,-0.0327268,-0.0522489,0.0667128,-0.000374734,-0.000104252,0.0915644,0.09049115972359689,0.06898842060884536,-0.00037466379598405375,-0.0321970727655122,-0.00010424656594909543,-0.05090739170847103
