,Time,S11,S22,S33,S12,S13,S23,LE11,LE22,LE33,LE12,LE13,LE23,SDV_EPBAR,E11,E12,E13,E22,E23,E33
0,0.000309,0.0019383,0.000139163,-7.79048e-12,0.000519365,9.3624e-20,3.36396e-20,9.1292e-09,-2.12864e-09,-3.00057e-09,6.49972e-09,9.45271e-25,4.67314e-25,0.0,9.129200062574228e-09,6.499720095476391e-09,0.0,-2.128640042009522e-09,0.0,-3.0005700146773506e-09
1,0.000618,0.00387659,0.000278327,3.25261e-19,0.00103873,3.61973e-20,-7.40724e-21,1.82584e-08,-4.2578e-09,-6.00057e-09,1.29997e-08,9.27189e-26,4.52981e-25,0.0,1.8258400125148455e-08,1.2999699983140545e-08,0.0,-4.257800001461476e-09,0.0,-6.000569929831556e-09
2,0.0010815,0.00678404,0.000487072,3.25261e-19,0.00181778,-8.55315e-21,3.19208e-20,3.19522e-08,-7.45077e-09,-1.05014e-08,2.27493e-08,2.14063e-25,-7.98907e-25,0.0,3.19522004410544e-08,2.2749300221391877e-08,0.0,-7.45077000097183e-09,0.0,-1.0501399971829528e-08
3,0.0017767,0.0111452,0.00080019,7.58942e-19,0.00298635,8.55315e-21,-3.19208e-20,5.24927e-08,-1.22421e-08,-1.72507e-08,3.73747e-08,4.28159e-25,-1.59792e-24,0.0,5.249270129681349e-08,3.737470066766946e-08,0.0,-1.2242099889370195e-08,0.0,-1.725069986857619e-08
4,0.0028196,0.017687,0.00126987,-2.27682e-18,0.00473921,-1.65988e-27,-4.44764e-28,8.33037e-08,-1.94275e-08,-2.73762e-08,5.93119e-08,1.2845e-24,-4.79383e-24,0.0,8.33037034908557e-08,5.931190183439128e-08,0.0,-1.9427499831081718e-08,0.0,-2.7376199640549714e-08
5,0.0043839,0.0274996,0.00197438,-4.01155e-18,0.00736849,1.71063e-20,-6.38416e-20,1.2952e-07,-3.02058e-08,-4.25643e-08,9.22178e-08,-1.48338e-24,-7.24799e-24,0.0,1.295200084960868e-07,9.221780428170234e-08,0.0,-3.0205799528282284e-08,0.0,-4.256429908533477e-08
6,0.0067304,0.0422185,0.00303115,-4.01155e-18,0.0113124,1.74418e-19,1.1516e-19,1.98845e-07,-4.63759e-08,-6.53437e-08,1.41578e-07,3.19598e-24,8.5636e-25,0.0,1.9884501978317815e-07,1.4157800998226833e-07,0.0,-4.637589889888716e-08,0.0,-6.534369789701344e-08
7,0.01025,0.0642969,0.00461631,8.13152e-18,0.0172283,2.08631e-19,-1.25227e-20,3.02832e-07,-7.06269e-08,-9.95172e-08,2.15616e-07,2.29126e-25,-1.36391e-23,0.0,3.0283204588421597e-07,2.156160232580362e-07,0.0,-7.062689755255036e-08,0.0,-9.951719504019962e-08
8,0.01553,0.0974145,0.00699405,2.92735e-18,0.0261021,-1.49373e-19,3.02101e-19,4.58812e-07,-1.07003e-07,-1.50778e-07,3.26673e-07,-3.42531e-24,1.27835e-23,0.0,4.5881210519738147e-07,3.266730532747175e-07,0.0,-1.0700299424293291e-07,0.0,-1.5077798865004155e-07
9,0.023449,0.147091,0.0105607,6.39679e-18,0.0394129,6.16725e-19,5.07377e-19,6.92782e-07,-1.61575e-07,-2.2766e-07,4.93263e-07,1.27839e-23,3.42544e-24,0.0,6.927822400193406e-07,4.932631216814087e-07,0.0,-1.6157498694546746e-07,0.0,-2.2765997409468497e-07
10,0.035328,0.221605,0.0159106,-7.48099e-18,0.059379,8.22001e-19,-2.58722e-19,1.04374e-06,-2.43427e-07,-3.4299e-07,7.43145e-07,1.27839e-23,3.42544e-24,0.0,1.0437405446594994e-06,7.43145276205226e-07,0.0,-2.4342697035883987e-07,0.0,-3.429899412266124e-07
11,0.053146,0.333377,0.0239354,-3.52366e-17,0.0893282,1.43291e-18,1.54718e-18,1.57017e-06,-3.66206e-07,-5.15985e-07,1.11797e-06,-4.82329e-29,-1.2924e-29,0.0,1.570171232812001e-06,1.1179706249642152e-06,0.0,-3.662059329112566e-07,0.0,-5.159848668334632e-07
12,0.079874,0.501035,0.0359727,-2.13588e-17,0.134252,1.15921e-18,2.56864e-18,2.35982e-06,-5.50367e-07,-7.75483e-07,1.6802e-06,-4.1105e-23,1.53406e-22,0.0,2.3598227842924757e-06,1.6802014115580022e-06,0.0,-5.503668485395963e-07,0.0,-7.754826992778519e-07
13,0.12,0.752521,0.0540286,-7.48099e-18,0.201637,2.25401e-18,-1.51722e-18,3.54429e-06,-8.26616e-07,-1.16472e-06,2.52354e-06,-1.0888e-28,-2.91744e-29,0.0,3.544296280910686e-06,2.523543184196342e-06,0.0,-8.266156583669471e-07,0.0,-1.1647193217667606e-06
14,0.1801,1.12975,0.0811124,2.02746e-17,0.302715,9.8783e-18,2.71531e-18,5.321e-06,-1.241e-06,-1.74857e-06,3.78857e-06,1.53406e-22,4.11051e-23,0.0,5.321014156622894e-06,3.788577176644381e-06,0.0,-1.2409992299344808e-06,0.0,-1.7485684712381655e-06
15,0.2703,1.69559,0.121738,-7.48099e-18,0.454332,-5.51699e-18,2.96936e-18,7.98605e-06,-1.86256e-06,-2.62435e-06,5.6861e-06,6.26956e-28,1.67992e-28,0.0,7.986081888677887e-06,5.686116165914967e-06,0.0,-1.862558265397496e-06,0.0,-2.6243465564013135e-06
16,0.4056,2.54435,0.182676,4.92119e-16,0.681756,-3.36327e-19,-2.16935e-20,1.19836e-05,-2.79488e-06,-3.93804e-06,8.53236e-06,2.19228e-22,-8.18169e-22,0.0,1.1983671803550422e-05,8.532396400751097e-06,0.0,-2.7948760943363737e-06,0.0,-3.938032245964784e-06
17,0.6086,3.81748,0.274083,3.81097e-16,1.02289,-3.36325e-19,-2.16927e-20,1.79799e-05,-4.19337e-06,-5.90853e-06,1.28018e-05,9.49301e-23,4.63893e-22,0.0,1.79800616393333e-05,1.2801881943413917e-05,0.0,-4.1933612078270954e-06,0.0,-5.908512544672284e-06
18,0.913,5.72716,0.411192,4.92119e-16,1.53459,3.23501e-17,8.73662e-18,2.69743e-05,-6.2911e-06,-8.86425e-06,1.92058e-05,4.09074e-22,1.09611e-22,0.0,2.697466380974234e-05,1.920598443261312e-05,0.0,-6.291080211107136e-06,0.0,-8.864210712666853e-06
19,1.37,8.59165,0.616853,-1.28424e-15,2.30213,-3.36733e-19,-2.18022e-20,4.04657e-05,-9.43765e-06,-1.32978e-05,2.88117e-05,4.38461e-22,-1.63636e-21,0.0,4.0466518747450664e-05,2.8812115061116472e-05,0.0,-9.4376054655676e-06,0.0,-1.3297711584647764e-05
20,2.055,12.8883,0.925338,-5.059e-15,3.45341,6.94144e-17,1.1511e-18,6.07025e-05,-1.41574e-05,-1.99479e-05,4.32204e-05,-7.0378e-26,-1.88577e-26,0.0,6.070434243410361e-05,4.322133401490902e-05,0.0,-1.4157299784489652e-05,0.0,-1.994770104196686e-05
21,3.082,19.3331,1.38805,-2.81516e-14,5.18029,7.817e-17,-3.15365e-17,9.10568e-05,-2.12368e-05,-2.99229e-05,6.48327e-05,8.76832e-22,-3.2728e-21,0.0,9.106094579625079e-05,6.483480168495426e-05,0.0,-2.123657450070482e-05,0.0,-2.992245231447921e-05
22,4.623,116.413,8.35811,-1.03265e-09,31.1929,9.83292e-16,7.71529e-16,0.000548295,-0.000127877,-0.000180179,0.000390388,3.49743e-21,-1.3096e-20,0.0,0.0005484453411794821,0.0003904642113123913,0.0,-0.00012786882408488687,0.0,-0.00018016276873877857
23,6.935,262.609,18.8545,-9.04826e-07,70.3658,1.26247e-15,-2.74743e-16,0.00123686,-0.000288468,-0.000406453,0.000880648,1.40118e-20,-5.23908e-20,0.0,0.0012376252267900512,0.0008810358843047705,0.0,-0.0002884263971069112,0.0,-0.00040637040916957634
24,10.03,446.442,32.093,0.00245521,119.702,-0.0118309,-0.00316833,0.00215605,-0.000511257,-0.000723404,0.00153874,-1.52645e-07,-4.0935e-08,5.88495e-05,0.0021583759471202058,0.0015399244678453439,-1.526449883160197e-07,-0.000511126330409506,-4.093499916812959e-08,-0.0007231424064094716
25,13.12,468.018,33.7942,8.44349e-05,125.763,-0.121519,-0.032517,0.00307237,-0.000855008,-0.00125116,0.00223592,-2.19618e-06,-5.96148e-07,0.000956954,0.0030770945660076876,0.0022384215331852086,-2.196177588453807e-06,-0.0008546425848116046,-5.961478223293071e-07,-0.001250377625653054
26,16.21,485.784,35.1936,7.81668e-05,130.755,-0.211145,-0.0564721,0.00398763,-0.00120119,-0.00178333,0.00293366,-4.46311e-06,-1.21665e-06,0.00187392,0.003995591175064428,0.0029379673916087867,-4.463100040319468e-06,-0.0012004688600627533,-1.2166492598941758e-06,-0.0017817408118782074
27,19.3,500.928,36.3859,3.14359e-05,135.009,-0.286056,-0.0764775,0.00490184,-0.00154889,-0.00231839,0.00363167,-6.9254e-06,-1.89385e-06,0.00280355,0.004913873672036662,0.0036382725037800157,-6.925376019428775e-06,-0.0015476910889575812,-1.8938482067021312e-06,-0.0023157046095655387
28,22.39,514.155,37.4267,1.23211e-05,138.723,-0.350066,-0.0935593,0.00581502,-0.00189758,-0.00285541,0.00432977,-9.56153e-06,-2.62114e-06,0.00374217,0.005831960048455986,0.00433915699708276,-9.56148428876702e-06,-0.00189578073333585,-2.6211365647954565e-06,-0.002851337194298198
29,25.48,525.918,38.3516,3.30297e-06,142.025,-0.405742,-0.108407,0.00672719,-0.00224693,-0.00339379,0.00502781,-1.23519e-05,-3.39267e-06,0.00468742,0.006749868368023382,0.005040470646246131,-1.2351823715617272e-05,-0.0022444075424030707,-3.392664244872279e-06,-0.003388037604032612
30,28.57,536.524,39.1852,-1.88164e-06,145.001,-0.454868,-0.121501,0.00763835,-0.00259672,-0.00393314,0.00572572,-1.52793e-05,-4.20334e-06,0.0056377,0.0076675966132271345,0.005742143264802602,-1.5279183272043362e-05,-0.0025933514389882006,-4.203331166019453e-06,-0.003925415335584215
31,31.66,546.192,39.9447,-5.53254e-06,147.713,-0.498729,-0.133187,0.00854851,-0.00294679,-0.00447316,0.00642341,-1.83289e-05,-5.04881e-06,0.00659187,0.008585152851112277,0.006444084340897938,-1.8328732026784422e-05,-0.0029424524759847914,-5.04879725482521e-06,-0.004463170320502807
32,34.75,555.083,40.6429,-8.59578e-06,150.207,-0.538278,-0.143718,0.00945769,-0.00329701,-0.00501365,0.00712082,-2.14877e-05,-5.92534e-06,0.00754909,0.009502555279156777,0.0071462333241600895,-2.1487469140990534e-05,-0.00329158083084391,-5.925322445254899e-06,-0.005001102634962451
33,37.84,563.32,41.2895,-1.149e-05,152.517,-0.574236,-0.153289,0.0103659,-0.00364732,-0.00555445,0.00781792,-2.47448e-05,-6.82975e-06,0.00850872,0.010419812062728795,0.0078485597308382,-2.4744493849926386e-05,-0.0036406766077221597,-6.829726677315406e-06,-0.00553905256388576
34,40.93,570.998,41.8921,-1.44096e-05,154.67,-0.607162,-0.16205,0.0112731,-0.00399762,-0.00609542,0.00851466,-2.80907e-05,-7.75929e-06,0.00947027,0.011336880835731256,0.008551012821511605,-2.8090305460026777e-05,-0.003989640154173024,-7.759259896822357e-06,-0.006076880615083713
35,44.02,578.192,42.4566,-1.74465e-05,156.687,-0.637499,-0.17012,0.0121794,-0.00434789,-0.00663649,0.00921102,-3.15171e-05,-8.71158e-06,0.0104333,0.0122538709221236,0.009253571993462106,-3.1516603341441574e-05,-0.004338451610255589,-8.711542054284926e-06,-0.006614517134676867
36,47.11,584.964,42.9879,-2.06429e-05,158.586,-0.6656,-0.177592,0.0130847,-0.00469806,-0.00717756,0.00990696,-3.50167e-05,-9.68456e-06,0.0113976,0.013170679282158204,0.009956196388207106,-3.501608692246805e-05,-0.004687041378253709,-9.684513104790682e-06,-0.007151862833962852
37,50.2,591.363,43.4899,-2.4017e-05,160.38,-0.691754,-0.184544,0.0139891,-0.00504812,-0.00771857,0.0106025,-3.85833e-05,-1.06764e-05,0.0123629,0.014087405325532432,0.010658905673921915,-3.858255567401603e-05,-0.00503539965584221,-1.0676343007443023e-05,-0.007688858331586168
38,53.29,597.431,43.9659,-2.75747e-05,162.081,-0.716197,-0.19104,0.0148925,-0.00539803,-0.00825947,0.0112975,-4.22112e-05,-1.16856e-05,0.0133288,0.015003945826512766,0.011361557756680796,-4.2210309119772305e-05,-0.005383486816007865,-1.1685531723593101e-05,-0.008225454292654089
39,56.38,603.202,44.4185,-3.13153e-05,163.699,-0.739126,-0.197132,0.0157949,-0.00574776,-0.00880022,0.0119921,-4.58956e-05,-1.27106e-05,0.0142954,0.015920298783496545,0.012064293526577341,-4.589454681303007e-05,-0.005731273229947709,-1.2710519220693328e-05,-0.008761611401702285
40,59.47,608.706,44.8503,-3.52348e-05,165.241,-0.760708,-0.202865,0.0166965,-0.00609731,-0.00934077,0.0126862,-4.9632e-05,-1.37503e-05,0.0152623,0.016836665560948427,0.012767011202670986,-4.9630768352626475e-05,-0.006078759128004152,-1.3750205465012932e-05,-0.009297280521644358
41,62.56,613.968,45.263,-3.93277e-05,166.716,-0.781084,-0.208276,0.017597,-0.00644665,-0.00988109,0.0133798,-5.34166e-05,-1.48035e-05,0.0162295,0.017752739378618543,0.01346971006943698,-5.341517335877288e-05,-0.006425914933055332,-1.480339042869705e-05,-0.009832432425374793
42,65.65,619.01,45.6585,-4.35878e-05,168.13,-0.800373,-0.213398,0.0184967,-0.00679577,-0.0104212,0.0140729,-5.72458e-05,-1.58692e-05,0.0171969,0.018668823556910796,0.014172389410882058,-5.724416149044398e-05,-0.006772730973903185,-1.5869074084906565e-05,-0.010367087431042643
43,68.74,623.85,46.0382,-4.80088e-05,169.486,-0.818679,-0.218258,0.0193954,-0.00714466,-0.010961,0.0147655,-6.11164e-05,-1.69465e-05,0.0181643,0.019584712721793407,0.014875048510545552,-6.111453243085041e-05,-0.007119197592909909,-1.694635640892006e-05,-0.010901147121568977
44,71.83,628.505,46.4034,-5.25844e-05,170.792,-0.836092,-0.222879,0.0202933,-0.0074933,-0.0115005,0.0154576,-6.50256e-05,-1.80347e-05,0.0191318,0.020500608965430267,0.015577686651501166,-6.502348588144358e-05,-0.0074652952206168965,-1.8034537375810622e-05,-0.011434622034899644
45,74.92,632.99,46.7553,-5.73086e-05,172.049,-0.85269,-0.227284,0.0211902,-0.0078417,-0.0120397,0.0161491,-6.89707e-05,-1.9133e-05,0.0200991,0.021416306544806085,0.01628020148833209,-6.896832157599064e-05,-0.007811034080555501,-1.9132816965306e-05,-0.011967512806435487
46,78.01,637.318,47.0949,-6.21758e-05,173.262,-0.868542,-0.23149,0.0220861,-0.00818983,-0.0125785,0.0168402,-7.29495e-05,-2.02406e-05,0.0210663,0.022331803449443965,0.01698279548897319,-7.294683924985446e-05,-0.008156384708316033,-2.0240395160464608e-05,-0.012499721320686219
47,81.1,641.499,47.423,-6.71806e-05,174.434,-0.883709,-0.235514,0.0229812,-0.0085377,-0.013117,0.0175306,-7.69598e-05,-2.13571e-05,0.0220333,0.02324730231710448,0.017685162840289648,-7.695683867059433e-05,-0.00850135734047397,-2.1356871938715827e-05,-0.013031347067675947
48,84.19,645.544,47.7405,-7.2318e-05,175.569,-0.898243,-0.23937,0.0238753,-0.0088853,-0.0136552,0.0182205,-8.09995e-05,-2.24818e-05,0.023,0.024162596851552864,0.0183875060795764,-8.099621962909254e-05,-0.008845942376313642,-2.248154728623497e-05,-0.013562390680029512
49,87.28,649.462,48.0481,-7.75833e-05,176.667,-0.912194,-0.24307,0.0247686,-0.00923262,-0.014193,0.0189099,-8.50668e-05,-2.36143e-05,0.0239664,0.0250778900541635,0.019089824487606766,-8.50631819223624e-05,-0.009190130228485027,-2.3614021184559242e-05,-0.014092754198788526
50,90.37,653.261,48.3464,-8.29722e-05,177.733,-0.925603,-0.246626,0.0256609,-0.00957967,-0.0147304,0.0195987,-8.91602e-05,-2.4754e-05,0.0249324,0.025992975260007656,0.01979201536548958,-8.915622534744205e-05,-0.009533931132286733,-2.475369362231472e-05,-0.014622438413785854
51,93.46,656.949,48.6361,-8.84806e-05,178.767,-0.93851,-0.250048,0.0265524,-0.00992642,-0.0152674,0.020287,-9.3278e-05,-2.59005e-05,0.0258981,0.026908055834011124,0.020494179831845427,-9.327364974254237e-05,-0.009877315703925804,-2.590016458492439e-05,-0.015151444113614798
52,96.55,660.533,48.9176,-9.41046e-05,179.773,-0.950947,-0.253346,0.0274429,-0.0102729,-0.015804,0.0209746,-9.74189e-05,-2.70535e-05,0.0268634,0.027822924742655797,0.021196112926840094,-9.741415493302874e-05,-0.010220313987126861,-2.7053134057375416e-05,-0.015679772085631316
53,99.64,664.018,49.1914,-9.98408e-05,180.75,-0.962948,-0.256527,0.0283326,-0.0106191,-0.0163403,0.0216618,-0.000101581,-2.82125e-05,0.0278282,0.028737785714354924,0.021898120077673777,-0.0001015758408249301,-0.010562916406523737,-2.8212102031188735e-05,-0.016207521495208432
54,102.7,667.41,49.458,-0.000105686,181.702,-0.974539,-0.2596,0.0292213,-0.0109649,-0.0168761,0.0223483,-0.000105764,-2.93773e-05,0.0287925,0.029652431347108266,0.022599893993442643,-0.00010575840718529683,-0.01090500459957311,-2.9376868491359787e-05,-0.016734496316029857
55,105.8,670.715,49.7177,-0.000111637,182.629,-0.985746,-0.262571,0.0301092,-0.0113105,-0.0174115,0.0230343,-0.000109967,-3.05474e-05,0.0297563,0.0305670657327477,0.023301638191462137,-0.00010996095385107374,-0.011246776768350952,-3.054693343296222e-05,-0.017260795763767822
56,108.9,673.936,49.971,-0.00011769,183.533,-0.996593,-0.265446,0.0309961,-0.0116558,-0.0179465,0.0237197,-0.000114188,-3.17227e-05,0.0307196,0.0314814811009021,0.02400324954902433,-0.00011418148079844759,-0.011588134317560117,-3.172219684044464e-05,-0.017786420620847787
57,112.0,677.079,50.2181,-0.000123844,184.415,-1.0071,-0.268231,0.0318822,-0.0120008,-0.0184811,0.0244046,-0.000118426,-3.29027e-05,0.0316824,0.032395881906752244,0.024704829603305,-0.00011841898791797867,-0.011929077595123405,-3.290215871210034e-05,-0.018311371668466303
58,115.1,680.147,50.4594,-0.000130095,185.276,-1.01729,-0.270931,0.0327674,-0.0123455,-0.0190152,0.0250888,-0.00012268,-3.40874e-05,0.0326446,0.03331016334267867,0.025406172549781614,-0.00012267247511643653,-0.01226960694847068,-3.408681903116495e-05,-0.018835551570154818
59,118.2,683.144,50.6952,-0.000136441,186.118,-1.02718,-0.273551,0.0336517,-0.0126899,-0.0195489,0.0257725,-0.00012695,-3.52763e-05,0.0336062,0.034224323656533606,0.02610748246542971,-0.00012694194218965116,-0.012609722724539307,-3.5275677798596305e-05,-0.019359059325811057
60,121.3,686.074,50.9258,-0.000142879,186.94,-1.03678,-0.276096,0.0345352,-0.0130339,-0.0200822,0.0264556,-0.000131235,-3.64694e-05,0.0345672,0.03513846460878711,0.026808655945238513,-0.00013122638906404305,-0.012949326564712593,-3.6468734999517416e-05,-0.019881895712758446
61,124.4,688.939,51.1513,-0.000149409,187.745,-1.04612,-0.278569,0.0354177,-0.0133777,-0.020615,0.0271381,-0.000135533,-3.76663e-05,0.0355276,0.036052377508558164,0.02750969205428122,-0.00013552381581782846,-0.013288616258999242,-3.766559063378416e-05,-0.020403963547501403
62,127.4,691.742,51.372,-0.000156027,188.532,-1.05519,-0.280974,0.0362994,-0.0137211,-0.0211474,0.0278201,-0.000139845,-3.88669e-05,0.0364874,0.036966267719102275,0.028210692678303895,-0.0001398352221437804,-0.013627394776575152,-3.8866144691840354e-05,-0.02092536166881287
63,130.5,694.487,51.5882,-0.000162732,189.303,-1.06403,-0.283315,0.0371802,-0.0140643,-0.0216794,0.0285015,-0.000144169,-4.0071e-05,0.0374465,0.03788002996952877,0.028911554200697687,-0.00014415860814909198,-0.013965859770772693,-4.007019716822935e-05,-0.02144609085016136
64,133.6,697.175,51.8,-0.000169521,190.058,-1.07264,-0.285595,0.0380601,-0.0144071,-0.0222109,0.0291822,-0.000148506,-4.12785e-05,0.038405,0.038793662501585,0.029612172724103658,-0.00014849497352975582,-0.014303814345319688,-4.1277648054394156e-05,-0.021966054060410745
65,136.7,699.81,52.0076,-0.000176394,190.798,-1.08102,-0.287817,0.0389392,-0.0147497,-0.022742,0.0298624,-0.000152853,-4.24891e-05,0.0393629,0.0397072675265413,0.030312753164386752,-0.00015284131857529193,-0.014641456017204124,-4.248819735097609e-05,-0.022485349977862112
66,139.8,702.392,52.2112,-0.000183348,191.524,-1.0892,-0.289983,0.0398174,-0.0150919,-0.0232726,0.030542,-0.000157212,-4.37026e-05,0.04032,0.04062073949571654,0.031013191693491038,-0.0001571996428409994,-0.01497858802437868,-4.370164505529406e-05,-0.02300388167253975
67,142.9,704.926,52.4109,-0.000190382,192.236,-1.09718,-0.292097,0.0406947,-0.0154338,-0.0238028,0.0312211,-0.00016158,-4.49191e-05,0.0412765,0.04153407664723807,0.03171359054548328,-0.00016156694665481197,-0.015315309279354428,-4.4918091152368333e-05,-0.023521747716057195
68,146.0,707.412,52.607,-0.000197495,192.935,-1.10498,-0.294161,0.0415712,-0.0157754,-0.0243325,0.0318995,-0.000165959,-4.61382e-05,0.0422323,0.04244738146278415,0.03241374251000306,-0.0001659452295669217,-0.01565162012454191,-4.613713564960431e-05,-0.024038851279322593
69,149.1,709.852,52.7995,-0.000204685,193.62,-1.11259,-0.296177,0.0424468,-0.0161166,-0.0248617,0.0325774,-0.000170347,-4.73599e-05,0.0431874,0.04336054811601198,0.033113853061710774,-0.00017033249177356158,-0.015987422500612136,-4.7358778537676116e-05,-0.0245551932830812
70,152.2,712.248,52.9886,-0.00021195,194.294,-1.12002,-0.298147,0.0433216,-0.0164576,-0.0253906,0.0332546,-0.000174743,-4.8584e-05,0.0441418,0.04427367926883674,0.033813714709411746,-0.0001747277333311592,-0.016322913585058663,-4.85828198165672e-05,-0.025070969632274842
71,155.3,714.602,53.1744,-0.00021929,194.956,-1.1273,-0.300073,0.0441955,-0.0167982,-0.0259189,0.0339313,-0.000179148,-4.98105e-05,0.0450955,0.04518666890986944,0.034513533207039204,-0.00017913195395524717,-0.016657896949786255,-4.980925947761783e-05,-0.025585888611193486
72,158.3,716.915,53.357,-0.000226704,195.606,-1.13441,-0.301957,0.0450685,-0.0171386,-0.0264468,0.0346074,-0.000183561,-5.10392e-05,0.0460485,0.04609951527128886,0.03521320430400232,-0.0001835441537103577,-0.016992569637141464,-5.1037897522143716e-05,-0.026100146070396568
73,161.4,719.189,53.5366,-0.00023419,196.246,-1.14137,-0.303801,0.0459407,-0.0174786,-0.0269742,0.0352829,-0.000187981,-5.227e-05,0.0470007,0.04701232128534438,0.03591272706072157,-0.00018796333267878662,-0.017326735352074185,-5.226863394736103e-05,-0.026613645431675104
74,164.5,721.425,53.7132,-0.000241746,196.875,-1.14819,-0.305606,0.046812,-0.0178183,-0.0275012,0.0359578,-0.000192409,-5.35028e-05,0.0479523,0.04792498066320028,0.03661210053724795,-0.00019239049057540036,-0.0176604927681685,-5.350136875070799e-05,-0.02712648489546443
75,167.6,723.624,53.887,-0.000249373,197.494,-1.15487,-0.307375,0.0476825,-0.0181577,-0.0280277,0.0366322,-0.000196844,-5.47375e-05,0.0489031,0.04883759651728847,0.03731142752440508,-0.00019682462749093244,-0.017993842224320322,-5.473600193039996e-05,-0.02763856798346498
76,170.7,725.788,54.0581,-0.000257069,198.103,-1.16141,-0.309107,0.0485521,-0.0184968,-0.0285538,0.0373059,-0.000201285,-5.5974e-05,0.0498531,0.04975006237387358,0.03801049968914594,-0.00020126474353343582,-0.018326784058943613,-5.597243348487435e-05,-0.02814999279075725
77,173.8,727.917,54.2265,-0.000264834,198.702,-1.16782,-0.310806,0.0494209,-0.0188355,-0.0290794,0.0379791,-0.000205732,-5.72123e-05,0.0508025,0.050662481525551195,0.038709523622592945,-0.0002057108386231965,-0.018659220475897742,-5.721066340758085e-05,-0.02866066293867542
78,176.9,730.014,54.3923,-0.000272665,199.292,-1.17412,-0.312472,0.0502888,-0.019174,-0.0296045,0.0386517,-0.000210186,-5.84521e-05,0.051751,0.051574747313742675,0.03940839465216195,-0.00021016391247019595,-0.0189913481139925,-5.8450391709263805e-05,-0.029170579334299895
79,180.0,732.078,54.5557,-0.000280563,199.873,-1.18029,-0.314107,0.0511559,-0.0195121,-0.0301292,0.0393236,-0.000214645,-5.96936e-05,0.0526989,0.05248696321118551,0.04010700782534182,-0.00021462196541000012,-0.019322971075174444,-5.969181837250925e-05,-0.029679839915126238
80,183.1,734.112,54.7166,-0.000288526,200.446,-1.18635,-0.315711,0.0520222,-0.01985,-0.0306534,0.039995,-0.000219109,-6.09365e-05,0.0536459,0.053399127714423456,0.040805570151527526,-0.00021908499737610665,-0.019654285864462162,-6.093464340917176e-05,-0.03018834845131091
81,186.2,736.115,54.8752,-0.000296555,201.01,-1.19229,-0.317286,0.0528876,-0.0201875,-0.0311772,0.0406659,-0.000223579,-6.21809e-05,0.0545923,0.05431113388770026,0.04150408089777158,-0.0002235540080779419,-0.01998509671551174,-6.217896680793533e-05,-0.03069620277573315
82,189.2,738.09,55.0316,-0.000304647,201.566,-1.19813,-0.318833,0.0537522,-0.0205247,-0.0317005,0.0413361,-0.000228053,-6.34266e-05,0.0555378,0.055223085473921074,0.04220233089022574,-0.00022802699789115088,-0.020315502031432287,-6.34245885756668e-05,-0.0312033067574915
83,192.3,740.036,55.1858,-0.000312803,202.114,-1.20387,-0.320353,0.054616,-0.0208615,-0.0322233,0.0420057,-0.000232532,-6.46735e-05,0.0564826,0.05613498096611558,0.04290042326623378,-0.0002325049665298229,-0.020645404211702467,-6.467140871424526e-05,-0.031709661296109415
84,195.4,741.955,55.3378,-0.000321021,202.655,-1.20951,-0.321846,0.0554789,-0.0211981,-0.0327456,0.0426748,-0.000237015,-6.59217e-05,0.0574267,0.05704671315146981,0.0435984614420708,-0.0002369869141637393,-0.02097499949464665,-6.591952721246574e-05,-0.03221526728951518
85,198.5,743.847,55.4878,-0.000329302,203.188,-1.21506,-0.323314,0.056341,-0.0215344,-0.0332675,0.0433433,-0.000241503,-6.7171e-05,0.05837,0.05795838604301351,0.044296340253547895,-0.00024147384049788556,-0.021304190245789445,-6.716874407886042e-05,-0.03272022236202887
86,201.6,745.713,55.6358,-0.000337643,203.714,-1.22051,-0.324758,0.0572022,-0.0218703,-0.033789,0.0440112,-0.000245994,-6.84215e-05,0.0593125,0.0588698922433073,0.04499405875635998,-0.0002459637459567565,-0.02163287896192534,-6.841915930255738e-05,-0.03322452725713654
87,204.7,747.554,55.7818,-0.000346046,204.233,-1.22587,-0.326179,0.0580626,-0.0222059,-0.0343099,0.0446785,-0.000250489,-6.96729e-05,0.0602542,0.05978133594544688,0.045691616005860025,-0.0002504576302496675,-0.021961163878455703,-6.967047289985207e-05,-0.03372798946277267
88,207.8,749.371,55.9259,-0.000354509,204.745,-1.23115,-0.327576,0.0589222,-0.0225412,-0.0348305,0.0453452,-0.000254988,-7.09254e-05,0.0611952,0.060692715636697425,0.04638901105705928,-0.0002549554933228837,-0.022289045327810286,-7.092288485321951e-05,-0.03423089975255167
89,210.9,751.164,56.0682,-0.000363031,205.25,-1.23634,-0.328952,0.059781,-0.0228762,-0.0353505,0.0460113,-0.000259491,-7.21788e-05,0.0621353,0.061604029803178806,0.04708624296463171,-0.00025945733512233726,-0.02261652364194533,-7.217619517307927e-05,-0.03473296913532753
90,214.0,752.933,56.2087,-0.000371613,205.75,-1.24146,-0.330306,0.060639,-0.0232109,-0.0358701,0.0466769,-0.000263996,-7.34331e-05,0.0630748,0.06251527692986492,0.04778341556125043,-0.000263961156122261,-0.022943599152342342,-7.343040385587862e-05,-0.0352343916037261
91,217.1,754.681,56.3475,-0.000380253,206.242,-1.24649,-0.33164,0.0614961,-0.0235453,-0.0363892,0.0473419,-0.000268505,-7.46882e-05,0.0640134,0.06342634915795053,0.048480423261973105,-0.00026846895575849405,-0.023270272190009655,-7.468541090582814e-05,-0.03573507146834265
92,220.1,756.406,56.4845,-0.000388952,206.729,-1.25145,-0.332953,0.0623524,-0.0238794,-0.0369079,0.0480063,-0.000273016,-7.59441e-05,0.0649512,0.06433735113056316,0.04917726512042009,-0.00027297873452325483,-0.02359654308548298,-7.59412163198192e-05,-0.03623510599160762
93,223.2,758.11,56.6199,-0.000397708,207.21,-1.25634,-0.334248,0.0632079,-0.0242131,-0.0374261,0.0486701,-0.00027753,-7.72007e-05,0.0658883,0.06524828132929006,0.049873940189881116,-0.0002774914921119809,-0.02392231456106164,-7.71977201026175e-05,-0.036734399581540345
94,226.3,759.793,56.7537,-0.000406522,207.685,-1.26116,-0.335524,0.0640626,-0.0245466,-0.0379438,0.0493333,-0.000282047,-7.84581e-05,0.0668246,0.06615913823459163,0.05057044752331774,-0.00028200722848414905,-0.02424778219441104,-7.845502224379519e-05,-0.03723295312115826
95,229.4,761.456,56.8859,-0.000415392,208.154,-1.26591,-0.336781,0.0649164,-0.0248797,-0.0384611,0.049996,-0.000286566,-7.97162e-05,0.0677601,0.06706981361881614,0.05126689130004891,-0.00028652494388570204,-0.02457275113158086,-7.971302274811798e-05,-0.03773086371882928
96,232.5,763.099,57.0166,-0.000424319,208.618,-1.27059,-0.338021,0.0657695,-0.0252125,-0.0389779,0.050658,-0.000291087,-8.09748e-05,0.0686949,0.06798051928308246,0.05196306038863319,-0.00029104463828966143,-0.024897319308863963,-8.097152162933607e-05,-0.03822803592809498
97,235.6,764.723,57.1458,-0.000433302,209.076,-1.27521,-0.339244,0.0666217,-0.0255451,-0.0394942,0.0513195,-0.000295611,-8.22341e-05,0.0696288,0.06889104019947312,0.05265916416402061,-0.0002955673113733681,-0.02522158453216583,-8.223071886903632e-05,-0.03872447062749995
98,238.7,766.328,57.2736,-0.000442341,209.529,-1.27976,-0.340451,0.0674732,-0.0258773,-0.0400101,0.0519805,-0.000300137,-8.34939e-05,0.070562,0.06980158853113894,0.053355201886657655,-0.0003000919633964205,-0.02554535214100695,-8.349041448130201e-05,-0.03922026477200735
99,241.8,767.915,57.3999,-0.000451435,209.977,-1.28426,-0.341641,0.0683238,-0.0262092,-0.0405255,0.0526408,-0.000304664,-8.47543e-05,0.0714943,0.07071194888371268,0.05405096200638759,-0.0003046175946364027,-0.025868719972771292,-8.475070845570531e-05,-0.03971532306006409
100,244.9,769.483,57.5248,-0.000460584,210.42,-1.28869,-0.342816,0.0691736,-0.0265407,-0.0410405,0.0533006,-0.000309194,-8.60151e-05,0.0724259,0.07162222662010387,0.05474665431477388,-0.00030914620446143015,-0.02619159097327517,-8.601140080732872e-05,-0.040209742344794686
101,248.0,771.034,57.6483,-0.000469788,210.858,-1.29307,-0.343976,0.0700226,-0.026872,-0.041555,0.0539597,-0.000313725,-8.72765e-05,0.0733567,0.07253242021301198,0.05544206698270271,-0.0003136757934582013,-0.026514160262632647,-8.727269151709294e-05,-0.0407034274209821
102,251.0,772.568,57.7706,-0.000479047,211.292,-1.29739,-0.345122,0.0708708,-0.027203,-0.0420691,0.0546184,-0.000318258,-8.85382e-05,0.0742867,0.07344252813404184,0.05613751569311165,-0.0003182073612949532,-0.02683633075342795,-8.853428060917601e-05,-0.04119647504019519
103,254.1,774.086,57.8915,-0.000488359,211.721,-1.30166,-0.346253,0.0717182,-0.0275337,-0.0425826,0.0552764,-0.000322792,-8.98004e-05,0.075216,0.07435254885370535,0.056832682863354744,-0.00032273990826747756,-0.02715810277091213,-8.979636806472069e-05,-0.04168869426216093
104,257.2,775.587,58.0112,-0.000497726,212.145,-1.30588,-0.34737,0.0725648,-0.027864,-0.0430958,0.0559338,-0.000327327,-9.10629e-05,0.0761444,0.07526248084142728,0.05752767308732598,-0.00032727343436222966,-0.027479379387812752,-9.105875389991969e-05,-0.04218037344859504
105,260.3,777.072,58.1296,-0.000507146,212.564,-1.31005,-0.348474,0.0734106,-0.0281941,-0.0436084,0.0565907,-0.000331864,-9.23258e-05,0.0770721,0.07617232256554796,0.0582225912366543,-0.00033180893923390187,-0.027800355464660753,-9.23215381044562e-05,-0.042671225972915394
106,263.4,778.541,58.2468,-0.000516619,212.98,-1.31417,-0.349565,0.0742556,-0.0285238,-0.0441206,0.0572471,-0.000336402,-9.3589e-05,0.0779989,0.07708207249332832,0.058917436568831194,-0.00033634542319171956,-0.0281208368532041,-9.358462068609352e-05,-0.04316144421536294
107,266.5,779.995,58.3628,-0.000526146,213.391,-1.31823,-0.350643,0.0750998,-0.0288532,-0.0446324,0.0579028,-0.000340942,-9.48525e-05,0.078925,0.07799172909095309,0.05961199641855108,-0.00034088388588104923,-0.02844092112877028,-9.484800164383245e-05,-0.04365102889280781
108,269.6,781.434,58.4777,-0.000535725,213.798,-1.32226,-0.351709,0.0759433,-0.0291824,-0.0451437,0.058558,-0.000345482,-9.61163e-05,0.0798503,0.07890139871366952,0.06030648168713393,-0.00034542232796608285,-0.028760705738099968,-9.611168097645173e-05,-0.044139885134986345
109,272.7,782.858,58.5914,-0.000545358,214.2,-1.32623,-0.352762,0.0767859,-0.0295112,-0.0456545,0.0592126,-0.000350023,-9.73804e-05,0.0807748,0.07981086413619987,0.061000785530902046,-0.0003499617490965168,-0.02907999672373862,-9.737565868273013e-05,-0.04462801380298431
110,275.8,784.268,58.704,-0.000555042,214.599,-1.33017,-0.353804,0.0776277,-0.0298397,-0.0461649,0.0598666,-0.000354565,-9.86447e-05,0.0816985,0.08072023162070385,0.06169490699761826,-0.00035450214925902834,-0.029398891563469753,-9.863983477154115e-05,-0.04511551124480895
111,278.9,785.664,58.8155,-0.000564779,214.994,-1.33406,-0.354835,0.0784688,-0.030168,-0.0466748,0.06052,-0.000359108,-9.99092e-05,0.0826214,0.08162960779205752,0.0623888451347514,-0.0003590435284399618,-0.029717487606967352,-9.990420924210763e-05,-0.04560228273268774
112,281.9,787.046,58.9259,-0.000574568,215.385,-1.33791,-0.355855,0.079309,-0.0304959,-0.0471843,0.0611729,-0.000363651,-0.000101174,0.0835435,0.08253877487613193,0.06308270529774207,-0.0003635848869893987,-0.030035591086865487,-0.00010116888208344665,-0.046088424514500015
113,285.0,788.414,59.0354,-0.000584409,215.772,-1.34172,-0.356864,0.0801485,-0.0308235,-0.0476933,0.0618253,-0.000368195,-0.000102439,0.0844649,0.08344794774955822,0.06377648674157732,-0.00036812722453938296,-0.030353299383764965,-0.00010243375330476479,-0.04657384195720293
114,288.1,789.77,59.1437,-0.000594302,216.156,-1.34548,-0.357863,0.0809872,-0.0311508,-0.0482019,0.062477,-0.00037274,-0.000103704,0.0853854,0.08435701670811557,0.06446997582686098,-0.0003726705410764808,-0.03067061281770056,-0.0001036986229260295,-0.047058631208826585
115,291.2,791.112,59.2511,-0.000604247,216.536,-1.34921,-0.358851,0.0818251,-0.0314778,-0.04871,0.0631282,-0.000377285,-0.000104969,0.0863052,0.08526598020949394,0.0651633844244548,-0.0003772138369642075,-0.03098753170824675,-0.00010496349094724078,-0.047542697730795336
116,294.3,792.442,59.3575,-0.000614243,216.912,-1.35291,-0.35983,0.0826622,-0.0318045,-0.0492177,0.0637788,-0.000381831,-0.000106234,0.0872242,0.08617483671034365,0.06585660520262815,-0.00038175811182106223,-0.03130405637451783,-0.00010622835736839864,-0.048026137571569594
117,297.4,793.759,59.4629,-0.00062429,217.285,-1.35656,-0.360798,0.0834986,-0.0321309,-0.0497249,0.0644289,-0.000386377,-0.0001075,0.0881424,0.08708369337464128,0.06654974386197998,-0.000386302366019442,-0.03162018713517056,-0.00010749422208200521,-0.04850885628677881
118,300.5,795.064,59.5673,-0.000634389,217.655,-1.36018,-0.361758,0.0843342,-0.032457,-0.0502316,0.0650784,-0.000390924,-0.000108765,0.0890598,0.0879924401303438,0.06724269293146867,-0.00039084759916896417,-0.03193592430840153,-0.00010875908530183498,-0.048990854724681454
119,303.6,796.357,59.6709,-0.000644539,218.021,-1.36377,-0.362708,0.0851689,-0.0327828,-0.0507379,0.0657273,-0.00039547,-0.000110031,0.0899764,0.08890096654086865,0.06793545145610658,-0.0003953918120469524,-0.03225126821195079,-0.00011002494681144892,-0.04947222878480806
120,306.7,797.638,59.7735,-0.00065474,218.384,-1.36732,-0.36365,0.086003,-0.0331083,-0.0512438,0.0663757,-0.000400017,-0.000111296,0.0908922,0.08980959772901786,0.0686281253434371,-0.00039993700386686815,-0.03256621916309976,-0.0001112898068299506,-0.04995297916820296
121,309.0,798.598,59.8505,-0.000666418,218.656,-1.36998,-0.364355,0.0866326,-0.033354,-0.0516257,0.0668652,-0.000403452,-0.000112252,0.0915837,0.09049595789525577,0.06915134685881119,-0.00040337062418582814,-0.03280388844418436,-0.00011224569997991818,-0.05031573285323354
