,Time,S11,S22,S33,S12,S13,S23,LE11,LE22,LE33,LE12,LE13,LE23,SDV_EPBAR,E11,E12,E13,E22,E23,E33
0,0.000309,0.0019383,0.000139163,-7.79048e-12,0.000519365,9.3624e-20,3.36396e-20,9.1292e-09,-2.12864e-09,-3.00057e-09,6.49972e-09,9.45271e-25,4.67314e-25,0.0,9.129200062574228e-09,6.499720095476391e-09,0.0,-2.128640042009522e-09,0.0,-3.0005700146773506e-09
1,0.000618,0.00387659,0.000278327,3.25261e-19,0.00103873,3.61973e-20,-7.40724e-21,1.82584e-08,-4.2578e-09,-6.00057e-09,1.29997e-08,9.27189e-26,4.52981e-25,0.0,1.8258400125148455e-08,1.2999699983140545e-08,0.0,-4.257800001461476e-09,0.0,-6.000569929831556e-09
2,0.0010815,0.00678404,0.000487072,3.25261e-19,0.00181778,-8.55315e-21,3.19208e-20,3.19522e-08,-7.45077e-09,-1.05014e-08,2.27493e-08,2.14063e-25,-7.98907e-25,0.0,3.19522004410544e-08,2.2749300221391877e-08,0.0,-7.45077000097183e-09,0.0,-1.0501399971829528e-08
3,0.0017767,0.0111452,0.00080019,7.58942e-19,0.00298635,8.55315e-21,-3.19208e-20,5.24927e-08,-1.22421e-08,-1.72507e-08,3.73747e-08,4.28159e-25,-1.59792e-24,0.0,5.249270129681349e-08,3.737470066766946e-08,0.0,-1.2242099889370195e-08,0.0,-1.725069986857619e-08
4,0.0028196,0.017687,0.00126987,-2.27682e-18,0.00473921,-1.65988e-27,-4.44764e-28,8.33037e-08,-1.94275e-08,-2.73762e-08,5.93119e-08,1.2845e-24,-4.79383e-24,0.0,8.33037034908557e-08,5.931190183439128e-08,0.0,-1.9427499831081718e-08,0.0,-2.7376199640549714e-08
5,0.0043839,0.0274996,0.00197438,-4.01155e-18,0.00736849,1.71063e-20,-6.38416e-20,1.2952e-07,-3.02058e-08,-4.25643e-08,9.22178e-08,-1.48338e-24,-7.24799e-24,0.0,1.295200084960868e-07,9.221780428170234e-08,0.0,-3.0205799528282284e-08,0.0,-4.256429908533477e-08
6,0.0067304,0.0422185,0.00303115,-4.01155e-18,0.0113124,1.74418e-19,1.1516e-19,1.98845e-07,-4.63759e-08,-6.53437e-08,1.41578e-07,3.19598e-24,8.5636e-25,0.0,1.9884501978317815e-07,1.4157800998226833e-07,0.0,-4.637589889888716e-08,0.0,-6.534369789701344e-08
7,0.01025,0.0642969,0.00461631,8.13152e-18,0.0172283,2.08631e-19,-1.25227e-20,3.02832e-07,-7.06269e-08,-9.95172e-08,2.15616e-07,2.29126e-25,-1.36391e-23,0.0,3.0283204588421597e-07,2.156160232580362e-07,0.0,-7.062689755255036e-08,0.0,-9.951719504019962e-08
8,0.01553,0.0974145,0.00699405,2.92735e-18,0.0261021,-1.49373e-19,3.02101e-19,4.58812e-07,-1.07003e-07,-1.50778e-07,3.26673e-07,-3.42531e-24,1.27835e-23,0.0,4.5881210519738147e-07,3.266730532747175e-07,0.0,-1.0700299424293291e-07,0.0,-1.5077798865004155e-07
9,0.023449,0.147091,0.0105607,6.39679e-18,0.0394129,6.16725e-19,5.07377e-19,6.92782e-07,-1.61575e-07,-2.2766e-07,4.93263e-07,1.27839e-23,3.42544e-24,0.0,6.927822400193406e-07,4.932631216814087e-07,0.0,-1.6157498694546746e-07,0.0,-2.2765997409468497e-07
10,0.035328,0.221605,0.0159106,-7.48099e-18,0.059379,8.22001e-19,-2.58722e-19,1.04374e-06,-2.43427e-07,-3.4299e-07,7.43145e-07,1.27839e-23,3.42544e-24,0.0,1.0437405446594994e-06,7.43145276205226e-07,0.0,-2.4342697035883987e-07,0.0,-3.429899412266124e-07
11,0.053146,0.333377,0.0239354,-3.52366e-17,0.0893282,1.43291e-18,1.54718e-18,1.57017e-06,-3.66206e-07,-5.15985e-07,1.11797e-06,-4.82329e-29,-1.2924e-29,0.0,1.570171232812001e-06,1.1179706249642152e-06,0.0,-3.662059329112566e-07,0.0,-5.159848668334632e-07
12,0.079874,0.501035,0.0359727,-2.13588e-17,0.134252,1.15921e-18,2.56864e-18,2.35982e-06,-5.50367e-07,-7.75483e-07,1.6802e-06,-4.1105e-23,1.53406e-22,0.0,2.3598227842924757e-06,1.6802014115580022e-06,0.0,-5.503668485395963e-07,0.0,-7.754826992778519e-07
13,0.12,0.752521,0.0540286,-7.48099e-18,0.201637,2.25401e-18,-1.51722e-18,3.54429e-06,-8.26616e-07,-1.16472e-06,2.52354e-06,-1.0888e-28,-2.91744e-29,0.0,3.544296280910686e-06,2.523543184196342e-06,0.0,-8.266156583669471e-07,0.0,-1.1647193217667606e-06
14,0.1801,1.12975,0.0811124,2.02746e-17,0.302715,9.8783e-18,2.71531e-18,5.321e-06,-1.241e-06,-1.74857e-06,3.78857e-06,1.53406e-22,4.11051e-23,0.0,5.321014156622894e-06,3.788577176644381e-06,0.0,-1.2409992299344808e-06,0.0,-1.7485684712381655e-06
15,0.2703,1.69559,0.121738,-7.48099e-18,0.454332,-5.51699e-18,2.96936e-18,7.98605e-06,-1.86256e-06,-2.62435e-06,5.6861e-06,6.26956e-28,1.67992e-28,0.0,7.986081888677887e-06,5.686116165914967e-06,0.0,-1.862558265397496e-06,0.0,-2.6243465564013135e-06
16,0.4056,2.54435,0.182676,4.92119e-16,0.681756,-3.36327e-19,-2.16935e-20,1.19836e-05,-2.79488e-06,-3.93804e-06,8.53236e-06,2.19228e-22,-8.18169e-22,0.0,1.1983671803550422e-05,8.532396400751097e-06,0.0,-2.7948760943363737e-06,0.0,-3.938032245964784e-06
17,0.6086,3.81748,0.274083,3.81097e-16,1.02289,-3.36325e-19,-2.16927e-20,1.79799e-05,-4.19337e-06,-5.90853e-06,1.28018e-05,9.49301e-23,4.63893e-22,0.0,1.79800616393333e-05,1.2801881943413917e-05,0.0,-4.1933612078270954e-06,0.0,-5.908512544672284e-06
18,0.913,5.72716,0.411192,4.92119e-16,1.53459,3.23501e-17,8.73662e-18,2.69743e-05,-6.2911e-06,-8.86425e-06,1.92058e-05,4.09074e-22,1.09611e-22,0.0,2.697466380974234e-05,1.920598443261312e-05,0.0,-6.291080211107136e-06,0.0,-8.864210712666853e-06
19,1.37,8.59165,0.616853,-1.28424e-15,2.30213,-3.36733e-19,-2.18022e-20,4.04657e-05,-9.43765e-06,-1.32978e-05,2.88117e-05,4.38461e-22,-1.63636e-21,0.0,4.0466518747450664e-05,2.8812115061116472e-05,0.0,-9.4376054655676e-06,0.0,-1.3297711584647764e-05
20,2.055,12.8883,0.925338,-5.059e-15,3.45341,6.94144e-17,1.1511e-18,6.07025e-05,-1.41574e-05,-1.99479e-05,4.32204e-05,-7.0378e-26,-1.88577e-26,0.0,6.070434243410361e-05,4.322133401490902e-05,0.0,-1.4157299784489652e-05,0.0,-1.994770104196686e-05
21,3.082,19.3331,1.38805,-2.81516e-14,5.18029,7.817e-17,-3.15365e-17,9.10568e-05,-2.12368e-05,-2.99229e-05,6.48327e-05,8.76832e-22,-3.2728e-21,0.0,9.106094579625079e-05,6.483480168495426e-05,0.0,-2.123657450070482e-05,0.0,-2.992245231447921e-05
22,4.623,116.413,8.35811,-1.03265e-09,31.1929,9.83292e-16,7.71529e-16,0.000548295,-0.000127877,-0.000180179,0.000390388,3.49743e-21,-1.3096e-20,0.0,0.0005484453411794821,0.0003904642113123913,0.0,-0.00012786882408488687,0.0,-0.00018016276873877857
23,6.935,262.609,18.8545,-9.04826e-07,70.3658,1.26247e-15,-2.74743e-16,0.00123686,-0.000288468,-0.000406453,0.000880648,1.40118e-20,-5.23908e-20,0.0,0.0012376252267900512,0.0008810358843047705,0.0,-0.0002884263971069112,0.0,-0.00040637040916957634
24,10.03,446.441,32.0929,0.00247157,119.702,-0.011813,-0.00316354,0.00215605,-0.000511251,-0.000723412,0.00153874,-1.52415e-07,-4.08732e-08,5.88533e-05,0.0021583759471202058,0.0015399244678453439,-1.524149884080117e-07,-0.0005111203334761116,-4.0873199158575346e-08,-0.0007231504006243172
25,13.12,468.018,33.7938,8.87296e-05,125.763,-0.12133,-0.0324665,0.00307237,-0.000854896,-0.00125127,0.0022359,-2.19277e-06,-5.95222e-07,0.000956956,0.0030770945660076876,0.002238401488416919,-2.1927675958322013e-06,-0.0008545306805253228,-5.952218228300055e-07,-0.0012504874881053007
26,16.21,485.783,35.1931,7.90554e-05,130.754,-0.210812,-0.0563832,0.00398762,-0.00120096,-0.00178355,0.00293363,-4.4561e-06,-1.21474e-06,0.00187392,0.003995581135108672,0.0029379373034703615,-4.456090071602858e-06,-0.0012002391361443099,-1.2147392621786324e-06,-0.0017819604198709982
27,19.3,500.927,36.3853,3.18442e-05,135.007,-0.285604,-0.0763566,0.00490183,-0.00154855,-0.00231872,0.00363163,-6.91447e-06,-1.89086e-06,0.00280355,0.004913863622898029,0.003638232358249782,-6.9144460951298115e-06,-0.001547351615114767,-1.8908582123389195e-06,-0.0023160338453287466
28,22.39,514.155,37.4258,1.25255e-05,138.721,-0.349511,-0.093411,0.00581501,-0.00189713,-0.00285584,0.0043297,-9.54641e-06,-2.617e-06,0.00374217,0.005831949990136476,0.004339086693344374,-9.546364433177246e-06,-0.0018953315863361464,-2.616996575666164e-06,-0.0028517659681310814
29,25.48,525.918,38.3507,3.41534e-06,142.023,-0.405097,-0.108235,0.00672717,-0.00224637,-0.00339434,0.00502773,-1.23323e-05,-3.38729e-06,0.00468742,0.006749848233026379,0.0050403902430116165,-1.233222395746747e-05,-0.002243848799114878,-3.3872842631899047e-06,-0.003388585740461192
30,28.57,536.524,39.1841,-1.81257e-06,144.999,-0.454144,-0.121308,0.00763833,-0.00259605,-0.0039338,0.00572562,-1.52551e-05,-4.19668e-06,0.0056377,0.00766757645987548,0.0057420426905934185,-1.5254983641521669e-05,-0.0025926831763098956,-4.196671194001134e-06,-0.003926072744593112
31,31.66,546.192,39.9435,-5.48317e-06,147.711,-0.497936,-0.132975,0.00854849,-0.002946,-0.00447393,0.00642329,-1.82998e-05,-5.04079e-06,0.00659186,0.008585132679409302,0.0064439635676150075,-1.829963255972622e-05,-0.0029416648002110746,-5.040777295239884e-06,-0.004463936883566499
32,34.75,555.083,40.6416,-8.55363e-06,150.205,-0.537421,-0.143489,0.00945766,-0.00329611,-0.00501453,0.00712068,-2.14536e-05,-5.91593e-06,0.00754908,0.009502524994080552,0.0071460923236974505,-2.145336987313673e-05,-0.003290683792862903,-5.915912500875642e-06,-0.00500197823360693
33,37.84,563.32,41.2882,-1.1448e-05,152.515,-0.573321,-0.153045,0.0103659,-0.00364629,-0.00555544,0.00781776,-2.47055e-05,-6.8189e-06,0.00850871,0.010419812062728795,0.007848398475081675,-2.470519482167255e-05,-0.0036396503570906846,-6.8188767513577275e-06,-0.005540037079736271
34,40.93,570.998,41.8907,-1.43634e-05,154.668,-0.606195,-0.161792,0.0112731,-0.00399648,-0.00609654,0.00851448,-2.8046e-05,-7.74695e-06,0.00947026,0.011336880835731256,0.008550831282345461,-2.8045606714655058e-05,-0.003988504701715634,-7.746919992501766e-06,-0.006077993808354054
35,44.02,578.192,42.4552,-1.73934e-05,156.685,-0.636484,-0.169849,0.0121794,-0.00434662,-0.00663771,0.00921082,-3.14669e-05,-8.69772e-06,0.0104333,0.0122538709221236,0.009253370142767947,-3.14664049222424e-05,-0.004337187119286212,-8.69768217492961e-06,-0.006615729064226805
36,47.11,584.964,42.9864,-2.05809e-05,158.583,-0.66454,-0.177309,0.0130847,-0.00469668,-0.0071789,0.00990674,-3.4961e-05,-9.66915e-06,0.0113976,0.013170679282158204,0.009955974197868311,-3.4960388871407844e-05,-0.004685667845423236,-9.669103253950873e-06,-0.007153193249575307
37,50.2,591.363,43.4883,-2.39448e-05,160.377,-0.690652,-0.18425,0.013989,-0.00504662,-0.00772003,0.0106022,-3.85219e-05,-1.06594e-05,0.0123628,0.014087303916797023,0.010658602476295576,-3.8521158041149306e-05,-0.0050339072078223746,-1.0659343188779147e-05,-0.007690307104795346
38,53.29,597.431,43.9642,-2.74912e-05,162.078,-0.715057,-0.190736,0.0148924,-0.00539641,-0.00826104,0.0112973,-4.2144e-05,-1.1667e-05,0.0133288,0.015003844326123339,0.011361355484389435,-4.2143111954051626e-05,-0.005381875535951486,-1.1666931940768066e-05,-0.008227011377468618
39,56.38,603.202,44.4168,-3.12195e-05,163.695,-0.73795,-0.196819,0.0157949,-0.00574603,-0.00880191,0.0119918,-4.58226e-05,-1.26904e-05,0.0142953,0.015920298783496545,0.012063989907334927,-4.582155016064071e-05,-0.005729553143562494,-1.2690319477259848e-05,-0.0087632865931635
40,59.47,608.706,44.8485,-3.51261e-05,165.238,-0.759499,-0.202543,0.0166964,-0.00609545,-0.00934257,0.0126859,-4.95531e-05,-1.37284e-05,0.0152623,0.016836563877286936,0.012766707372613206,-4.955187226540758e-05,-0.006076910432776805,-1.3728305765958737e-05,-0.009299063784934392
41,62.56,613.968,45.2612,-3.92054e-05,166.713,-0.779842,-0.207945,0.017597,-0.00644468,-0.00988302,0.0133795,-5.33316e-05,-1.47799e-05,0.0162295,0.017752739378618543,0.013469406028569608,-5.33301778954387e-05,-0.006423957590179885,-1.4779790777796897e-05,-0.009834343446936122
42,65.65,619.01,45.6566,-4.34514e-05,168.126,-0.799101,-0.213059,0.0184967,-0.00679368,-0.0104232,0.0140726,-5.71547e-05,-1.5844e-05,0.0171969,0.018668823556910796,0.014172085159210868,-5.7153066701287614e-05,-0.006770655126741576,-1.5843874484500198e-05,-0.010369066694888573
43,68.74,623.85,46.0362,-4.78577e-05,169.483,-0.817379,-0.217911,0.0193954,-0.00714244,-0.0109631,0.0147652,-6.10192e-05,-1.69196e-05,0.0181643,0.019584712721793407,0.01487474404807676,-6.101733836649803e-05,-0.007116993395081983,-1.6919456864328275e-05,-0.01090322422697898
44,71.83,628.506,46.4014,-5.24182e-05,170.788,-0.834765,-0.222526,0.0202932,-0.00749097,-0.0115027,0.0154572,-6.49222e-05,-1.8006e-05,0.0191317,0.020500506915374306,0.015577280420507877,-6.49200925996185e-05,-0.007462982612060576,-1.8005837892909327e-05,-0.011436796876338695
45,74.92,632.991,46.7533,-5.71269e-05,172.045,-0.851337,-0.226924,0.0211901,-0.00783924,-0.012042,0.0161487,-6.88611e-05,-1.91025e-05,0.0200991,0.021416204403180705,0.016279794976332917,-6.885872912887336e-05,-0.007808593292697008,-1.9102317548425063e-05,-0.011969785278542533
46,78.01,637.318,47.0928,-6.19782e-05,173.258,-0.867165,-0.231123,0.0220861,-0.00818726,-0.012581,0.0168397,-7.28336e-05,-2.02085e-05,0.0210663,0.022331803449443965,0.016982286997702767,-7.28309476977218e-05,-0.008153835666949272,-2.020829580962058e-05,-0.012502190068297114
47,81.1,641.499,47.4209,-6.69666e-05,174.431,-0.882309,-0.235141,0.0229811,-0.00853501,-0.0131196,0.0175302,-7.68375e-05,-2.13231e-05,0.0220332,0.02324719999237934,0.017684755766306015,-7.683454807483336e-05,-0.008498690205537951,-2.132287266431998e-05,-0.013033913182837531
48,84.19,645.544,47.7384,-7.20873e-05,175.565,-0.896821,-0.238991,0.0238753,-0.00888249,-0.0136579,0.0182201,-8.08708e-05,-2.24461e-05,0.0229999,0.024162596851552864,0.01838709872465527,-8.086753004499236e-05,-0.008843157229498466,-2.2445848088192832e-05,-0.013565054057979142
49,87.28,649.462,48.0459,-7.73355e-05,176.663,-0.910751,-0.242685,0.0247685,-0.00922969,-0.0141958,0.0189094,-8.49317e-05,-2.35767e-05,0.0239663,0.025077787546379682,0.019089314942821956,-8.492809340521212e-05,-0.009187227151313593,-2.3576422071736047e-05,-0.014095514735212089
50,90.37,653.262,48.3442,-8.2707e-05,177.729,-0.92414,-0.246236,0.0256609,-0.00957661,-0.0147334,0.0195982,-8.90186e-05,-2.47146e-05,0.0249324,0.025992975260007656,0.019791505469609172,-8.901463796195941e-05,-0.00953090030147874,-2.4714294596828168e-05,-0.014625394542036485
51,93.46,656.95,48.6338,-8.81977e-05,178.763,-0.937027,-0.249653,0.0265523,-0.00992324,-0.0152705,0.0202864,-9.31299e-05,-2.58594e-05,0.0258981,0.026907953143210595,0.02049356753552134,-9.312556354545976e-05,-0.009874167108783527,-2.585906564855911e-05,-0.015154497139406087
52,96.55,660.533,48.9153,-9.38037e-05,179.768,-0.949446,-0.252946,0.0274428,-0.0102696,-0.0158072,0.0209741,-9.72642e-05,-2.70105e-05,0.0268633,0.02782282196036867,0.021195602328911267,-9.725946999106228e-05,-0.01021704770877363,-2.70101352197738e-05,-0.015682921905321057
53,99.64,664.018,49.1891,-9.95215e-05,180.746,-0.961428,-0.256123,0.0283325,-0.0106156,-0.0163436,0.0216612,-0.00010142,-2.81677e-05,0.0278281,0.028737682840581646,0.021897506938985734,-0.00010141485716563814,-0.01055945337067099,-2.8167303294024393e-05,-0.01621076800503085
54,102.7,667.411,49.4556,-0.000105348,181.698,-0.973002,-0.259191,0.0292212,-0.0109614,-0.0168795,0.0223477,-0.000105597,-2.93307e-05,0.0287925,0.029652328381870374,0.022599280433690305,-0.00010559142483301809,-0.010901542761030947,-2.9330269859184632e-05,-0.016737839413058953
55,105.8,670.715,49.7153,-0.00011128,182.625,-0.984193,-0.262157,0.0301091,-0.0113069,-0.0174151,0.0230337,-0.000109792,-3.0499e-05,0.0297563,0.030566962676046527,0.02330102421066349,-0.00010978597307886862,-0.011243217250340054,-3.0498534910217145e-05,-0.017264333618534966
56,108.9,673.937,49.9686,-0.000117314,183.529,-0.995024,-0.265028,0.030996,-0.011652,-0.0179502,0.0237191,-0.000114007,-3.16724e-05,0.0307196,0.03148137795275918,0.024002635147258866,-0.00011400050144894092,-0.011584378345334212,-3.167189843478191e-05,-0.01779005480436846
57,112.0,677.08,50.2157,-0.000123448,184.411,-1.00552,-0.267809,0.0318821,-0.0119969,-0.0184849,0.0244039,-0.000118238,-3.28506e-05,0.0316823,0.03239577866716936,0.02470411231017522,-0.00011823101016317228,-0.011925224111011823,-3.285006042497152e-05,-0.018315102078166223
58,115.1,680.148,50.457,-0.000129679,185.272,-1.01569,-0.270505,0.0327673,-0.0123415,-0.0190191,0.0250881,-0.000122486,-3.40333e-05,0.0326445,0.033310060011667586,0.0254054547657121,-0.00012247849889612805,-0.01226565601899654,-3.403272087376674e-05,-0.018839378104042015
59,118.2,683.145,50.6928,-0.000136005,186.113,-1.02557,-0.273121,0.0336516,-0.0126857,-0.0195529,0.0257718,-0.000126749,-3.52204e-05,0.0336061,0.03422422023410654,0.026106764190443554,-0.00012674096768483523,-0.01260557567666587,-3.521977976894686e-05,-0.01936298188172869
60,121.3,686.074,50.9233,-0.000142424,186.936,-1.03515,-0.275662,0.0345351,-0.0130297,-0.0200863,0.0264549,-0.000131027,-3.64116e-05,0.0345671,0.035138361094945614,0.026807937179430974,-0.00013101841633744726,-0.012945180943178314,-3.641093710571308e-05,-0.019885914188748077
61,124.4,688.939,51.1488,-0.000148933,187.74,-1.04448,-0.278132,0.0354176,-0.0133733,-0.0206193,0.0271374,-0.000135319,-3.76067e-05,0.0355275,0.03605227390332555,0.027508972797748443,-0.000135309844797038,-0.013284274719359335,-3.760599287694344e-05,-0.02040817580140175
62,127.4,691.743,51.3695,-0.00015553,188.527,-1.05354,-0.280534,0.0362993,-0.0137166,-0.0211518,0.0278193,-0.000139624,-3.88054e-05,0.0364873,0.03696616402248054,0.028209870110078805,-0.00013961425302289054,-0.013622956089864635,-3.880464708017062e-05,-0.020929669587744115
63,130.5,694.487,51.5856,-0.000162214,189.298,-1.06236,-0.282871,0.0371801,-0.0140597,-0.0216839,0.0285006,-0.000143941,-4.00077e-05,0.0374465,0.03787992618153102,0.02891062818071566,-0.0001439306409912744,-0.013961324003295195,-4.000689970262705e-05,-0.021450494332844627
64,133.6,697.176,51.7974,-0.000168982,190.053,-1.07096,-0.285148,0.03806,-0.0144024,-0.0222155,0.0291814,-0.000148271,-4.12132e-05,0.038405,0.03879355862222411,0.029611349034694978,-0.00014826000839851528,-0.014299181562360097,-4.121235074772134e-05,-0.02197055300621442
65,136.7,699.81,52.0049,-0.000175833,190.793,-1.07933,-0.287367,0.0389391,-0.0147448,-0.0227467,0.0298616,-0.000152612,-4.24219e-05,0.0393628,0.039707163555819935,0.030311928914513953,-0.00015260035538100514,-0.014636627748509157,-4.2421000203907155e-05,-0.02248994428592055
66,139.8,702.393,52.2085,-0.000182766,191.519,-1.0875,-0.28953,0.0398173,-0.0150869,-0.0232775,0.0305411,-0.000156963,-4.36336e-05,0.04032,0.0406206354336478,0.031012263782036253,-0.00015695068195276107,-0.014973662905005902,-4.363264806828138e-05,-0.023008668941790766
67,142.9,704.927,52.4082,-0.000189778,192.231,-1.09547,-0.291641,0.0406946,-0.0154287,-0.0238077,0.0312201,-0.000161325,-4.48481e-05,0.0412764,0.0415339724938355,0.03171255883240853,-0.00016131198782187717,-0.015310287374625808,-4.4847094338940074e-05,-0.02352653244777081
68,146.0,707.412,52.6043,-0.000196869,192.93,-1.10325,-0.293702,0.0415711,-0.0157701,-0.0243376,0.0318986,-0.000165697,-4.60653e-05,0.0422322,0.042447277218051305,0.03241281333805279,-0.0001656832730102531,-0.015646403064303316,-4.606423901032386e-05,-0.02404382866848853
69,149.1,709.853,52.7967,-0.000204036,193.615,-1.11085,-0.295715,0.0424467,-0.0161113,-0.024867,0.0325764,-0.000170078,-4.72851e-05,0.0431873,0.0433604437799624,0.03311281994837434,-0.00017006353755677495,-0.015982207220130995,-4.728398207731743e-05,-0.0245603631268565
70,152.2,712.249,52.9858,-0.000211279,194.289,-1.11828,-0.297682,0.0433214,-0.0164521,-0.0253959,0.0332536,-0.000174467,-4.85074e-05,0.0441417,0.044273470414121885,0.03381268089621403,-0.00017445178151798135,-0.016317503346205298,-4.850622353513856e-05,-0.02507613674244291
71,155.3,714.603,53.1716,-0.000218597,194.951,-1.12554,-0.299606,0.0441953,-0.0167927,-0.0259244,0.0339303,-0.000178866,-4.97319e-05,0.0450954,0.04518645987255643,0.034512498694023286,-0.0001788500044306307,-0.016652488553346334,-4.973066338953558e-05,-0.02559124787406808
72,158.3,716.916,53.3542,-0.000225987,195.601,-1.13265,-0.301487,0.0450684,-0.0171329,-0.0264524,0.0346064,-0.000183272,-5.09587e-05,0.0460484,0.0460994106613426,0.03521216909131564,-0.00018325520671291784,-0.016986966478819476,-5.0957401627527155e-05,-0.02610559989430783
73,161.4,719.189,53.5338,-0.00023345,196.241,-1.1396,-0.303329,0.0459405,-0.0174728,-0.0269799,0.0352818,-0.000187685,-5.21876e-05,0.0470007,0.047012111882901,0.03591158755734858,-0.00018766738827213914,-0.01732103583061073,-5.2186238250873096e-05,-0.02661919371808341
74,164.5,721.425,53.7104,-0.000240984,196.87,-1.14641,-0.305132,0.0468119,-0.0178124,-0.027507,0.0359567,-0.000192106,-5.34185e-05,0.0479522,0.04792487587070737,0.03661096026456434,-0.00019208754882382717,-0.017654696947978166,-5.341707325734468e-05,-0.02713212754548855
75,167.6,723.625,53.8842,-0.000248587,197.489,-1.15308,-0.306898,0.0476823,-0.0181516,-0.0280337,0.0366311,-0.000196534,-5.46513e-05,0.048903,0.04883738674979021,0.037310286482462374,-0.0001965146884584934,-0.017987851968487623,-5.464980664493524e-05,-0.027644402134554547
76,170.7,725.788,54.0552,-0.000256259,198.097,-1.15961,-0.308628,0.048552,-0.0184906,-0.0285598,0.0373048,-0.000200968,-5.58859e-05,0.049853,0.04974995739887267,0.03800935787822457,-0.0002009478072840798,-0.018320697666136976,-5.58843384121932e-05,-0.028155823873307284
77,173.8,727.918,54.2236,-0.000264,198.697,-1.16602,-0.310325,0.0494208,-0.0188292,-0.0290856,0.0379779,-0.000205409,-5.71222e-05,0.0508024,0.050662376459308156,0.0387082771719125,-0.00020538790501567483,-0.018653038009512013,-5.712056855822212e-05,-0.028666685223895927
78,176.9,730.015,54.3894,-0.000271807,199.287,-1.1723,-0.311989,0.0502887,-0.0191676,-0.0296108,0.0386505,-0.000209855,-5.83602e-05,0.0517509,0.051574642156273054,0.03940714736283679,-0.00020983298197962963,-0.018985069638529306,-5.8358497076693716e-05,-0.029176695540383824
79,180.0,732.079,54.5528,-0.000279681,199.868,-1.17846,-0.313621,0.0511558,-0.0195056,-0.0301356,0.0393224,-0.000214307,-5.95997e-05,0.0526988,0.052486857962494415,0.04010575969768149,-0.0002142840378951405,-0.019316596653769613,-5.9597923973142564e-05,-0.029686049944278592
80,183.1,734.113,54.7137,-0.00028762,200.441,-1.18451,-0.315223,0.0520221,-0.0198433,-0.0306599,0.0399938,-0.000218765,-6.08407e-05,0.0536459,0.05339902237451599,0.04080432118559263,-0.00021874107268216036,-0.019647717526173558,-6.083884924212857e-05,-0.030194652206558814
81,186.2,736.116,54.8723,-0.000295624,201.005,-1.19045,-0.316796,0.0528875,-0.0201807,-0.0311838,0.0406646,-0.000223227,-6.20832e-05,0.0545922,0.05431102845659219,0.04150272694334656,-0.00022320208670700836,-0.01997843259151133,-6.208127287798959e-05,-0.030702600159683513
82,189.2,738.091,55.0286,-0.000303692,201.561,-1.19629,-0.318341,0.0537521,-0.0205178,-0.0317072,0.0413348,-0.000227695,-6.33269e-05,0.0555377,0.05522297995161751,0.042200976028076154,-0.00022766907946081272,-0.020308742185074946,-6.332489489413451e-05,-0.031209797673591666
83,192.3,740.037,55.1828,-0.000311823,202.109,-1.20202,-0.319859,0.0546158,-0.0208545,-0.0322301,0.0420044,-0.000232167,-6.4572e-05,0.0564825,0.056134769739140555,0.0428990674965648,-0.00023214005132754512,-0.020638548705537607,-6.456991527326039e-05,-0.031716245648025665
84,195.4,741.955,55.3348,-0.000320016,202.649,-1.20765,-0.321351,0.0554787,-0.021191,-0.0327526,0.0426735,-0.000236643,-6.58182e-05,0.0574266,0.057046501742148426,0.04359710476495282,-0.0002366150022536928,-0.020968048392466798,-6.581603402977532e-05,-0.032222041758933506
85,198.5,743.848,55.4848,-0.000328271,203.183,-1.21319,-0.322817,0.0563408,-0.0215271,-0.0332746,0.0433419,-0.000241124,-6.70657e-05,0.0583698,0.057958174451357536,0.0442948782396948,-0.00024109493194457432,-0.02129704574030078,-6.706345114615431e-05,-0.03272709002406993
86,201.6,745.714,55.6327,-0.000336588,203.708,-1.21863,-0.324259,0.0572021,-0.0218629,-0.0337962,0.0440098,-0.000245609,-6.83142e-05,0.0593123,0.05886978635632323,0.044992595765702026,-0.0002455788405787418,-0.021625639018441944,-6.831186663813771e-05,-0.03323148801548148
87,204.7,747.555,55.7788,-0.000344965,204.227,-1.22399,-0.325678,0.0580625,-0.0221984,-0.0343173,0.0446771,-0.000250097,-6.95637e-05,0.0602541,0.05978122996731838,0.04569015203862237,-0.0002500657283522889,-0.021953828559677202,-6.956128050195076e-05,-0.033735139849194185
88,207.8,749.372,55.9229,-0.000353402,204.739,-1.22926,-0.327073,0.0589221,-0.0225336,-0.0348379,0.0453438,-0.000254589,-7.08143e-05,0.061195,0.06069260956743139,0.04638754611346929,-0.0002545565949705342,-0.022281614696318397,-7.081179272661053e-05,-0.03423804641745076
89,210.9,751.164,56.0652,-0.000361899,205.245,-1.23445,-0.328447,0.0597809,-0.0228685,-0.0353581,0.0460099,-0.000259084,-7.20657e-05,0.0621352,0.06160392364278122,0.04708477704491765,-0.0002590504406386751,-0.022608997760202754,-7.206310332985577e-05,-0.0347403051368852
90,214.0,752.934,56.2056,-0.000370455,205.744,-1.23956,-0.3298,0.0606388,-0.0232031,-0.0358778,0.0466754,-0.000263583,-7.33181e-05,0.0630746,0.06251506442683086,0.047781843887305886,-0.0002635482650529264,-0.022935978082693542,-7.331541229382843e-05,-0.03524182027031031
91,217.1,754.681,56.3444,-0.000379069,206.237,-1.24459,-0.331132,0.0614959,-0.0235373,-0.036397,0.0473404,-0.000268084,-7.45713e-05,0.0640133,0.06342613647270201,0.04847885054251777,-0.00026804806869540343,-0.023262458320931656,-7.456851962972522e-05,-0.035742592705452325
92,220.1,756.407,56.4814,-0.000387742,206.723,-1.24954,-0.332444,0.0623522,-0.0238713,-0.0369158,0.0480047,-0.000272589,-7.58253e-05,0.0649511,0.06433713826311416,0.049175586438138685,-0.00027255185099406276,-0.023588634185450985,-7.582242533454853e-05,-0.0362427197041959
93,223.2,758.111,56.6168,-0.000396472,207.204,-1.25442,-0.333737,0.0632077,-0.0242049,-0.0374341,0.0486685,-0.000277096,-7.708e-05,0.0658882,0.06524806827965524,0.049872260392920476,-0.0002770576124491164,-0.023914310691225293,-7.707702941306405e-05,-0.03674210567551928
94,226.3,759.794,56.7506,-0.000405259,207.679,-1.25923,-0.335011,0.0640624,-0.0245383,-0.037952,0.0493317,-0.000281606,-7.83355e-05,0.0668245,0.0661589250027852,0.050568766611946536,-0.00028156635275211617,-0.024239683417393354,-7.833243185484395e-05,-0.037240847778574615
95,229.4,761.457,56.8828,-0.000414103,208.148,-1.26398,-0.336267,0.0649163,-0.0248713,-0.0384693,0.0499944,-0.000286118,-7.95916e-05,0.06776,0.06706970691184022,0.051265209274368395,-0.0002860770721485606,-0.02456455750827724,-7.958843267263926e-05,-0.03773875429339535
96,232.5,763.1,57.0135,-0.000423003,208.612,-1.26865,-0.337506,0.0657693,-0.025204,-0.0389863,0.0506564,-0.000290633,-8.08484e-05,0.0686947,0.06798030568700009,0.05196137724908323,-0.00029059077032089764,-0.02488903090085237,-8.084513185613318e-05,-0.03823611477866207
97,235.6,764.724,57.1426,-0.000431959,209.07,-1.27326,-0.338728,0.0666216,-0.0255364,-0.0395027,0.0513179,-0.00029515,-8.21057e-05,0.0696287,0.06889093331037444,0.05265747991070535,-0.0002951064475237297,-0.02521310392306053,-8.210232941918694e-05,-0.03873264143477373
98,238.7,766.329,57.2704,-0.000440971,209.523,-1.27781,-0.339933,0.067473,-0.0258685,-0.0400187,0.0519788,-0.000299669,-8.33636e-05,0.0705618,0.06980137457084279,0.05335341118433656,-0.0002996241037299674,-0.02553677690237477,-8.336012535159476e-05,-0.039228527442200734
99,241.8,767.916,57.3967,-0.000450038,209.971,-1.2823,-0.341122,0.0683236,-0.0262002,-0.0405343,0.0526391,-0.000304189,-8.46221e-05,0.0714942,0.07071173474134418,0.054049170121275525,-0.00030414273921697266,-0.02585995275179853,-8.461851965102518e-05,-0.03972377352803913
100,244.9,769.484,57.5216,-0.00045916,210.415,-1.28674,-0.342296,0.0691734,-0.0265317,-0.0410494,0.0532988,-0.000308712,-8.5881e-05,0.0724258,0.07162201229567988,0.054744755772504705,-0.0003086643533537492,-0.026182826658154523,-8.587731233244966e-05,-0.04021828444007525
101,248.0,771.035,57.6451,-0.000468336,210.853,-1.29111,-0.343454,0.0700224,-0.0268629,-0.041564,0.053958,-0.000313236,-8.71404e-05,0.0733566,0.07253220570654917,0.0554402727327139,-0.00031318694672610725,-0.026505301501183576,-8.71366033855514e-05,-0.04071206105128389
102,251.0,772.57,57.7673,-0.000477567,211.286,-1.29543,-0.344598,0.0708706,-0.0271937,-0.0420782,0.0546166,-0.000317762,-8.84003e-05,0.0742866,0.07344231344555774,0.05613561464729422,-0.000317711519002839,-0.026827280289219435,-8.839639280855405e-05,-0.041205200112573115
103,254.1,774.087,57.8882,-0.000486852,211.715,-1.29969,-0.345728,0.071718,-0.0275243,-0.0425919,0.0552746,-0.000322289,-8.96605e-05,0.0752158,0.07435233398321706,0.05683078056623758,-0.00032223707047929206,-0.027148958014098,-8.965648061742826e-05,-0.041697606515862295
104,257.2,775.588,58.0079,-0.000496191,212.139,-1.30391,-0.346844,0.0725646,-0.0278545,-0.0431051,0.055932,-0.000326818,-9.09212e-05,0.0761443,0.07526226578895279,0.0575257695392275,-0.00032676460081493275,-0.02747014039803186,-9.091706679298373e-05,-0.042189281129701106
105,260.3,777.073,58.1263,-0.000505583,212.558,-1.30807,-0.347947,0.0734104,-0.0281844,-0.0436179,0.0565889,-0.000331348,-9.21821e-05,0.0770719,0.0761721073311048,0.05822068643770417,-0.0003312931103142125,-0.027790925082371576,-9.217785136073076e-05,-0.04268032055306936
106,263.4,778.542,58.2435,-0.000515028,212.974,-1.31218,-0.349036,0.0742554,-0.0285141,-0.0441302,0.0572452,-0.000335879,-9.34435e-05,0.0779988,0.07708185707693538,0.05891542462761312,-0.00033582259896358657,-0.028111409579599345,-9.343913429216144e-05,-0.0431706298214074
107,266.5,779.996,58.3595,-0.000524527,213.385,-1.31625,-0.350113,0.0750997,-0.0288434,-0.0446421,0.0579009,-0.000340412,-9.47051e-05,0.0789248,0.07799162129178572,0.05960998315767063,-0.00034035406640919863,-0.0284313998031428,-9.470061561356324e-05,-0.043660305432836166
108,269.6,781.435,58.4743,-0.000534078,213.792,-1.32026,-0.351178,0.0759431,-0.0291724,-0.0451535,0.058556,-0.000344945,-9.5967e-05,0.0798501,0.07890118293341142,0.060304361076291224,-0.0003448855133135753,-0.02875099329659525,-9.596239531473039e-05,-0.04414925251821167
109,272.7,782.859,58.5881,-0.000543682,214.194,-1.32424,-0.35223,0.0767857,-0.0295011,-0.0456644,0.0592106,-0.000349479,-9.72291e-05,0.0807746,0.07981064817404859,0.060998663531453,-0.00034941793932774523,-0.029070190382183614,-9.722437340420331e-05,-0.04463747193882983
110,275.8,784.269,58.7007,-0.000553338,214.593,-1.32817,-0.353272,0.0776275,-0.0298295,-0.0461749,0.0598646,-0.000354015,-9.84915e-05,0.0816983,0.08072001547667917,0.06169278360992769,-0.00035395234408397425,-0.029388991381672946,-9.848664987144318e-05,-0.04512506004195238
111,278.9,785.665,58.8122,-0.000563046,214.988,-1.33205,-0.354301,0.0784686,-0.0301576,-0.046685,0.060518,-0.000358551,-9.97541e-05,0.0826213,0.08162939146615744,0.06238672035918591,-0.0003584867282721005,-0.029707396616365567,-9.974912472521247e-05,-0.04561201753975641
112,281.9,787.047,58.9226,-0.000572806,215.379,-1.3359,-0.35532,0.0793088,-0.0304854,-0.0471946,0.0611709,-0.000363087,-0.000101017,0.0835434,0.08253855836839863,0.06308057913445753,-0.00036302109189223497,-0.030025406407102384,-0.00010101189795463927,-0.046098249753127374
113,285.0,788.416,59.032,-0.000582619,215.766,-1.3397,-0.356328,0.0801483,-0.0308129,-0.0477037,0.0618232,-0.000367625,-0.00010228,0.0844647,0.08344773105999037,0.06377425281330096,-0.00036755743420968656,-0.030343021074263676,-0.00010227476957913595,-0.04658375753768551
114,288.1,789.771,59.1404,-0.000592482,216.15,-1.34347,-0.357325,0.080987,-0.0311401,-0.0482124,0.0624749,-0.000372163,-0.000103543,0.0853853,0.08435679983673405,0.06446774044225889,-0.00037209375594104976,-0.030660240937768313,-0.0001035376396085752,-0.047068637040668104
115,291.2,791.113,59.2477,-0.000602398,216.53,-1.34719,-0.358313,0.0818249,-0.031467,-0.0487206,0.0631261,-0.000376701,-0.000104806,0.086305,0.08526576315631962,0.06516114758369618,-0.00037663005708665764,-0.030977066317076196,-0.00010480050804306806,-0.04755279372469057
116,294.3,792.443,59.3541,-0.000612365,216.906,-1.35088,-0.35929,0.082662,-0.0317936,-0.0492284,0.0637767,-0.00038124,-0.00010607,0.087224,0.08617461947539784,0.06585436690610758,-0.0003811673372655644,-0.03129349753118682,-0.00010606437477644892,-0.048036323637401956
117,297.4,793.76,59.4595,-0.000622383,217.279,-1.35453,-0.360258,0.0834984,-0.0321199,-0.0497357,0.0644267,-0.000385779,-0.000107333,0.0881422,0.0870834759579242,0.0665473974551245,-0.000385704596849612,-0.03160953489864182,-0.0001073272400196057,-0.04851913233564009
118,300.5,795.065,59.5639,-0.000632452,217.649,-1.35815,-0.361217,0.0843339,-0.0324458,-0.0502426,0.0650762,-0.000390319,-0.000108597,0.0890596,0.08799211373266069,0.0672403450001271,-0.00039024283544886185,-0.031925081930036736,-0.00010859110355920798,-0.04900131576774358
119,303.6,796.358,59.6675,-0.000642572,218.015,-1.36173,-0.362166,0.0851687,-0.0327715,-0.050749,0.0657251,-0.000394859,-0.00010986,0.0899762,0.08890074876069698,0.06793310200069791,-0.00039478105344481484,-0.032240332589495324,-0.00010985396561113969,-0.04948277958451164
120,306.7,797.639,59.7701,-0.000652743,218.378,-1.36528,-0.363106,0.0860027,-0.0330969,-0.0512549,0.0663734,-0.000399399,-0.000111124,0.0908921,0.0898092707861875,0.0686256675015755,-0.0003993192508369159,-0.03255519035513399,-0.0001111178259569634,-0.04996352463160669
121,309.0,798.599,59.847,-0.000664391,218.65,-1.36794,-0.363811,0.0866324,-0.0333426,-0.0516369,0.0668629,-0.000402828,-0.000112079,0.0915835,0.09049573979608594,0.06914888781354134,-0.0004027468756945263,-0.03279286234566403,-0.00011207271938351582,-0.05032636925746159
