,Time,S11,S22,S33,S12,S13,S23,LE11,LE22,LE33,LE12,LE13,LE23,SDV_EPBAR,E11,E12,E13,E22,E23,E33
0,0.000309,0.0019383,0.000139163,-7.79048e-12,0.000519365,9.3624e-20,3.36396e-20,9.1292e-09,-2.12864e-09,-3.00057e-09,6.49972e-09,9.45271e-25,4.67314e-25,0.0,9.129200062574228e-09,6.499720095476391e-09,0.0,-2.128640042009522e-09,0.0,-3.0005700146773506e-09
1,0.000618,0.00387659,0.000278327,3.25261e-19,0.00103873,3.61973e-20,-7.40724e-21,1.82584e-08,-4.2578e-09,-6.00057e-09,1.29997e-08,9.27189e-26,4.52981e-25,0.0,1.8258400125148455e-08,1.2999699983140545e-08,0.0,-4.257800001461476e-09,0.0,-6.000569929831556e-09
2,0.0010815,0.00678404,0.000487072,3.25261e-19,0.00181778,-8.55315e-21,3.19208e-20,3.19522e-08,-7.45077e-09,-1.05014e-08,2.27493e-08,2.14063e-25,-7.98907e-25,0.0,3.19522004410544e-08,2.2749300221391877e-08,0.0,-7.45077000097183e-09,0.0,-1.0501399971829528e-08
3,0.0017767,0.0111452,0.00080019,7.58942e-19,0.00298635,8.55315e-21,-3.19208e-20,5.24927e-08,-1.22421e-08,-1.72507e-08,3.73747e-08,4.28159e-25,-1.59792e-24,0.0,5.249270129681349e-08,3.737470066766946e-08,0.0,-1.2242099889370195e-08,0.0,-1.725069986857619e-08
4,0.0028196,0.017687,0.00126987,-2.27682e-18,0.00473921,-1.65988e-27,-4.44764e-28,8.33037e-08,-1.94275e-08,-2.73762e-08,5.93119e-08,1.2845e-24,-4.79383e-24,0.0,8.33037034908557e-08,5.931190183439128e-08,0.0,-1.9427499831081718e-08,0.0,-2.7376199640549714e-08
5,0.0043839,0.0274996,0.00197438,-4.01155e-18,0.00736849,1.71063e-20,-6.38416e-20,1.2952e-07,-3.02058e-08,-4.25643e-08,9.22178e-08,-1.48338e-24,-7.24799e-24,0.0,1.295200084960868e-07,9.221780428170234e-08,0.0,-3.0205799528282284e-08,0.0,-4.256429908533477e-08
6,0.0067304,0.0422185,0.00303115,-4.01155e-18,0.0113124,1.74418e-19,1.1516e-19,1.98845e-07,-4.63759e-08,-6.53437e-08,1.41578e-07,3.19598e-24,8.5636e-25,0.0,1.9884501978317815e-07,1.4157800998226833e-07,0.0,-4.637589889888716e-08,0.0,-6.534369789701344e-08
7,0.01025,0.0642969,0.00461631,8.13152e-18,0.0172283,2.08631e-19,-1.25227e-20,3.02832e-07,-7.06269e-08,-9.95172e-08,2.15616e-07,2.29126e-25,-1.36391e-23,0.0,3.0283204588421597e-07,2.156160232580362e-07,0.0,-7.062689755255036e-08,0.0,-9.951719504019962e-08
8,0.01553,0.0974145,0.00699405,2.92735e-18,0.0261021,-1.49373e-19,3.02101e-19,4.58812e-07,-1.07003e-07,-1.50778e-07,3.26673e-07,-3.42531e-24,1.27835e-23,0.0,4.5881210519738147e-07,3.266730532747175e-07,0.0,-1.0700299424293291e-07,0.0,-1.5077798865004155e-07
9,0.023449,0.147091,0.0105607,6.39679e-18,0.0394129,6.16725e-19,5.07377e-19,6.92782e-07,-1.61575e-07,-2.2766e-07,4.93263e-07,1.27839e-23,3.42544e-24,0.0,6.927822400193406e-07,4.932631216814087e-07,0.0,-1.6157498694546746e-07,0.0,-2.2765997409468497e-07
10,0.035328,0.221605,0.0159106,-7.48099e-18,0.059379,8.22001e-19,-2.58722e-19,1.04374e-06,-2.43427e-07,-3.4299e-07,7.43145e-07,1.27839e-23,3.42544e-24,0.0,1.0437405446594994e-06,7.43145276205226e-07,0.0,-2.4342697035883987e-07,0.0,-3.429899412266124e-07
11,0.053146,0.333377,0.0239354,-3.52366e-17,0.0893282,1.43291e-18,1.54718e-18,1.57017e-06,-3.66206e-07,-5.15985e-07,1.11797e-06,-4.82329e-29,-1.2924e-29,0.0,1.570171232812001e-06,1.1179706249642152e-06,0.0,-3.662059329112566e-07,0.0,-5.159848668334632e-07
12,0.079874,0.501035,0.0359727,-2.13588e-17,0.134252,1.15921e-18,2.56864e-18,2.35982e-06,-5.50367e-07,-7.75483e-07,1.6802e-06,-4.1105e-23,1.53406e-22,0.0,2.3598227842924757e-06,1.6802014115580022e-06,0.0,-5.503668485395963e-07,0.0,-7.754826992778519e-07
13,0.12,0.752521,0.0540286,-7.48099e-18,0.201637,2.25401e-18,-1.51722e-18,3.54429e-06,-8.26616e-07,-1.16472e-06,2.52354e-06,-1.0888e-28,-2.91744e-29,0.0,3.544296280910686e-06,2.523543184196342e-06,0.0,-8.266156583669471e-07,0.0,-1.1647193217667606e-06
14,0.1801,1.12975,0.0811124,2.02746e-17,0.302715,9.8783e-18,2.71531e-18,5.321e-06,-1.241e-06,-1.74857e-06,3.78857e-06,1.53406e-22,4.11051e-23,0.0,5.321014156622894e-06,3.788577176644381e-06,0.0,-1.2409992299344808e-06,0.0,-1.7485684712381655e-06
15,0.2703,1.69559,0.121738,-7.48099e-18,0.454332,-5.51699e-18,2.96936e-18,7.98605e-06,-1.86256e-06,-2.62435e-06,5.6861e-06,6.26956e-28,1.67992e-28,0.0,7.986081888677887e-06,5.686116165914967e-06,0.0,-1.862558265397496e-06,0.0,-2.6243465564013135e-06
16,0.4056,2.54435,0.182676,4.92119e-16,0.681756,-3.36327e-19,-2.16935e-20,1.19836e-05,-2.79488e-06,-3.93804e-06,8.53236e-06,2.19228e-22,-8.18169e-22,0.0,1.1983671803550422e-05,8.532396400751097e-06,0.0,-2.7948760943363737e-06,0.0,-3.938032245964784e-06
17,0.6086,3.81748,0.274083,3.81097e-16,1.02289,-3.36325e-19,-2.16927e-20,1.79799e-05,-4.19337e-06,-5.90853e-06,1.28018e-05,9.49301e-23,4.63893e-22,0.0,1.79800616393333e-05,1.2801881943413917e-05,0.0,-4.1933612078270954e-06,0.0,-5.908512544672284e-06
18,0.913,5.72716,0.411192,4.92119e-16,1.53459,3.23501e-17,8.73662e-18,2.69743e-05,-6.2911e-06,-8.86425e-06,1.92058e-05,4.09074e-22,1.09611e-22,0.0,2.697466380974234e-05,1.920598443261312e-05,0.0,-6.291080211107136e-06,0.0,-8.864210712666853e-06
19,1.37,8.59165,0.616853,-1.28424e-15,2.30213,-3.36733e-19,-2.18022e-20,4.04657e-05,-9.43765e-06,-1.32978e-05,2.88117e-05,4.38461e-22,-1.63636e-21,0.0,4.0466518747450664e-05,2.8812115061116472e-05,0.0,-9.4376054655676e-06,0.0,-1.3297711584647764e-05
20,2.055,12.8883,0.925338,-5.059e-15,3.45341,6.94144e-17,1.1511e-18,6.07025e-05,-1.41574e-05,-1.99479e-05,4.32204e-05,-7.0378e-26,-1.88577e-26,0.0,6.070434243410361e-05,4.322133401490902e-05,0.0,-1.4157299784489652e-05,0.0,-1.994770104196686e-05
21,3.082,19.3331,1.38805,-2.81516e-14,5.18029,7.817e-17,-3.15365e-17,9.10568e-05,-2.12368e-05,-2.99229e-05,6.48327e-05,8.76832e-22,-3.2728e-21,0.0,9.106094579625079e-05,6.483480168495426e-05,0.0,-2.123657450070482e-05,0.0,-2.992245231447921e-05
22,4.623,116.413,8.35811,-1.03265e-09,31.1929,9.83292e-16,7.71529e-16,0.000548295,-0.000127877,-0.000180179,0.000390388,3.49743e-21,-1.3096e-20,0.0,0.0005484453411794821,0.0003904642113123913,0.0,-0.00012786882408488687,0.0,-0.00018016276873877857
23,6.935,262.609,18.8545,-9.04826e-07,70.3658,1.26247e-15,-2.74743e-16,0.00123686,-0.000288468,-0.000406453,0.000880648,1.40118e-20,-5.23908e-20,0.0,0.0012376252267900512,0.0008810358843047705,0.0,-0.0002884263971069112,0.0,-0.00040637040916957634
24,10.03,446.441,32.0929,0.00247375,119.702,-0.0118107,-0.0031629,0.00215605,-0.000511251,-0.000723412,0.00153874,-1.52384e-07,-4.0865e-08,5.88538e-05,0.0021583759471202058,0.0015399244678453439,-1.5238398842765122e-07,-0.0005111203334761116,-4.086499916233777e-08,-0.0007231504006243172
25,13.12,468.018,33.7938,8.93095e-05,125.763,-0.121306,-0.0324598,0.00307237,-0.000854881,-0.00125128,0.0022359,-2.19232e-06,-5.95099e-07,0.000956957,0.0030770945660076876,0.002238401488416919,-2.192317596905191e-06,-0.0008545156933431608,-5.950988228864418e-07,-0.001250497475600465
26,16.21,485.783,35.193,7.91737e-05,130.754,-0.210768,-0.0563715,0.00398762,-0.00120094,-0.00178358,0.00293363,-4.45517e-06,-1.21449e-06,0.00187392,0.003995581135108672,0.0029379373034703615,-4.455160075744757e-06,-0.0012002191601487855,-1.2144892624910142e-06,-0.0017819903664116898
27,19.3,500.927,36.3852,3.18986e-05,135.007,-0.285544,-0.0763406,0.00490183,-0.00154851,-0.00231876,0.00363162,-6.91303e-06,-1.89047e-06,0.00280355,0.004913863622898029,0.0036382223218676124,-6.913006105113695e-06,-0.0015473116770080564,-1.8904682130838069e-06,-0.0023160737526866093
28,22.39,514.155,37.4257,1.25527e-05,138.721,-0.349438,-0.0933914,0.00581501,-0.00189707,-0.0028559,0.00432969,-9.54441e-06,-2.61645e-06,0.00374217,0.005831949990136476,0.004339076649953366,-9.544364452218623e-06,-0.001895271700054102,-2.6164465770639467e-06,-0.0028518257970232552
29,25.48,525.918,38.3506,3.43031e-06,142.023,-0.405012,-0.108212,0.00672717,-0.0022463,-0.00339441,0.00502772,-1.23298e-05,-3.38658e-06,0.00468742,0.006749848233026379,0.005040380192607774,-1.2329723988346863e-05,-0.0022437789561817745,-3.3865742655736497e-06,-0.0033886555032577315
30,28.57,536.524,39.184,-1.80337e-06,144.999,-0.454049,-0.121283,0.00763832,-0.00259596,-0.00393388,0.0057256,-1.52519e-05,-4.19579e-06,0.0056377,0.007667566383199986,0.0057420225757527366,-1.5251783690328757e-05,-0.002592593409647237,-4.195781197702253e-06,-0.003926152430504093
31,31.66,546.192,39.9434,-5.4766e-06,147.711,-0.497831,-0.132947,0.00854849,-0.00294589,-0.00447403,0.00642327,-1.82959e-05,-5.03973e-06,0.00659186,0.008585132679409302,0.0064439434387359995,-1.8295732631012918e-05,-0.002941555123788131,-5.039717300592272e-06,-0.004464036437167973
32,34.75,555.083,40.6415,-8.54804e-06,150.205,-0.537308,-0.143459,0.00945766,-0.00329599,-0.00501465,0.00712067,-2.1449e-05,-5.91468e-06,0.00754908,0.009502524994080552,0.007146082252236452,-2.1448769971788018e-05,-0.0032905641877377656,-5.914662508321733e-06,-0.005002097633362346
33,37.84,563.32,41.288,-1.14424e-05,152.514,-0.5732,-0.153013,0.0103659,-0.00364615,-0.00555557,0.00781774,-2.47003e-05,-6.81746e-06,0.00850871,0.010419812062728795,0.007848378318113802,-2.4699994950139192e-05,-0.0036395108666318343,-6.817436761119566e-06,-0.0055401663595231465
34,40.93,570.998,41.8905,-1.4357e-05,154.667,-0.606067,-0.161758,0.0112731,-0.00399633,-0.00609668,0.00851446,-2.80401e-05,-7.74532e-06,0.00947025,0.011336880835731256,0.008550811111329049,-2.803970688003421e-05,-0.003988355299979984,-7.745290005134464e-06,-0.0060781329574250975
35,44.02,578.192,42.455,-1.73864e-05,156.684,-0.63635,-0.169813,0.0121793,-0.00434646,-0.00663788,0.00921079,-3.14603e-05,-8.69589e-06,0.0104333,0.012253769696741523,0.009253339865167298,-3.145980512997415e-05,-0.004337027813223315,-8.69585219087643e-06,-0.00661589793953854
36,47.11,584.964,42.9862,-2.05727e-05,158.583,-0.6644,-0.177272,0.0130847,-0.0046965,-0.00717908,0.00990671,-3.49536e-05,-9.66711e-06,0.0113976,0.013170679282158204,0.009955943899189634,-3.495298913003264e-05,-0.004685488688827122,-9.667063273655074e-06,-0.0071533719619844005
37,50.2,591.363,43.4881,-2.39353e-05,160.376,-0.690507,-0.184212,0.013989,-0.00504642,-0.00772022,0.0106022,-3.85138e-05,-1.06572e-05,0.0123628,0.014087303916797023,0.010658602476295576,-3.851305835311791e-05,-0.005033708214583932,-1.0657143212244868e-05,-0.007690495643619122
38,53.29,597.431,43.964,-2.74801e-05,162.077,-0.714906,-0.190696,0.0148924,-0.0053962,-0.00826125,0.0112972,-4.21352e-05,-1.16645e-05,0.0133288,0.015003844326123339,0.011361254348259076,-4.213431232491516e-05,-0.005381666666123275,-1.1664431969982125e-05,-0.008227219649774242
39,56.38,603.202,44.4166,-3.12069e-05,163.695,-0.737795,-0.196777,0.0157949,-0.0057458,-0.00880213,0.0119918,-4.58129e-05,-1.26877e-05,0.0142953,0.015920298783496545,0.012063989907334927,-4.5811850605148585e-05,-0.0057293244613334515,-1.2687619511453363e-05,-0.00876350466521636
40,59.47,608.706,44.8482,-3.51117e-05,165.238,-0.759339,-0.2025,0.0166964,-0.00609521,-0.00934281,0.0126859,-4.95426e-05,-1.37255e-05,0.0152623,0.016836563877286936,0.012766707372613206,-4.9541372785677495e-05,-0.006076671891206753,-1.3725405805797841e-05,-0.009299301553130523
41,62.56,613.968,45.2609,-3.91893e-05,166.713,-0.779678,-0.207901,0.017597,-0.00644441,-0.00988327,0.0133795,-5.33204e-05,-1.47768e-05,0.0162295,0.017752739378618543,0.013469406028569608,-5.3318978492700175e-05,-0.006423689324612125,-1.4776690823614658e-05,-0.009834590988319292
42,65.65,619.01,45.6563,-4.34334e-05,168.126,-0.798933,-0.213014,0.0184966,-0.0067934,-0.0104235,0.0140726,-5.71427e-05,-1.58406e-05,0.0171969,0.01866872169003364,0.014172085159210868,-5.714106738696767e-05,-0.006770377022486063,-1.5840474538397764e-05,-0.010369363584124103
43,68.74,623.85,46.036,-4.78378e-05,169.482,-0.817207,-0.217865,0.0193954,-0.00714215,-0.0109634,0.0147651,-6.10063e-05,-1.6916e-05,0.0181643,0.019584712721793407,0.01487464256060722,-6.100443915346698e-05,-0.007116705458968253,-1.691585692531472e-05,-0.010903520955967139
44,71.83,628.506,46.4012,-5.23963e-05,170.787,-0.834589,-0.222479,0.0202932,-0.00749066,-0.011503,0.0154572,-6.49085e-05,-1.80022e-05,0.0191317,0.020500506915374306,0.015577280420507877,-6.490639348888383e-05,-0.007462674925537538,-1.800203796131772e-05,-0.01143709344525512
45,74.92,632.991,46.753,-5.71029e-05,172.045,-0.851158,-0.226876,0.0211901,-0.00783892,-0.0120424,0.0161487,-6.88466e-05,-1.90985e-05,0.0200991,0.021416204403180705,0.016279794976332917,-6.884423012720742e-05,-0.007808275791396091,-1.9098317624810512e-05,-0.011970180490549431
46,78.01,637.318,47.0925,-6.1952e-05,173.258,-0.866983,-0.231075,0.0220861,-0.00818692,-0.0125813,0.0168397,-7.28182e-05,-2.02042e-05,0.0210663,0.022331803449443965,0.016982286997702767,-7.281554881921615e-05,-0.008153498439195994,-2.0203995896528326e-05,-0.012502486317595651
47,81.1,641.499,47.4206,-6.69383e-05,174.43,-0.882123,-0.235092,0.0229811,-0.00853465,-0.01312,0.0175301,-7.68213e-05,-2.13187e-05,0.0220332,0.02324719999237934,0.017684653997835698,-7.681834931949627e-05,-0.008498333265002156,-2.1318472758102835e-05,-0.01303430796919336
48,84.19,645.544,47.7381,-7.20568e-05,175.564,-0.896633,-0.23894,0.0238753,-0.00888211,-0.0136583,0.01822,-8.08537e-05,-2.24414e-05,0.0229999,0.024162596851552864,0.01838699688595069,-8.085043142769255e-05,-0.008842780589826682,-2.244114819371923e-05,-0.013565448631878585
49,87.28,649.462,48.0456,-7.73028e-05,176.663,-0.91056,-0.242634,0.0247685,-0.0092293,-0.0141962,0.0189093,-8.49138e-05,-2.35718e-05,0.0239663,0.025077787546379682,0.019089213033895547,-8.491019492529173e-05,-0.009186840734256907,-2.3571522187348926e-05,-0.014095909096927373
50,90.37,653.262,48.3439,-8.2672e-05,177.728,-0.923946,-0.246184,0.0256608,-0.00957621,-0.0147337,0.0195981,-8.89999e-05,-2.47094e-05,0.0249324,0.02599287266071526,0.01979140349046382,-8.899593962641283e-05,-0.009530504113759664,-2.470909472529481e-05,-0.01462569015437376
51,93.46,656.95,48.6335,-8.81603e-05,178.763,-0.936831,-0.249601,0.0265523,-0.00992282,-0.0152709,0.0202863,-9.31103e-05,-2.58539e-05,0.0258981,0.026907953143210595,0.020493465486169704,-9.310596537048799e-05,-0.009873751255846441,-2.5853565790767696e-05,-0.015154891077528432
52,96.55,660.533,48.915,-9.37639e-05,179.768,-0.949247,-0.252893,0.0274428,-0.0102692,-0.0158077,0.020974,-9.72438e-05,-2.70048e-05,0.0268633,0.02782282196036867,0.02119550020935601,-9.723907197489723e-05,-0.010216651795513565,-2.700443537362318e-05,-0.015683414063736967
53,99.64,664.018,49.1888,-9.94793e-05,180.745,-0.961227,-0.256069,0.0283325,-0.0106152,-0.016344,0.0216611,-0.000101399,-2.81618e-05,0.0278281,0.028737682840581646,0.02189740474924018,-0.00010139385929508471,-0.010559057594373145,-2.81614034601807e-05,-0.016211161520644835
54,102.7,667.411,49.4553,-0.000105303,181.697,-0.972799,-0.259136,0.0292212,-0.0109609,-0.01688,0.0223476,-0.000105574,-2.93245e-05,0.0287924,0.029652328381870374,0.02259917817376733,-0.00010556842726139326,-0.010901048211678588,-2.9324070041081285e-05,-0.016738331044016563
55,105.8,670.715,49.715,-0.000111232,182.624,-0.983988,-0.262102,0.0301091,-0.0113064,-0.0174155,0.0230336,-0.000109769,-3.04925e-05,0.0297563,0.030566962676046527,0.023300921880565983,-0.00010976297560372217,-0.01124272287182504,-3.0492035108409254e-05,-0.017264726712722944
56,108.9,673.937,49.9683,-0.000117264,183.528,-0.994817,-0.264972,0.030996,-0.0116515,-0.0179507,0.023719,-0.000113983,-3.16657e-05,0.0307196,0.03148137795275918,0.02400253274700037,-0.0001139765041846541,-0.011583884137399858,-3.16651986470573e-05,-0.017790545909218247
57,112.0,677.08,50.2154,-0.000123396,184.41,-1.00531,-0.267753,0.0318821,-0.0119964,-0.0184854,0.0244038,-0.000118213,-3.28437e-05,0.0316823,0.03239577866716936,0.02470400983976906,-0.00011820601311862688,-0.011924730073500256,-3.284316065155224e-05,-0.01831559292049245
58,115.1,680.148,50.4567,-0.000129624,185.271,-1.01548,-0.270449,0.0327673,-0.0123409,-0.0190196,0.025088,-0.00012246,-3.40262e-05,0.0326445,0.033310060011667586,0.025405352225171596,-0.00012245250208020586,-0.012265063378212426,-3.402562111542995e-05,-0.018839868684230376
59,118.2,683.145,50.6924,-0.000135948,186.113,-1.02535,-0.273064,0.0336516,-0.0126852,-0.0195535,0.0257717,-0.000126722,-3.5213e-05,0.0336061,0.03422422023410654,0.02610666157977204,-0.00012671397110641802,-0.012605081979330413,-3.5212380029570056e-05,-0.019363570263763008
60,121.3,686.074,50.9229,-0.000142363,186.935,-1.03494,-0.275605,0.034535,-0.0130291,-0.0200869,0.0264548,-0.000130999,-3.6404e-05,0.0345671,0.035138257581114996,0.026807834498642436,-0.00013099042000563887,-0.012944588710109173,-3.6403337382417966e-05,-0.019886502257023264
61,124.4,688.939,51.1484,-0.00014887,187.739,-1.04426,-0.278074,0.0354176,-0.0133727,-0.0206199,0.0271373,-0.00013529,-3.75988e-05,0.0355275,0.03605227390332555,0.027508870046856426,-0.0001352808487206092,-0.013283682689746557,-3.759809317394058e-05,-0.020408763556320042
62,127.4,691.743,51.3691,-0.000155464,188.527,-1.05332,-0.280475,0.0362993,-0.013716,-0.0211524,0.0278192,-0.000139594,-3.87973e-05,0.0364873,0.03696616402248054,0.028209767289097076,-0.00013958425721083412,-0.013622364263460751,-3.879654739447069e-05,-0.02093025702976603
63,130.5,694.487,51.5853,-0.000162145,189.297,-1.06214,-0.282813,0.0371801,-0.0140591,-0.0216845,0.0285005,-0.000143911,-3.99993e-05,0.0374465,0.03787992618153102,0.028910525289657985,-0.00014390064530866997,-0.013960732379912244,-3.9998500038662677e-05,-0.021451081462371846
64,133.6,697.176,51.797,-0.000168911,190.053,-1.07074,-0.285089,0.03806,-0.0144018,-0.0222162,0.0291813,-0.00014824,-4.12046e-05,0.0384049,0.03879355862222411,0.029611246073565356,-0.00014822901299405,-0.014298590141691547,-4.1203751102170116e-05,-0.021971237626587814
65,136.7,699.81,52.0046,-0.000175759,190.793,-1.07911,-0.287307,0.0389391,-0.0147441,-0.0227474,0.0298614,-0.00015258,-4.2413e-05,0.0393628,0.039707163555819935,0.03031172285214878,-0.00015256836026378284,-0.014635937993907278,-4.241210058142375e-05,-0.022490628542719993
66,139.8,702.393,52.2082,-0.000182689,191.518,-1.08728,-0.28947,0.0398173,-0.0150862,-0.0232781,0.030541,-0.000156931,-4.36244e-05,0.0403199,0.0406206354336478,0.031012160680814915,-0.00015691868697464972,-0.014972973386328636,-4.362344846975397e-05,-0.023009255136413498
67,142.9,704.927,52.4079,-0.000189698,192.23,-1.09525,-0.291581,0.0406946,-0.015428,-0.0238084,0.03122,-0.000161292,-4.48387e-05,0.0412764,0.0415339724938355,0.03171245566115766,-0.00016127899314466454,-0.01530959809158583,-4.4837694760491154e-05,-0.023527215978958904
68,146.0,707.412,52.6039,-0.000196786,192.929,-1.10302,-0.293641,0.0415711,-0.0157694,-0.0243383,0.0318984,-0.000165662,-4.60557e-05,0.0422322,0.042447277218051305,0.03241260685551084,-0.00016564827880849453,-0.015645714016544354,-4.605463945250854e-05,-0.024044511837569393
69,149.1,709.853,52.7964,-0.00020395,193.615,-1.11062,-0.295654,0.0424467,-0.0161106,-0.0248677,0.0325763,-0.000170042,-4.72752e-05,0.0431873,0.0433604437799624,0.033112716637097694,-0.00017002754367845263,-0.015981518407435003,-4.7274082545345486e-05,-0.02456104593436348
70,152.2,712.249,52.9855,-0.000211191,194.288,-1.11805,-0.297621,0.0433214,-0.0164514,-0.0253966,0.0332535,-0.000174431,-4.84972e-05,0.0441417,0.044273470414121885,0.03381257751495115,-0.00017441578779753275,-0.01631681476821656,-4.8496024029787144e-05,-0.02507681918890825
71,155.3,714.603,53.1712,-0.000218505,194.95,-1.12531,-0.299544,0.0441953,-0.0167919,-0.0259251,0.0339302,-0.000178828,-4.97216e-05,0.0450954,0.04518645987255643,0.03451239524277838,-0.00017881201122627033,-0.016651701875022518,-4.972036390171741e-05,-0.02559192995995574
72,158.3,716.916,53.3538,-0.000225893,195.601,-1.13241,-0.301425,0.0450683,-0.0171321,-0.0264531,0.0346062,-0.000183233,-5.09481e-05,0.0460484,0.04609930605140655,0.035211962048902645,-0.00018321621385908315,-0.01698618006807806,-5.0946802167550764e-05,-0.026106281620149385
73,161.4,719.19,53.5334,-0.000233352,196.24,-1.13936,-0.303266,0.0459405,-0.017472,-0.0269807,0.0352817,-0.000187646,-5.21767e-05,0.0470007,0.047012111882901,0.035911483966194924,-0.00018762839559038902,-0.017320249687124867,-5.217533881962666e-05,-0.026619972422417093
74,164.5,721.425,53.71,-0.000240883,196.869,-1.14617,-0.305069,0.0468118,-0.0178116,-0.0275078,0.0359566,-0.000192066,-5.34073e-05,0.0479522,0.047924771078224904,0.03661085660347352,-0.00019204755650659155,-0.017653911071421446,-5.3405873855494335e-05,-0.02713290583947503
75,167.6,723.625,53.8838,-0.000248483,197.488,-1.15284,-0.306834,0.0476823,-0.0181508,-0.0280344,0.0366309,-0.000196493,-5.46399e-05,0.048903,0.04883738674979021,0.03731007902042571,-0.0001964736965147651,-0.01798706635845504,-5.463840726782632e-05,-0.027645082783234964
76,170.7,725.789,54.0548,-0.000256152,198.097,-1.15937,-0.308565,0.048552,-0.0184898,-0.0285606,0.0373046,-0.000200926,-5.58742e-05,0.049853,0.04974995739887267,0.03800915027637353,-0.00020090581572307364,-0.01831991232238095,-5.587263906592366e-05,-0.028156601348337196
77,173.8,727.918,54.2232,-0.00026389,198.696,-1.16578,-0.310261,0.0494207,-0.0188284,-0.0290864,0.0379778,-0.000205366,-5.71103e-05,0.0508024,0.050662271393075775,0.03870817330109011,-0.00020534491384638365,-0.01865225293162831,-5.7108669237915244e-05,-0.028667462290236867
78,176.9,730.015,54.389,-0.000271694,199.286,-1.17206,-0.311925,0.0502887,-0.0191667,-0.0296116,0.0386503,-0.000209811,-5.8348e-05,0.0517509,0.051574642156273054,0.03940693948142804,-0.00020978899121126826,-0.018984186724694707,-5.834629778855849e-05,-0.029177472198716803
79,180.0,732.079,54.5524,-0.000279564,199.867,-1.17822,-0.313557,0.0511558,-0.0195047,-0.0301365,0.0393223,-0.000214263,-5.95873e-05,0.0526988,0.052486857962494415,0.040105655687110664,-0.00021424004732262247,-0.01931571403830945,-5.958552471208023e-05,-0.02968692322644062
80,183.1,734.113,54.7133,-0.0002875,200.44,-1.18427,-0.315159,0.052022,-0.0198424,-0.0306608,0.0399936,-0.000218719,-6.08281e-05,0.0536458,0.053398917034618965,0.04080411302474918,-0.00021869508274319216,-0.019646835208722235,-6.0826250008583216e-05,-0.030195525030978998
81,186.2,736.116,54.8719,-0.000295501,201.004,-1.19021,-0.316731,0.0528875,-0.0201798,-0.0311847,0.0406644,-0.000223181,-6.20702e-05,0.0545922,0.05431102845659219,0.04150251864282173,-0.00022315609697320937,-0.019977550571703806,-6.20682736850453e-05,-0.030703472526950826
82,189.2,738.091,55.0282,-0.000303565,201.56,-1.19604,-0.318276,0.053752,-0.0205168,-0.0317081,0.0413346,-0.000227647,-6.33138e-05,0.0555377,0.05522287442932505,0.04220076758790192,-0.000227621090387764,-0.02030776249332722,-6.331179572371948e-05,-0.031210669584381456
83,192.3,740.037,55.1824,-0.000311693,202.108,-1.20177,-0.319794,0.0546158,-0.0208536,-0.0322311,0.0420042,-0.000232119,-6.45585e-05,0.0564825,0.056134769739140555,0.04289885891677225,-0.00023209206246910252,-0.02063766727983496,-6.455641614488972e-05,-0.031717213931295896
84,195.4,741.956,55.3344,-0.000319883,202.649,-1.2074,-0.321285,0.0554787,-0.02119,-0.0327536,0.0426733,-0.000236594,-6.58046e-05,0.0574266,0.057046501742148426,0.043596896045552835,-0.00023656601384669518,-0.02096706936002557,-6.580243492482207e-05,-0.032223009536407776
85,198.5,743.848,55.4844,-0.000328135,203.182,-1.21294,-0.322751,0.0563408,-0.0215261,-0.0332756,0.0433417,-0.000241074,-6.70517e-05,0.0583698,0.057958174451357536,0.044294669380740004,-0.00024104494399812548,-0.021296067036857047,-6.704945208502178e-05,-0.032728057296496305
86,201.6,745.714,55.6323,-0.000336448,203.708,-1.21839,-0.324193,0.057202,-0.0218619,-0.0337972,0.0440096,-0.000245558,-6.83e-05,0.0593123,0.05886968046935004,0.04499238676720352,-0.0002455278531019456,-0.02162466064359181,-6.829766760807487e-05,-0.03323245478351
87,204.7,747.555,55.7784,-0.000344822,204.227,-1.22374,-0.325611,0.0580625,-0.0221974,-0.0343183,0.0446769,-0.000250045,-6.95493e-05,0.0602541,0.05978122996731838,0.04568994290061301,-0.00025001374135436016,-0.021952850513016764,-6.954688150351274e-05,-0.03373610611357125
88,207.8,749.372,55.9225,-0.000353256,204.739,-1.22901,-0.327007,0.0589221,-0.0225326,-0.0348389,0.0453436,-0.000254536,-7.07995e-05,0.061195,0.06069260956743139,0.04638733683598106,-0.00025450360846057674,-0.0222806369774442,-7.079699377454673e-05,-0.03423901217892156
89,210.9,751.165,56.0648,-0.000361749,205.244,-1.2342,-0.32838,0.0597808,-0.0228675,-0.0353591,0.0460097,-0.00025903,-7.20508e-05,0.0621352,0.061603817482394074,0.04708456762798319,-0.00025899645462601484,-0.02260802036871179,-7.204820440342985e-05,-0.03474127039609742
90,214.0,752.934,56.2052,-0.000370302,205.743,-1.2393,-0.329733,0.0606388,-0.023202,-0.0358788,0.0466752,-0.000263528,-7.33029e-05,0.0630746,0.06251506442683086,0.04778163433095828,-0.0002634932795465561,-0.022934903311678245,-7.330021340812287e-05,-0.035242785028007706
91,217.1,754.682,56.344,-0.000378913,206.236,-1.24433,-0.331065,0.0614959,-0.0235363,-0.0363981,0.0473402,-0.000268029,-7.45558e-05,0.0640133,0.06342613647270201,0.04847864084676856,-0.00026799308343650186,-0.023261481582901755,-7.455302078540615e-05,-0.035743653388016994
92,220.1,756.407,56.481,-0.000387582,206.723,-1.24929,-0.332377,0.0623522,-0.0238702,-0.0369168,0.0480045,-0.000272532,-7.58095e-05,0.0649511,0.06433713826311416,0.0491753766030425,-0.000272494866527917,-0.023587560132357854,-7.580662653250414e-05,-0.03624368346099438
93,223.2,758.111,56.6164,-0.000396308,207.203,-1.25417,-0.333669,0.0632077,-0.0242038,-0.0374352,0.0486683,-0.000277039,-7.7064e-05,0.0658882,0.06524806827965524,0.04987205041848952,-0.00027700062823976523,-0.023913236996376264,-7.706103064619718e-05,-0.036743165258620314
94,226.3,759.794,56.7502,-0.000405092,207.678,-1.25898,-0.334943,0.0640624,-0.0245371,-0.037953,0.0493315,-0.000281548,-7.83192e-05,0.0668245,0.0661589250027852,0.05056855649821412,-0.00028150836908125143,-0.02423851250431086,-7.831613313147301e-05,-0.0372418105372454
95,229.4,761.457,56.8824,-0.000413932,208.147,-1.26372,-0.336199,0.0649162,-0.0248701,-0.0384704,0.0499941,-0.000286059,-7.95751e-05,0.06776,0.06706960020487474,0.05126489389485278,-0.00028601808902528614,-0.02456338698504401,-7.957193398566709e-05,-0.03773981278018346
96,232.5,763.1,57.0131,-0.000422829,208.611,-1.2684,-0.337438,0.0657693,-0.0252028,-0.0389874,0.0506562,-0.000290573,-8.08316e-05,0.0686947,0.06798030568700009,0.05196116685682872,-0.00029053078775453933,-0.024887860766987457,-8.082833321421123e-05,-0.03823717271835381
97,235.6,764.724,57.1422,-0.000431781,209.07,-1.27301,-0.338659,0.0666215,-0.0255352,-0.0395039,0.0513177,-0.000295089,-8.20887e-05,0.0696287,0.06889082642128641,0.05265726937923065,-0.00029504546552328037,-0.02521193417808343,-8.2085330814885e-05,-0.038733794954911804
98,238.7,766.329,57.2699,-0.00044079,209.523,-1.27756,-0.339864,0.067473,-0.0258673,-0.0400199,0.0519785,-0.000299607,-8.33464e-05,0.0705618,0.06980137457084279,0.05335309517836051,-0.0002995621223047529,-0.025535607545805417,-8.334292678524591e-05,-0.03922968036727614
99,241.8,767.916,57.3962,-0.000449853,209.971,-1.28205,-0.341053,0.0683236,-0.0261991,-0.0405354,0.0526389,-0.000304126,-8.46046e-05,0.0714942,0.07071173474134418,0.054048959311462585,-0.0003040797583759858,-0.02585888119715729,-8.460102113172496e-05,-0.03972482983130721
100,244.9,769.484,57.5211,-0.000458971,210.414,-1.28648,-0.342227,0.0691734,-0.0265305,-0.0410505,0.0532986,-0.000308648,-8.58633e-05,0.0724258,0.07162201229567988,0.054744544823574603,-0.0003086003731062048,-0.02618165807684536,-8.585961385232377e-05,-0.04021934019938167
101,248.0,771.036,57.6447,-0.000468144,210.852,-1.29085,-0.343385,0.0700224,-0.0268617,-0.0415652,0.0539577,-0.000313171,-8.71224e-05,0.0733566,0.07253220570654917,0.055439956100679755,-0.0003131219670811092,-0.026504133306844424,-8.711860495391743e-05,-0.0407132121961199
102,251.0,772.57,57.7669,-0.000477371,211.285,-1.29517,-0.344529,0.0708706,-0.0271925,-0.0420794,0.0546163,-0.000317696,-8.8382e-05,0.0742866,0.07344231344555774,0.0561352978066576,-0.0003176455399696021,-0.026826112481254993,-8.837809442607814e-05,-0.04120635066564271
103,254.1,774.087,57.8878,-0.000486653,211.714,-1.29943,-0.345659,0.071718,-0.027523,-0.0425931,0.0552743,-0.000322223,-8.9642e-05,0.0752158,0.07435233398321706,0.05683046351705112,-0.00032217109174470515,-0.02714769330692124,-8.963798227601405e-05,-0.04169875647804444
104,257.2,775.588,58.0075,-0.000495988,212.138,-1.30364,-0.346774,0.0725646,-0.0278532,-0.0431063,0.0559318,-0.000326751,-9.09024e-05,0.0761442,0.07526226578895279,0.05752555803409476,-0.0003266976227059848,-0.027468876108392548,-9.089826850205984e-05,-0.04219043050187432
105,260.3,777.073,58.1259,-0.000505376,212.558,-1.30781,-0.347877,0.0734104,-0.0281832,-0.0436191,0.0565886,-0.00033128,-9.21631e-05,0.0770719,0.0761721073311048,0.05822036897154592,-0.0003312251328398963,-0.027789758430781464,-9.21588531119788e-05,-0.04268146933599537
106,263.4,778.542,58.2431,-0.000514818,212.973,-1.31192,-0.348966,0.0742554,-0.0285128,-0.0441315,0.0572449,-0.00033581,-9.34242e-05,0.0779988,0.07708185707693538,0.05891510695303337,-0.00033575362213300597,-0.028110146123610624,-9.34198360953431e-05,-0.04317187369878017
107,266.5,779.996,58.3591,-0.000524312,213.384,-1.31598,-0.350043,0.0750996,-0.0288421,-0.0446434,0.0579006,-0.000340342,-9.46856e-05,0.0789248,0.07799151349262878,0.059609665274723334,-0.00034028409023156847,-0.028430136763141545,-9.468111746002705e-05,-0.043661548673631145
108,269.6,781.435,58.4739,-0.00053386,213.791,-1.32,-0.351108,0.075943,-0.0291711,-0.0451548,0.0585558,-0.000344874,-9.59472e-05,0.0798501,0.07890107504329835,0.06030414901544012,-0.00034481453779811044,-0.028749730672065765,-9.59425972145711e-05,-0.044150495123375766
109,272.7,782.859,58.5876,-0.00054346,214.194,-1.32397,-0.35216,0.0767857,-0.0294998,-0.0456658,0.0592103,-0.000349407,-9.72091e-05,0.0807746,0.07981064817404859,0.06099834523190162,-0.0003493459644832164,-0.029068928172610753,-9.720437534854742e-05,-0.04463880944543286
110,275.8,784.269,58.7002,-0.000553112,214.592,-1.3279,-0.353201,0.0776275,-0.0298282,-0.0461763,0.0598643,-0.000353942,-9.84712e-05,0.0816983,0.08072001547667917,0.06169246510214044,-0.0003538793699199294,-0.029387729586541567,-9.846635187049646e-05,-0.04512639686593267
111,278.9,785.665,58.8117,-0.000562817,214.987,-1.33179,-0.354231,0.0784686,-0.0301562,-0.0466863,0.0605178,-0.000358477,-9.97336e-05,0.0826212,0.08162939146615744,0.06238650788186306,-0.0003584127547974214,-0.02970603820576989,-9.972862676987937e-05,-0.04561325824332696
112,281.9,787.047,58.9222,-0.000572573,215.378,-1.33563,-0.355249,0.0793088,-0.030484,-0.0471959,0.0611706,-0.000363013,-0.000100996,0.0835434,0.08253855836839863,0.06308026021033153,-0.0003629471187530653,-0.030024048441720685,-0.00010099090007564815,-0.04609948982459677
113,285.0,788.416,59.0315,-0.000582382,215.765,-1.33944,-0.356257,0.0801483,-0.0308115,-0.0477051,0.0618229,-0.000367549,-0.000102259,0.0844647,0.08344773105999037,0.06377393368107298,-0.0003674814621411615,-0.03034166355354273,-0.00010225377172667915,-0.046585092319490484
114,288.1,789.771,59.1399,-0.000592242,216.149,-1.3432,-0.357254,0.080987,-0.0311387,-0.0482138,0.0624746,-0.000372086,-0.000103522,0.0853853,0.08435679983673405,0.06446742110198467,-0.000372016784589313,-0.030658883861155672,-0.00010351664178265274,-0.04706997114364242
115,291.2,791.113,59.2473,-0.000602153,216.529,-1.34692,-0.358242,0.0818249,-0.0314655,-0.048722,0.0631258,-0.000376624,-0.000104785,0.086305,0.08526576315631962,0.06516082803539991,-0.000376553086084197,-0.03097561278158545,-0.00010477951024367993,-0.04755412714984597
116,294.3,792.443,59.3536,-0.000612116,216.905,-1.35061,-0.359219,0.082662,-0.0317921,-0.0492298,0.0637764,-0.000381162,-0.000106048,0.087224,0.08617461947539784,0.06585404714984544,-0.00038108936699343676,-0.031292044470343394,-0.0001060423771096497,-0.048037656385615746
117,297.4,793.76,59.459,-0.00062213,217.278,-1.35426,-0.360187,0.0834983,-0.0321184,-0.0497371,0.0644264,-0.0003857,-0.000107311,0.0881422,0.08708336724958232,0.06654707749095334,-0.0003856256273170322,-0.031608082311854746,-0.00010730524238056205,-0.04852046440792246
118,300.5,795.065,59.5635,-0.000632196,217.648,-1.35788,-0.361145,0.0843339,-0.0324444,-0.050244,0.0650759,-0.000390239,-0.000108574,0.0890596,0.08799211373266069,0.06724002482807134,-0.0003901628666652668,-0.03192372662420262,-0.000108568106056528,-0.049002647164969604
119,303.6,796.358,59.667,-0.000642312,218.014,-1.36146,-0.362094,0.0851687,-0.03277,-0.0507504,0.0657248,-0.000394778,-0.000109838,0.0899762,0.08890074876069698,0.06793278162081551,-0.00039470008541875323,-0.03223888094890559,-0.00010983196802771822,-0.04948411030768873
120,306.7,797.639,59.7696,-0.000652479,218.377,-1.36501,-0.363035,0.0860027,-0.0330954,-0.0512564,0.0663731,-0.000399317,-0.000111101,0.090892,0.0898092707861875,0.06862534691392308,-0.0003992372835778246,-0.03255373918683102,-0.00011109482851245911,-0.04996494968525078
121,309.0,798.6,59.8466,-0.000664123,218.649,-1.36767,-0.363739,0.0866323,-0.033341,-0.0516384,0.0668626,-0.000402746,-0.000112056,0.0915835,0.09049563074651745,0.06914856706892314,-0.0004026649087165435,-0.03279131481300579,-0.00011204972196088292,-0.05032779376683927
