,Time,S11,S22,S33,S12,S13,S23,LE11,LE22,LE33,LE12,LE13,LE23,SDV_EPBAR,E11,E12,E13,E22,E23,E33
0,0.000309,0.0019383,0.000139163,-7.79048e-12,0.000519365,9.3624e-20,3.36396e-20,9.1292e-09,-2.12864e-09,-3.00057e-09,6.49972e-09,9.45271e-25,4.67314e-25,0.0,9.129200062574228e-09,6.499720095476391e-09,0.0,-2.128640042009522e-09,0.0,-3.0005700146773506e-09
1,0.000618,0.00387659,0.000278327,3.25261e-19,0.00103873,3.61973e-20,-7.40724e-21,1.82584e-08,-4.2578e-09,-6.00057e-09,1.29997e-08,9.27189e-26,4.52981e-25,0.0,1.8258400125148455e-08,1.2999699983140545e-08,0.0,-4.257800001461476e-09,0.0,-6.000569929831556e-09
2,0.0010815,0.00678404,0.000487072,3.25261e-19,0.00181778,-8.55315e-21,3.19208e-20,3.19522e-08,-7.45077e-09,-1.05014e-08,2.27493e-08,2.14063e-25,-7.98907e-25,0.0,3.19522004410544e-08,2.2749300221391877e-08,0.0,-7.45077000097183e-09,0.0,-1.0501399971829528e-08
3,0.0017767,0.0111452,0.00080019,7.58942e-19,0.00298635,8.55315e-21,-3.19208e-20,5.24927e-08,-1.22421e-08,-1.72507e-08,3.73747e-08,4.28159e-25,-1.59792e-24,0.0,5.249270129681349e-08,3.737470066766946e-08,0.0,-1.2242099889370195e-08,0.0,-1.725069986857619e-08
4,0.0028196,0.017687,0.00126987,-2.27682e-18,0.00473921,-1.65988e-27,-4.44764e-28,8.33037e-08,-1.94275e-08,-2.73762e-08,5.93119e-08,1.2845e-24,-4.79383e-24,0.0,8.33037034908557e-08,5.931190183439128e-08,0.0,-1.9427499831081718e-08,0.0,-2.7376199640549714e-08
5,0.0043839,0.0274996,0.00197438,-4.01155e-18,0.00736849,1.71063e-20,-6.38416e-20,1.2952e-07,-3.02058e-08,-4.25643e-08,9.22178e-08,-1.48338e-24,-7.24799e-24,0.0,1.295200084960868e-07,9.221780428170234e-08,0.0,-3.0205799528282284e-08,0.0,-4.256429908533477e-08
6,0.0067304,0.0422185,0.00303115,-4.01155e-18,0.0113124,1.74418e-19,1.1516e-19,1.98845e-07,-4.63759e-08,-6.53437e-08,1.41578e-07,3.19598e-24,8.5636e-25,0.0,1.9884501978317815e-07,1.4157800998226833e-07,0.0,-4.637589889888716e-08,0.0,-6.534369789701344e-08
7,0.01025,0.0642969,0.00461631,8.13152e-18,0.0172283,2.08631e-19,-1.25227e-20,3.02832e-07,-7.06269e-08,-9.95172e-08,2.15616e-07,2.29126e-25,-1.36391e-23,0.0,3.0283204588421597e-07,2.156160232580362e-07,0.0,-7.062689755255036e-08,0.0,-9.951719504019962e-08
8,0.01553,0.0974145,0.00699405,2.92735e-18,0.0261021,-1.49373e-19,3.02101e-19,4.58812e-07,-1.07003e-07,-1.50778e-07,3.26673e-07,-3.42531e-24,1.27835e-23,0.0,4.5881210519738147e-07,3.266730532747175e-07,0.0,-1.0700299424293291e-07,0.0,-1.5077798865004155e-07
9,0.023449,0.147091,0.0105607,6.39679e-18,0.0394129,6.16725e-19,5.07377e-19,6.92782e-07,-1.61575e-07,-2.2766e-07,4.93263e-07,1.27839e-23,3.42544e-24,0.0,6.927822400193406e-07,4.932631216814087e-07,0.0,-1.6157498694546746e-07,0.0,-2.2765997409468497e-07
10,0.035328,0.221605,0.0159106,-7.48099e-18,0.059379,8.22001e-19,-2.58722e-19,1.04374e-06,-2.43427e-07,-3.4299e-07,7.43145e-07,1.27839e-23,3.42544e-24,0.0,1.0437405446594994e-06,7.43145276205226e-07,0.0,-2.4342697035883987e-07,0.0,-3.429899412266124e-07
11,0.053146,0.333377,0.0239354,-3.52366e-17,0.0893282,1.43291e-18,1.54718e-18,1.57017e-06,-3.66206e-07,-5.15985e-07,1.11797e-06,-4.82329e-29,-1.2924e-29,0.0,1.570171232812001e-06,1.1179706249642152e-06,0.0,-3.662059329112566e-07,0.0,-5.159848668334632e-07
12,0.079874,0.501035,0.0359727,-2.13588e-17,0.134252,1.15921e-18,2.56864e-18,2.35982e-06,-5.50367e-07,-7.75483e-07,1.6802e-06,-4.1105e-23,1.53406e-22,0.0,2.3598227842924757e-06,1.6802014115580022e-06,0.0,-5.503668485395963e-07,0.0,-7.754826992778519e-07
13,0.12,0.752521,0.0540286,-7.48099e-18,0.201637,2.25401e-18,-1.51722e-18,3.54429e-06,-8.26616e-07,-1.16472e-06,2.52354e-06,-1.0888e-28,-2.91744e-29,0.0,3.544296280910686e-06,2.523543184196342e-06,0.0,-8.266156583669471e-07,0.0,-1.1647193217667606e-06
14,0.1801,1.12975,0.0811124,2.02746e-17,0.302715,9.8783e-18,2.71531e-18,5.321e-06,-1.241e-06,-1.74857e-06,3.78857e-06,1.53406e-22,4.11051e-23,0.0,5.321014156622894e-06,3.788577176644381e-06,0.0,-1.2409992299344808e-06,0.0,-1.7485684712381655e-06
15,0.2703,1.69559,0.121738,-7.48099e-18,0.454332,-5.51699e-18,2.96936e-18,7.98605e-06,-1.86256e-06,-2.62435e-06,5.6861e-06,6.26956e-28,1.67992e-28,0.0,7.986081888677887e-06,5.686116165914967e-06,0.0,-1.862558265397496e-06,0.0,-2.6243465564013135e-06
16,0.4056,2.54435,0.182676,4.92119e-16,0.681756,-3.36327e-19,-2.16935e-20,1.19836e-05,-2.79488e-06,-3.93804e-06,8.53236e-06,2.19228e-22,-8.18169e-22,0.0,1.1983671803550422e-05,8.532396400751097e-06,0.0,-2.7948760943363737e-06,0.0,-3.938032245964784e-06
17,0.6086,3.81748,0.274083,3.81097e-16,1.02289,-3.36325e-19,-2.16927e-20,1.79799e-05,-4.19337e-06,-5.90853e-06,1.28018e-05,9.49301e-23,4.63893e-22,0.0,1.79800616393333e-05,1.2801881943413917e-05,0.0,-4.1933612078270954e-06,0.0,-5.908512544672284e-06
18,0.913,5.72716,0.411192,4.92119e-16,1.53459,3.23501e-17,8.73662e-18,2.69743e-05,-6.2911e-06,-8.86425e-06,1.92058e-05,4.09074e-22,1.09611e-22,0.0,2.697466380974234e-05,1.920598443261312e-05,0.0,-6.291080211107136e-06,0.0,-8.864210712666853e-06
19,1.37,8.59165,0.616853,-1.28424e-15,2.30213,-3.36733e-19,-2.18022e-20,4.04657e-05,-9.43765e-06,-1.32978e-05,2.88117e-05,4.38461e-22,-1.63636e-21,0.0,4.0466518747450664e-05,2.8812115061116472e-05,0.0,-9.4376054655676e-06,0.0,-1.3297711584647764e-05
20,2.055,12.8883,0.925338,-5.059e-15,3.45341,6.94144e-17,1.1511e-18,6.07025e-05,-1.41574e-05,-1.99479e-05,4.32204e-05,-7.0378e-26,-1.88577e-26,0.0,6.070434243410361e-05,4.322133401490902e-05,0.0,-1.4157299784489652e-05,0.0,-1.994770104196686e-05
21,3.082,19.3331,1.38805,-2.81516e-14,5.18029,7.817e-17,-3.15365e-17,9.10568e-05,-2.12368e-05,-2.99229e-05,6.48327e-05,8.76832e-22,-3.2728e-21,0.0,9.106094579625079e-05,6.483480168495426e-05,0.0,-2.123657450070482e-05,0.0,-2.992245231447921e-05
22,4.623,116.413,8.35811,-1.03265e-09,31.1929,9.83292e-16,7.71529e-16,0.000548295,-0.000127877,-0.000180179,0.000390388,3.49743e-21,-1.3096e-20,0.0,0.0005484453411794821,0.0003904642113123913,0.0,-0.00012786882408488687,0.0,-0.00018016276873877857
23,6.935,262.609,18.8545,-9.04826e-07,70.3658,1.26247e-15,-2.74743e-16,0.00123686,-0.000288468,-0.000406453,0.000880648,1.40118e-20,-5.23908e-20,0.0,0.0012376252267900512,0.0008810358843047705,0.0,-0.0002884263971069112,0.0,-0.00040637040916957634
24,10.03,445.815,32.0388,0.00478688,119.521,-0.00962732,-0.00257811,0.00215608,-0.000510096,-0.000725901,0.00153832,-1.2441e-07,-3.33645e-08,6.2032e-05,0.002158406011872005,0.001539503821165411,-1.2440999230811656e-07,-0.0005099659231535547,-3.3364499496535416e-08,-0.0007256375976076868
25,13.12,467.342,33.7058,0.000218802,125.508,-0.0955413,-0.0255652,0.00307252,-0.000829655,-0.00127814,0.00222854,-1.72637e-06,-4.68613e-07,0.0009591,0.0030772450275831087,0.0022310250409274257,-1.7263685098134474e-06,-0.0008293109314497782,-4.686128901587594e-07,-0.0012773235269628591
26,16.21,485.072,35.076,0.000124423,130.44,-0.165635,-0.0442996,0.00398793,-0.00115117,-0.00183526,0.00291911,-3.50086e-06,-9.54335e-07,0.0018749,0.003995892373787058,0.002923374750344765,-3.5008538720182614e-06,-0.0011505076579958473,-9.543345446116902e-07,-0.0018335769401409685
27,19.3,500.189,36.2441,5.12807e-05,134.645,-0.224471,-0.0600114,0.00490232,-0.00147388,-0.00239558,0.00360977,-5.43211e-06,-1.48546e-06,0.00280328,0.004914356030812028,0.0036162930662877457,-5.43209524617172e-06,-0.0014727943722999681,-1.4854588966661808e-06,-0.002392712888154125
28,22.39,513.393,37.2643,2.16684e-05,138.318,-0.274951,-0.0734821,0.0058157,-0.00179737,-0.00295808,0.00430038,-7.50324e-06,-2.05683e-06,0.00374059,0.0058326440144214065,0.004309639903014473,-7.503211850723446e-06,-0.001795755697852397,-2.056827884677759e-06,-0.0029537091921519876
29,25.48,525.137,38.1715,8.48631e-06,141.584,-0.319032,-0.0852374,0.00672808,-0.00212135,-0.00352211,0.00499083,-9.69889e-06,-2.66386e-06,0.00468449,0.006750764375804907,0.00500330493683987,-9.698842965866206e-06,-0.002119101527302214,-2.663856451978752e-06,-0.00351591464628076
30,28.57,535.727,38.9894,1.7716e-06,144.529,-0.358076,-0.0956435,0.00763947,-0.00244566,-0.00408724,0.00568105,-1.20056e-05,-3.30256e-06,0.00563339,0.007668725201567472,0.005697217766681417,-1.2005527933123261e-05,-0.002442671810110597,-3.302554546502634e-06,-0.0040788986028915675
31,31.66,545.38,39.7349,-2.17496e-06,147.213,-0.393064,-0.104964,0.00854988,-0.00277015,-0.00465313,0.00637097,-1.44116e-05,-3.96953e-06,0.00658615,0.008586534613718166,0.006391307796928203,-1.4411496153443615e-05,-0.0027663166749340995,-3.969522121449742e-06,-0.004642320962386148
32,34.75,554.258,40.4206,-4.89373e-06,149.682,-0.424724,-0.113394,0.00945932,-0.00309474,-0.00521956,0.00706054,-1.69069e-05,-4.66184e-06,0.00754195,0.009504200769662852,0.00708552437900134,-1.690675707921585e-05,-0.003089956228281898,-4.6618291336120166e-06,-0.005205961765923139
33,37.84,562.483,41.0558,-7.07855e-06,151.969,-0.453609,-0.121082,0.0103678,-0.00341936,-0.00578636,0.00774974,-1.94828e-05,-5.37698e-06,0.00850014,0.010421731862195749,0.007779846958480885,-1.9482610211452034e-05,-0.003413520646109003,-5.376965544034995e-06,-0.005769651262100273
34,40.93,570.15,41.648,-9.0604e-06,154.101,-0.480149,-0.128142,0.0112753,-0.00374394,-0.00635339,0.00843853,-2.21319e-05,-6.11281e-06,0.00946023,0.011339105779316405,0.008474234755499355,-2.2131655091350844e-05,-0.003736940194979832,-6.112791316792432e-06,-0.006333249892978343
35,44.02,577.335,42.2029,-1.10036e-05,156.099,-0.504681,-0.134667,0.0121819,-0.00406845,-0.00692054,0.00912689,-2.48476e-05,-6.86744e-06,0.0104218,0.012256401559964214,0.009168667062026126,-2.4847291300922336e-05,-0.0040601850695832775,-6.867416419198413e-06,-0.0068966482095219606
36,47.11,584.097,42.7253,-1.29913e-05,157.98,-0.527478,-0.140727,0.0130875,-0.00439285,-0.00748772,0.0098148,-2.76242e-05,-7.63926e-06,0.0113847,0.013173516164031618,0.009863123114030037,-2.762381845533568e-05,-0.0043832155471704715,-7.63923082092166e-06,-0.0074597568615123455
37,50.2,590.487,43.219,-1.50658e-05,159.757,-0.548762,-0.146384,0.0139921,-0.00471711,-0.00805487,0.0105022,-3.04567e-05,-8.42684e-06,0.0123484,0.014090447592311817,0.010557541669172554,-3.0456236199460918e-05,-0.004706001909515867,-8.426804494310325e-06,-0.008022516460770124
38,53.29,596.547,43.6873,-1.72477e-05,161.443,-0.568715,-0.151686,0.0148959,-0.00504122,-0.00862192,0.0111892,-3.33408e-05,-9.22891e-06,0.0133129,0.015007396845795107,0.011252033230835679,-3.3340244201651714e-05,-0.005028534376414595,-9.228867413724196e-06,-0.00858485783990337
39,56.38,602.31,44.1327,-1.95463e-05,163.046,-0.587488,-0.156672,0.0157987,-0.00536514,-0.00918883,0.0118756,-3.62725e-05,-1.00444e-05,0.0142779,0.015924159287967088,0.011946394904109425,-3.627184216081769e-05,-0.005350773340919157,-1.0044349555204946e-05,-0.009146741714303297
40,59.47,607.806,44.5577,-2.19645e-05,164.575,-0.605211,-0.161379,0.0167005,-0.00568888,-0.00975555,0.0125616,-3.92483e-05,-1.08722e-05,0.0152434,0.01684073291574517,0.01264082829443347,-3.924752979556079e-05,-0.005672728963789009,-1.0872140897899563e-05,-0.009708118985950365
41,62.56,613.061,44.964,-2.45016e-05,166.038,-0.621991,-0.165834,0.0176014,-0.00601241,-0.010322,0.013247,-4.22652e-05,-1.17116e-05,0.0162091,0.017757217500523614,0.013335130228238956,-4.226430683895721e-05,-0.005994371632455531,-1.1711531419433818e-05,-0.010268910976644285
42,65.65,618.096,45.3535,-2.71556e-05,167.439,-0.637922,-0.170062,0.0185014,-0.00633572,-0.0108883,0.0139319,-4.53202e-05,-1.25616e-05,0.0171749,0.01867361131163281,0.014029401184882051,-4.531917305528044e-05,-0.006315691646377242,-1.2561521103404694e-05,-0.010829237021064197
43,68.74,622.93,45.7275,-2.9923e-05,168.784,-0.653083,-0.174085,0.0194005,-0.00665881,-0.0114543,0.0146163,-4.8411e-05,-1.34217e-05,0.0181409,0.01958991261708798,0.014723640448629949,-4.840982820641937e-05,-0.006636689251212746,-1.3421609929342715e-05,-0.01138894925940448
44,71.83,627.579,46.0873,-3.28003e-05,170.078,-0.667543,-0.177922,0.0202987,-0.00698165,-0.0120199,0.0153001,-5.15351e-05,-1.42911e-05,0.0191068,0.020506119683597612,0.015417745761529433,-5.1533772089551455e-05,-0.006957334901049106,-1.429099788274879e-05,-0.011947949569513505
45,74.92,632.058,46.434,-3.57839e-05,171.325,-0.681365,-0.181588,0.0211959,-0.00730426,-0.0125853,0.0159834,-5.46905e-05,-1.51693e-05,0.0200726,0.02142212863434656,0.01611181780991866,-5.468900450189551e-05,-0.007277648724237307,-1.516918494670616e-05,-0.012506436299750456
46,78.01,636.379,46.7687,-3.88699e-05,172.529,-0.6946,-0.185099,0.0220923,-0.00762662,-0.0131503,0.0166662,-5.78754e-05,-1.60557e-05,0.0210383,0.02233814192627448,0.016805855876750764,-5.787372525134504e-05,-0.007597611127083792,-1.6055571107953526e-05,-0.013064212576604839
47,81.1,640.554,47.0922,-4.20548e-05,173.692,-0.707296,-0.188465,0.0229877,-0.00794872,-0.013715,0.0173483,-6.10879e-05,-1.69498e-05,0.0220037,0.023253953446185527,0.01749965574458967,-6.108603417220859e-05,-0.007917212461981626,-1.6949656352904796e-05,-0.013621377885331798
48,84.19,644.594,47.4052,-4.53353e-05,174.817,-0.719494,-0.191699,0.0238822,-0.00827056,-0.0142793,0.01803,-6.43265e-05,-1.78512e-05,0.0229689,0.024169663597851443,0.01819352173726352,-6.432443109505304e-05,-0.008236453011377987,-1.785104066831522e-05,-0.014177834322841143
49,87.28,648.507,47.7085,-4.87082e-05,175.907,-0.731232,-0.194811,0.0247758,-0.00859214,-0.0148432,0.018711,-6.75897e-05,-1.87595e-05,0.0239338,0.025085270641541868,0.018887147678393168,-6.758741586765371e-05,-0.008555333057347903,-1.8759324041717207e-05,-0.014733582734075323
50,90.37,652.301,48.0028,-5.21705e-05,176.964,-0.742543,-0.197809,0.0256686,-0.00891345,-0.0154067,0.0193915,-7.08762e-05,-1.96742e-05,0.0248984,0.026000875436332782,0.019580736349167793,-7.087368834146623e-05,-0.008873842970333001,-1.96740064641876e-05,-0.015288623962651515
51,93.46,655.984,48.2885,-5.57194e-05,177.991,-0.753456,-0.200701,0.0265604,-0.0092345,-0.0159699,0.0200715,-7.41846e-05,-2.05951e-05,0.0258625,0.026916271131318892,0.020274287030392246,-7.41818483905865e-05,-0.009191992949289296,-2.0594887922387173e-05,-0.0158430572665621
52,96.55,659.562,48.5662,-5.93523e-05,178.988,-0.763998,-0.203494,0.0274513,-0.00955527,-0.0165326,0.0207509,-7.7514e-05,-2.15218e-05,0.0268262,0.027831558491485442,0.020967696905662914,-7.751099586750243e-05,-0.009509763465362031,-2.1521568407734115e-05,-0.01639668660001714
53,99.64,663.042,48.8364,-6.30667e-05,179.959,-0.774194,-0.206195,0.0283413,-0.00987576,-0.0170949,0.0214297,-8.08631e-05,-2.2454e-05,0.0277895,0.02874673577202347,0.021660965046909952,-8.085983066763447e-05,-0.009827154818174977,-2.245374791087773e-05,-0.016949611273801235
54,102.7,666.43,49.0995,-6.68605e-05,180.903,-0.784065,-0.20881,0.0292305,-0.010196,-0.0176568,0.0221079,-8.4231e-05,-2.33915e-05,0.0287523,0.029661904193051702,0.022354090525687376,-8.422745266889464e-05,-0.010144197002611932,-2.3391226421032307e-05,-0.017501832126248673
55,105.8,669.73,49.3559,-7.07314e-05,181.824,-0.793631,-0.211344,0.0301187,-0.0105159,-0.0182183,0.0227855,-8.76168e-05,-2.43339e-05,0.0297146,0.03057685616637662,0.02304707241317616,-8.76129617602972e-05,-0.010460801230444572,-2.4333603933057724e-05,-0.01805334999437791
56,108.9,672.947,49.606,-7.46775e-05,182.721,-0.802912,-0.213802,0.0310061,-0.0108356,-0.0187793,0.0234626,-9.10196e-05,-2.52811e-05,0.0306764,0.03149179596728735,0.02374001215418242,-9.101545784184761e-05,-0.010777106348224152,-2.5280780435732453e-05,-0.018604067574306327
57,112.0,676.085,49.85,-7.86969e-05,183.597,-0.811922,-0.216188,0.0318925,-0.0111549,-0.0193399,0.0241391,-9.44386e-05,-2.62327e-05,0.0316376,0.032406515639099576,0.024432806583699174,-9.443414081578005e-05,-0.011092914796665188,-2.623235592569273e-05,-0.019154083950029377
58,115.1,679.149,50.0883,-8.27879e-05,184.452,-0.820679,-0.218506,0.0327781,-0.011474,-0.0199,0.024815,-9.7873e-05,-2.71887e-05,0.0325983,0.03332121982057856,0.025125454771754985,-9.786821059420969e-05,-0.01140842470527037,-2.718833039061508e-05,-0.01970330192475722
59,118.2,682.142,50.3212,-8.69488e-05,185.287,-0.829194,-0.220761,0.0336628,-0.0117928,-0.0204597,0.0254904,-0.000101322,-2.81487e-05,0.0335584,0.03423580361023992,0.025818058369814434,-0.00010131686709946575,-0.011723537467831169,-2.8148303829023114e-05,-0.020251820469436077
60,121.3,685.067,50.549,-9.11781e-05,186.104,-0.837483,-0.222955,0.0345467,-0.0121113,-0.021019,0.0261651,-0.000104785,-2.91126e-05,0.0345178,0.03515036876957889,0.02651041135281096,-0.00010477951024356891,-0.012038253399974996,-2.9112176232359843e-05,-0.020799640414119414
61,124.4,687.928,50.7718,-9.54744e-05,186.903,-0.845556,-0.225092,0.0354296,-0.0124295,-0.0215778,0.0268393,-0.000108262,-3.00802e-05,0.0354767,0.03606470660520844,0.027202718022499628,-0.00010825613988107996,-0.012352572816871743,-3.007974759527965e-05,-0.021346664722229902
62,127.4,690.727,50.9899,-9.98363e-05,187.685,-0.853425,-0.227174,0.0363117,-0.0127475,-0.0221361,0.0275129,-0.000111751,-3.10514e-05,0.036435,0.03697902248263696,0.02789487486561293,-0.00011174475608954904,-0.01266659476657972,-3.105091791022474e-05,-0.021892894385116768
63,130.5,693.468,51.2035,-0.000104262,188.451,-0.861099,-0.229205,0.0371929,-0.0130651,-0.022694,0.0281859,-0.000115253,-3.2026e-05,0.0373926,0.03789321112960953,0.0285868809503258,-0.00011524635862814048,-0.012980122065311406,-3.2025487173181766e-05,-0.02243842814854624
64,133.6,696.152,51.4129,-0.000108752,189.201,-0.868589,-0.231187,0.0380732,-0.0133825,-0.0232514,0.0288584,-0.000118766,-3.30039e-05,0.0383495,0.038807270787697856,0.029278838272335905,-0.00011875894759783012,-0.013293352462274144,-3.300335537725907e-05,-0.02298316913527909
65,136.7,698.783,51.6181,-0.000113303,189.936,-0.875903,-0.233122,0.0389527,-0.0136995,-0.0238083,0.0295302,-0.000122291,-3.39849e-05,0.0393058,0.03972130366939686,0.02997054011252076,-0.00012228352276044685,-0.013606088898199697,-3.398432251977557e-05,-0.023527118331675645
66,139.8,701.362,51.8194,-0.000117915,190.657,-0.883049,-0.235013,0.0398313,-0.0140163,-0.0243648,0.0302015,-0.000125826,-3.49688e-05,0.0402615,0.04063520422452527,0.030662191462899946,-0.0001258180842408363,-0.013918528996112123,-3.496818859860529e-05,-0.024070374315326548
67,142.9,703.892,52.0169,-0.000122587,191.364,-0.890035,-0.236861,0.0407091,-0.0143328,-0.0249208,0.0308722,-0.000129372,-3.59556e-05,0.0412164,0.0415490748459284,0.031353688462311124,-0.00012936363180360289,-0.014230574397895213,-3.595495360519951e-05,-0.024612840367669975
68,146.0,706.374,52.2108,-0.000127317,192.059,-0.896869,-0.238669,0.0415859,-0.014649,-0.0254763,0.0315423,-0.000132927,-3.69451e-05,0.0421707,0.04246270555192333,0.03204503017712157,-0.0001329181655976841,-0.014542225415648091,-3.694441753820943e-05,-0.025154517470101112
69,149.1,708.811,52.4012,-0.000132106,192.74,-0.903556,-0.240438,0.0424619,-0.0149649,-0.0260314,0.0322118,-0.000136492,-3.79373e-05,0.0431243,0.043376302979237336,0.03273621567335239,-0.00013648268539068198,-0.014853482361016246,-3.793658038975245e-05,-0.02569550403274168
70,152.2,711.203,52.5883,-0.000136951,193.41,-0.910104,-0.24217,0.0433371,-0.0152805,-0.026586,0.0328807,-0.000140067,-3.8932e-05,0.0440772,0.044289865636309544,0.03342724401668051,-0.00014005719107568204,-0.015164345545192526,-3.893124215947896e-05,-0.02623570349504789
71,155.3,713.553,52.7721,-0.000141853,194.068,-0.916517,-0.243866,0.0442114,-0.0155958,-0.0271401,0.0335491,-0.00014365,-3.99291e-05,0.0450293,0.04520328751002256,0.03411821768425605,-0.000143639682832708,-0.015474815278916365,-3.992830284405002e-05,-0.026775116833474777
72,158.3,715.863,52.9528,-0.00014681,194.714,-0.922802,-0.245528,0.0450848,-0.0159108,-0.0276937,0.0342169,-0.000147241,-4.09285e-05,0.0459808,0.04611656683235754,0.03480903246740863,-0.00014723016057593963,-0.015784891872476225,-4.092766244034873e-05,-0.02731374502275674
73,161.4,718.133,53.1306,-0.000151822,195.35,-0.928964,-0.247158,0.0459574,-0.0162255,-0.0282469,0.034884,-0.00015084,-4.19301e-05,0.0469315,0.04702980653711131,0.03549958388078256,-0.00015082862421911258,-0.01609457563570782,-4.192922094559126e-05,-0.02785168625074741
74,164.5,720.366,53.3054,-0.000156887,195.975,-0.935008,-0.248756,0.0468292,-0.0165399,-0.0287996,0.0355506,-0.000154447,-4.29339e-05,0.0478815,0.047943005127877525,0.03619007801952501,-0.00015443507367607356,-0.016403866877996887,-4.2932978353338314e-05,-0.028388844166492677
75,167.6,722.562,53.4775,-0.000162006,196.59,-0.940938,-0.250324,0.0477001,-0.0168541,-0.0293518,0.0362167,-0.000158062,-4.39398e-05,0.0488308,0.048856056221431965,0.03688051415472038,-0.00015804950886011415,-0.016712864236996916,-4.3938834661139126e-05,-0.028925219739818542
76,170.7,724.722,53.6468,-0.000167177,197.195,-0.946758,-0.251863,0.0485701,-0.0171679,-0.0299035,0.0368821,-0.000161684,-4.49476e-05,0.0497793,0.04976895804505688,0.037570684042895985,-0.00016167092984642473,-0.017021371332904156,-4.494658987175271e-05,-0.029460813938843255
77,173.8,726.848,53.8136,-0.0001724,197.791,-0.952474,-0.253374,0.0494393,-0.0174815,-0.0304547,0.0375469,-0.000165312,-4.59573e-05,0.0507271,0.05068181389306847,0.03826069036633695,-0.00016529833672418448,-0.017329585100409495,-4.59562439794059e-05,-0.029995627729978658
78,176.9,728.942,53.9778,-0.000177674,198.378,-0.958088,-0.254858,0.0503077,-0.0177947,-0.0310055,0.0382112,-0.000168948,-4.69688e-05,0.0516742,0.05159462226428446,0.03895063608304428,-0.0001689337290903259,-0.017637309282233726,-4.6967696983202245e-05,-0.030529759024962577
79,180.0,731.003,54.1396,-0.000182999,198.956,-0.963605,-0.256316,0.0511752,-0.0181077,-0.0315557,0.0388749,-0.000172589,-4.79821e-05,0.0526205,0.05250727640559716,0.0396404164985229,-0.00017257410737525625,-0.017944740688903282,-4.798094887747961e-05,-0.0310630148394202
80,183.1,733.033,54.2991,-0.000188374,199.525,-0.969027,-0.25775,0.0520418,-0.0184204,-0.0321055,0.039538,-0.000176237,-4.89971e-05,0.053566,0.053419774539664955,0.04033003067501495,-0.00017622147117213327,-0.01825178136017913,-4.8995899661674613e-05,-0.03159558997554124
81,186.2,735.034,54.4562,-0.000193799,200.087,-0.974359,-0.259159,0.0529077,-0.0187327,-0.0326548,0.0402005,-0.000179891,-5.00138e-05,0.0545109,0.054332325754469,0.04101947767443903,-0.00017987482058412496,-0.018558333458258636,-5.0012549330791245e-05,-0.03212738844614593
82,189.2,737.005,54.6111,-0.000199273,200.64,-0.979603,-0.260545,0.0537727,-0.0190448,-0.0332036,0.0408625,-0.00018355,-5.1032e-05,0.0554549,0.055244717768903495,0.04170886072927393,-0.0001835331557292763,-0.018864593608004077,-5.103069788958692e-05,-0.03265841120939261
83,192.3,738.948,54.7639,-0.000204795,201.185,-0.984763,-0.261909,0.0546368,-0.0193566,-0.033752,0.0415239,-0.000187215,-5.20516e-05,0.0563982,0.05615694880218447,0.04239807486775127,-0.0001871974763654194,-0.019170463940054283,-5.2050245338941536e-05,-0.033188755902879064
84,195.4,740.863,54.9146,-0.000210365,201.723,-0.989841,-0.263251,0.0555002,-0.0196681,-0.0342998,0.0421846,-0.000190885,-5.30728e-05,0.0573407,0.05706922848624729,0.043087014842075,-0.00019086678261748258,-0.019475944759429153,-5.307139166388364e-05,-0.033718230066181465
85,198.5,742.752,55.0633,-0.000215983,202.253,-0.99484,-0.264572,0.0563626,-0.0199793,-0.0348472,0.0428449,-0.000194561,-5.40953e-05,0.0582825,0.05798123819095413,0.0437759926389627,-0.00019454207423597047,-0.019781036370703386,-5.409383687560165e-05,-0.03424702796185497
86,201.6,744.616,55.21,-0.000221648,202.776,-0.999762,-0.265873,0.0572243,-0.0202903,-0.0353941,0.0435045,-0.000198241,-5.51192e-05,0.0592234,0.05889329352650918,0.04446469439257572,-0.000198221351551231,-0.02008583706942657,-5.511768096477798e-05,-0.03477505386041946
87,204.7,746.454,55.3548,-0.00022736,203.292,-1.00461,-0.267154,0.0580852,-0.0206009,-0.0359404,0.0441635,-0.000201926,-5.61444e-05,0.0601637,0.05980528727428802,0.04515322347159412,-0.00020190561431732146,-0.02039015114601017,-5.6142823932625596e-05,-0.03530221224207297
88,207.8,748.267,55.4977,-0.000233119,203.802,-1.00939,-0.268417,0.0589452,-0.0209112,-0.0364864,0.044822,-0.000205615,-5.71708e-05,0.0611031,0.060717111849712735,0.04584168351984341,-0.00020559386268459434,-0.020694076925586224,-5.716916578091258e-05,-0.03582879346443324
89,210.9,750.057,55.6388,-0.000238923,204.305,-1.0141,-0.26966,0.0598043,-0.0212213,-0.0370318,0.0454799,-0.000209309,-5.81985e-05,0.0620418,0.06162876546524276,0.046529969150163275,-0.00020928709639944643,-0.020997712611185326,-5.8196806500099285e-05,-0.036354509064801976
90,214.0,751.824,55.7782,-0.000244781,204.802,-1.01874,-0.270887,0.0606627,-0.021531,-0.0375767,0.0461372,-0.000213007,-5.92273e-05,0.0629797,0.06254045884033266,0.04721807942155176,-0.00021298431561955766,-0.02130086267437936,-5.922554609805175e-05,-0.03687945645790647
91,217.1,753.568,55.9159,-0.000250675,205.292,-1.02331,-0.272095,0.0615202,-0.0218405,-0.0381212,0.046794,-0.000216709,-6.02572e-05,0.0639168,0.06345197804179192,0.04790611818331114,-0.00021668552030074117,-0.02160372318729953,-6.0255384571328285e-05,-0.03740373284666498
92,220.1,755.291,56.0518,-0.000256616,205.776,-1.02782,-0.273287,0.062377,-0.0221496,-0.0386651,0.0474501,-0.000220415,-6.12881e-05,0.0648532,0.0643635341514508,0.04859387498139722,-0.00022039071039847702,-0.02190609874191296,-6.12862219228072e-05,-0.03792714660109586
93,223.2,756.992,56.1862,-0.0002626,206.255,-1.03227,-0.274463,0.0632329,-0.0224585,-0.0392086,0.0481057,-0.000224125,-6.23201e-05,0.0657887,0.06527491286921605,0.04928155852386906,-0.00022409988586835627,-0.02220818528834234,-6.231815814294883e-05,-0.038449891128225167
94,226.3,758.672,56.319,-0.000268629,206.728,-1.03666,-0.275623,0.064088,-0.0227671,-0.0397516,0.0487608,-0.000227838,-6.33532e-05,0.0667235,0.06618621902062705,0.04996916807477558,-0.0002278120468939271,-0.022509885287658182,-6.335119322842253e-05,-0.03897187110695277
95,229.4,760.332,56.4502,-0.000274702,207.195,-1.041,-0.276768,0.0649422,-0.0230754,-0.0402941,0.0494152,-0.000231555,-6.43871e-05,0.0676575,0.0670973443751528,0.05065649276647455,-0.00023152819321003992,-0.02281119904012252,-6.438502719519068e-05,-0.0394930874741547
96,232.5,761.973,56.58,-0.000280819,207.656,-1.04527,-0.277898,0.0657957,-0.0233834,-0.0408362,0.0500691,-0.000235275,-6.5422e-05,0.0685907,0.06800850073924325,0.0513437417186513,-0.0002352473250075704,-0.02311212684555719,-6.541986002761568e-05,-0.04001363716369355
97,235.6,763.594,56.7082,-0.000286979,208.113,-1.0495,-0.279013,0.0666483,-0.0236912,-0.0413777,0.0507224,-0.000238999,-6.64578e-05,0.0695232,0.06891947307929791,0.052030808991203825,-0.0002389704420140415,-0.023412766662072593,-6.6455591729353e-05,-0.04053332905988971
98,238.7,765.196,56.835,-0.000293182,208.564,-1.05367,-0.280115,0.0675002,-0.0239986,-0.0419188,0.0513751,-0.000242726,-6.74944e-05,0.0704548,0.06983047356397565,0.052717693640652596,-0.0002426965444276563,-0.023712923441140177,-6.749212230416912e-05,-0.04105235604012214
99,241.8,766.78,56.9605,-0.000299429,209.01,-1.05778,-0.281202,0.0683512,-0.0243058,-0.0424594,0.0520273,-0.000246455,-6.85319e-05,0.0713857,0.07074128679303948,0.053404500063674254,-0.0002464246324612729,-0.024012792768772218,-6.852955174296849e-05,-0.041570623036255916
100,244.9,768.346,57.0845,-0.000305717,209.451,-1.06185,-0.282277,0.0692014,-0.0246126,-0.0429995,0.0526789,-0.000250188,-6.95701e-05,0.0723158,0.07165201813210409,0.05409112211308531,-0.00025015670559214165,-0.02431217971564459,-6.956768005672576e-05,-0.04208813097715469
101,248.0,769.894,57.2073,-0.000312049,209.888,-1.06587,-0.283338,0.0700508,-0.0249192,-0.0435391,0.0533299,-0.000253924,-7.06091e-05,0.0732451,0.07256266605372619,0.05477755884449431,-0.0002538917640295679,-0.024611279746965975,-7.060660723612333e-05,-0.04260488079004121
102,251.0,771.425,57.3287,-0.000318422,210.319,-1.06984,-0.284387,0.0708994,-0.0252255,-0.0440782,0.0539803,-0.000257662,-7.16489e-05,0.0741736,0.07347322902936715,0.05546380931322781,-0.000257628807997623,-0.024909995561317122,-7.164633327882974e-05,-0.043120873400502524
103,254.1,772.94,57.4489,-0.000324837,210.746,-1.07377,-0.285424,0.0717473,-0.0255315,-0.0446169,0.0546302,-0.000261402,-7.26893e-05,0.0751013,0.07438381296776764,0.056149978189325545,-0.00026136783747388037,-0.02520832745556756,-7.268665819681885e-05,-0.04363620536887358
104,257.2,774.438,57.5678,-0.000331294,211.169,-1.07765,-0.286449,0.0725943,-0.0258372,-0.0451551,0.0552795,-0.000265146,-7.37305e-05,0.0760282,0.07529420155249045,0.05683595904974981,-0.0002651108519058365,-0.02550627572615083,-7.372778197345387e-05,-0.04415078187818422
105,260.3,775.921,57.6855,-0.000337792,211.587,-1.08148,-0.287462,0.0734405,-0.0261426,-0.0456928,0.0559283,-0.000268891,-7.47722e-05,0.0769544,0.0762045005990517,0.05752185670111909,-0.0002688548520550782,-0.025803840669064604,-7.476940462869397e-05,-0.04466460384935178
106,263.4,777.387,57.802,-0.000344332,212.0,-1.08528,-0.288464,0.0742859,-0.0264478,-0.04623,0.0565765,-0.000272639,-7.58146e-05,0.0778798,0.07711470857455915,0.058207564582548166,-0.00027260183736521615,-0.02610111996976361,-7.581172614579135e-05,-0.0451776722016658
107,266.5,778.838,57.9173,-0.000350913,212.41,-1.08903,-0.289455,0.0751305,-0.0267527,-0.0467667,0.0572241,-0.000276389,-7.68577e-05,0.0788043,0.07802482394503962,0.05889308174787167,-0.0002763508080789734,-0.026398016474112773,-7.685474652263657e-05,-0.04568998785279266
108,269.6,780.275,58.0315,-0.000357535,212.815,-1.09274,-0.290435,0.0759743,-0.0270572,-0.047303,0.0578712,-0.000280142,-7.79013e-05,0.0797281,0.07893484517544724,0.059578513208501827,-0.0002801027638938969,-0.026694433146367658,-7.789826577253578e-05,-0.04620164709861696
109,272.7,781.696,58.1446,-0.000364197,213.217,-1.09641,-0.291404,0.0768173,-0.0273615,-0.0478388,0.0585177,-0.000283896,-7.89454e-05,0.0806511,0.07984477072966434,0.060263752196927145,-0.0002838557053438384,-0.02699056497161889,-7.894228389393465e-05,-0.04671255537155261
110,275.8,783.104,58.2566,-0.0003709,213.614,-1.10004,-0.292363,0.0776596,-0.0276655,-0.0483741,0.0591636,-0.000287653,-7.99901e-05,0.0815733,0.08075470714597421,0.06094879776612161,-0.00028761163184243266,-0.027286314883603113,-7.998690087718252e-05,-0.04722271358463448
111,278.9,784.497,58.3675,-0.000377643,214.008,-1.10364,-0.293313,0.078501,-0.0279693,-0.0489089,0.059809,-0.000291411,-8.10353e-05,0.0824948,0.08166443682617275,0.06163375513216596,-0.00029136854393874145,-0.027581780417654356,-8.103201672871041e-05,-0.04773212264928395
112,281.9,785.876,58.4774,-0.000384427,214.397,-1.1072,-0.294252,0.0793417,-0.0282727,-0.0494432,0.0604538,-0.000295171,-8.2081e-05,0.0834154,0.08257417447285054,0.06231851732107985,-0.00029512744132620394,-0.02787676735369471,-8.207763144685298e-05,-0.04824078347531191
113,285.0,787.242,58.5863,-0.000391251,214.783,-1.11072,-0.295182,0.0801816,-0.0285759,-0.0499771,0.061098,-0.000298933,-8.31272e-05,0.0843353,0.08348381047015341,0.06300308338499283,-0.00029888832398261567,-0.028171470438587698,-8.312374503005593e-05,-0.04874879209604588
114,288.1,788.595,58.6941,-0.000398114,215.165,-1.1142,-0.296103,0.0810206,-0.0288788,-0.0505105,0.0617417,-0.000302696,-8.41738e-05,0.0852543,0.08439323483731309,0.06368755874452803,-0.00030265019218789213,-0.028465792722831562,-8.417025748508333e-05,-0.04925605419151402
115,291.2,789.935,58.801,-0.000405018,215.544,-1.11766,-0.297015,0.0818589,-0.0291814,-0.0510434,0.0623849,-0.000306462,-8.52209e-05,0.0861726,0.08530266281955767,0.06437194265658408,-0.00030641504531803143,-0.028759734498320144,-8.521726880228453e-05,-0.04976257066693379
116,294.3,791.262,58.9069,-0.000411961,215.919,-1.12108,-0.297918,0.0826965,-0.0294837,-0.0515758,0.0630274,-0.000310228,-8.62684e-05,0.0870901,0.08621209314618716,0.06505602136649391,-0.00031017988426984555,-0.029053296056516187,-8.626467898853463e-05,-0.050268342425921486
117,297.4,792.577,59.0118,-0.000418943,216.291,-1.12446,-0.298812,0.0835332,-0.0297857,-0.0521078,0.0636695,-0.000313997,-8.73162e-05,0.0880068,0.08712130712114607,0.06574011344207031,-0.00031394770810133643,-0.029346477688452333,-8.731238805148589e-05,-0.05077346529315496
118,300.5,793.879,59.1158,-0.000425965,216.66,-1.12782,-0.299698,0.0843692,-0.0300875,-0.0526393,0.0643109,-0.000317766,-8.83645e-05,0.0889227,0.08803052053215144,0.0664238984172314,-0.0003177155177319646,-0.02963937672079886,-8.836059597250312e-05,-0.05127784514553202
119,303.6,795.17,59.2189,-0.000433026,217.025,-1.13114,-0.300575,0.0852044,-0.030389,-0.0531703,0.0649518,-0.000321537,-8.94131e-05,0.0898378,0.08893962321133264,0.06710758855883081,-0.00032148531251885437,-0.029931896349167597,-8.940910276789005e-05,-0.051781482882107044
120,306.7,796.448,59.3211,-0.000440126,217.387,-1.13443,-0.301445,0.0860388,-0.0306902,-0.0537009,0.0655922,-0.00032531,-9.04621e-05,0.0907522,0.08984861361099661,0.06779118312216048,-0.0003252570924393572,-0.030224036863417125,-9.045800842755192e-05,-0.05228447417189952
121,309.0,797.407,59.3978,-0.000448681,217.658,-1.1369,-0.302096,0.0866687,-0.0309176,-0.0541014,0.0660756,-0.00032816,-9.12546e-05,0.0914425,0.09053532550991683,0.06830747815853822,-0.0003281061613966685,-0.030444538845408986,-9.125043642566055e-05,-0.05266395824323611
