,Time,S11,S22,S33,S12,S13,S23,LE11,LE22,LE33,LE12,LE13,LE23,SDV_EPBAR,E11,E12,E13,E22,E23,E33
0,0.000309,0.0019383,0.000139163,-7.79048e-12,0.000519365,9.3624e-20,3.36396e-20,9.1292e-09,-2.12864e-09,-3.00057e-09,6.49972e-09,9.45271e-25,4.67314e-25,0.0,9.129200062574228e-09,6.499720095476391e-09,0.0,-2.128640042009522e-09,0.0,-3.0005700146773506e-09
1,0.000618,0.00387659,0.000278327,3.25261e-19,0.00103873,3.61973e-20,-7.40724e-21,1.82584e-08,-4.2578e-09,-6.00057e-09,1.29997e-08,9.27189e-26,4.52981e-25,0.0,1.8258400125148455e-08,1.2999699983140545e-08,0.0,-4.257800001461476e-09,0.0,-6.000569929831556e-09
2,0.0010815,0.00678404,0.000487072,3.25261e-19,0.00181778,-8.55315e-21,3.19208e-20,3.19522e-08,-7.45077e-09,-1.05014e-08,2.27493e-08,2.14063e-25,-7.98907e-25,0.0,3.19522004410544e-08,2.2749300221391877e-08,0.0,-7.45077000097183e-09,0.0,-1.0501399971829528e-08
3,0.0017767,0.0111452,0.00080019,7.58942e-19,0.00298635,8.55315e-21,-3.19208e-20,5.24927e-08,-1.22421e-08,-1.72507e-08,3.73747e-08,4.28159e-25,-1.59792e-24,0.0,5.249270129681349e-08,3.737470066766946e-08,0.0,-1.2242099889370195e-08,0.0,-1.725069986857619e-08
4,0.0028196,0.017687,0.00126987,-2.27682e-18,0.00473921,-1.65988e-27,-4.44764e-28,8.33037e-08,-1.94275e-08,-2.73762e-08,5.93119e-08,1.2845e-24,-4.79383e-24,0.0,8.33037034908557e-08,5.931190183439128e-08,0.0,-1.9427499831081718e-08,0.0,-2.7376199640549714e-08
5,0.0043839,0.0274996,0.00197438,-4.01155e-18,0.00736849,1.71063e-20,-6.38416e-20,1.2952e-07,-3.02058e-08,-4.25643e-08,9.22178e-08,-1.48338e-24,-7.24799e-24,0.0,1.295200084960868e-07,9.221780428170234e-08,0.0,-3.0205799528282284e-08,0.0,-4.256429908533477e-08
6,0.0067304,0.0422185,0.00303115,-4.01155e-18,0.0113124,1.74418e-19,1.1516e-19,1.98845e-07,-4.63759e-08,-6.53437e-08,1.41578e-07,3.19598e-24,8.5636e-25,0.0,1.9884501978317815e-07,1.4157800998226833e-07,0.0,-4.637589889888716e-08,0.0,-6.534369789701344e-08
7,0.01025,0.0642969,0.00461631,8.13152e-18,0.0172283,2.08631e-19,-1.25227e-20,3.02832e-07,-7.06269e-08,-9.95172e-08,2.15616e-07,2.29126e-25,-1.36391e-23,0.0,3.0283204588421597e-07,2.156160232580362e-07,0.0,-7.062689755255036e-08,0.0,-9.951719504019962e-08
8,0.01553,0.0974145,0.00699405,2.92735e-18,0.0261021,-1.49373e-19,3.02101e-19,4.58812e-07,-1.07003e-07,-1.50778e-07,3.26673e-07,-3.42531e-24,1.27835e-23,0.0,4.5881210519738147e-07,3.266730532747175e-07,0.0,-1.0700299424293291e-07,0.0,-1.5077798865004155e-07
9,0.023449,0.147091,0.0105607,6.39679e-18,0.0394129,6.16725e-19,5.07377e-19,6.92782e-07,-1.61575e-07,-2.2766e-07,4.93263e-07,1.27839e-23,3.42544e-24,0.0,6.927822400193406e-07,4.932631216814087e-07,0.0,-1.6157498694546746e-07,0.0,-2.2765997409468497e-07
10,0.035328,0.221605,0.0159106,-7.48099e-18,0.059379,8.22001e-19,-2.58722e-19,1.04374e-06,-2.43427e-07,-3.4299e-07,7.43145e-07,1.27839e-23,3.42544e-24,0.0,1.0437405446594994e-06,7.43145276205226e-07,0.0,-2.4342697035883987e-07,0.0,-3.429899412266124e-07
11,0.053146,0.333377,0.0239354,-3.52366e-17,0.0893282,1.43291e-18,1.54718e-18,1.57017e-06,-3.66206e-07,-5.15985e-07,1.11797e-06,-4.82329e-29,-1.2924e-29,0.0,1.570171232812001e-06,1.1179706249642152e-06,0.0,-3.662059329112566e-07,0.0,-5.159848668334632e-07
12,0.079874,0.501035,0.0359727,-2.13588e-17,0.134252,1.15921e-18,2.56864e-18,2.35982e-06,-5.50367e-07,-7.75483e-07,1.6802e-06,-4.1105e-23,1.53406e-22,0.0,2.3598227842924757e-06,1.6802014115580022e-06,0.0,-5.503668485395963e-07,0.0,-7.754826992778519e-07
13,0.12,0.752521,0.0540286,-7.48099e-18,0.201637,2.25401e-18,-1.51722e-18,3.54429e-06,-8.26616e-07,-1.16472e-06,2.52354e-06,-1.0888e-28,-2.91744e-29,0.0,3.544296280910686e-06,2.523543184196342e-06,0.0,-8.266156583669471e-07,0.0,-1.1647193217667606e-06
14,0.1801,1.12975,0.0811124,2.02746e-17,0.302715,9.8783e-18,2.71531e-18,5.321e-06,-1.241e-06,-1.74857e-06,3.78857e-06,1.53406e-22,4.11051e-23,0.0,5.321014156622894e-06,3.788577176644381e-06,0.0,-1.2409992299344808e-06,0.0,-1.7485684712381655e-06
15,0.2703,1.69559,0.121738,-7.48099e-18,0.454332,-5.51699e-18,2.96936e-18,7.98605e-06,-1.86256e-06,-2.62435e-06,5.6861e-06,6.26956e-28,1.67992e-28,0.0,7.986081888677887e-06,5.686116165914967e-06,0.0,-1.862558265397496e-06,0.0,-2.6243465564013135e-06
16,0.4056,2.54435,0.182676,4.92119e-16,0.681756,-3.36327e-19,-2.16935e-20,1.19836e-05,-2.79488e-06,-3.93804e-06,8.53236e-06,2.19228e-22,-8.18169e-22,0.0,1.1983671803550422e-05,8.532396400751097e-06,0.0,-2.7948760943363737e-06,0.0,-3.938032245964784e-06
17,0.6086,3.81748,0.274083,3.81097e-16,1.02289,-3.36325e-19,-2.16927e-20,1.79799e-05,-4.19337e-06,-5.90853e-06,1.28018e-05,9.49301e-23,4.63893e-22,0.0,1.79800616393333e-05,1.2801881943413917e-05,0.0,-4.1933612078270954e-06,0.0,-5.908512544672284e-06
18,0.913,5.72716,0.411192,4.92119e-16,1.53459,3.23501e-17,8.73662e-18,2.69743e-05,-6.2911e-06,-8.86425e-06,1.92058e-05,4.09074e-22,1.09611e-22,0.0,2.697466380974234e-05,1.920598443261312e-05,0.0,-6.291080211107136e-06,0.0,-8.864210712666853e-06
19,1.37,8.59165,0.616853,-1.28424e-15,2.30213,-3.36733e-19,-2.18022e-20,4.04657e-05,-9.43765e-06,-1.32978e-05,2.88117e-05,4.38461e-22,-1.63636e-21,0.0,4.0466518747450664e-05,2.8812115061116472e-05,0.0,-9.4376054655676e-06,0.0,-1.3297711584647764e-05
20,2.055,12.8883,0.925338,-5.059e-15,3.45341,6.94144e-17,1.1511e-18,6.07025e-05,-1.41574e-05,-1.99479e-05,4.32204e-05,-7.0378e-26,-1.88577e-26,0.0,6.070434243410361e-05,4.322133401490902e-05,0.0,-1.4157299784489652e-05,0.0,-1.994770104196686e-05
21,3.082,19.3331,1.38805,-2.81516e-14,5.18029,7.817e-17,-3.15365e-17,9.10568e-05,-2.12368e-05,-2.99229e-05,6.48327e-05,8.76832e-22,-3.2728e-21,0.0,9.106094579625079e-05,6.483480168495426e-05,0.0,-2.123657450070482e-05,0.0,-2.992245231447921e-05
22,4.623,116.413,8.35811,-1.03265e-09,31.1929,9.83292e-16,7.71529e-16,0.000548295,-0.000127877,-0.000180179,0.000390388,3.49743e-21,-1.3096e-20,0.0,0.0005484453411794821,0.0003904642113123913,0.0,-0.00012786882408488687,0.0,-0.00018016276873877857
23,6.935,262.609,18.8545,-9.04826e-07,70.3658,1.26247e-15,-2.74743e-16,0.00123686,-0.000288468,-0.000406453,0.000880648,1.40118e-20,-5.23908e-20,0.0,0.0012376252267900512,0.0008810358843047705,0.0,-0.0002884263971069112,0.0,-0.00040637040916957634
24,10.03,446.442,32.093,0.00245597,119.702,-0.0118303,-0.00316817,0.00215605,-0.000511257,-0.000723404,0.00153874,-1.52638e-07,-4.09329e-08,5.88496e-05,0.0021583759471202058,0.0015399244678453439,-1.5263798835984943e-07,-0.000511126330409506,-4.0932899181278515e-08,-0.0007231424064094716
25,13.12,468.018,33.7942,8.47944e-05,125.763,-0.121513,-0.0325153,0.00307237,-0.000855005,-0.00125116,0.00223592,-2.19607e-06,-5.96117e-07,0.000956954,0.0030770945660076876,0.0022384215331852086,-2.1960675886667502e-06,-0.0008546395873755275,-5.961168223489466e-07,-0.001250377625653054
26,16.21,485.784,35.1936,7.8235e-05,130.755,-0.211133,-0.0564691,0.00398763,-0.00120118,-0.00178334,0.00293366,-4.46287e-06,-1.21659e-06,0.00187392,0.003995591175064428,0.0029379673916087867,-4.462860041409833e-06,-0.0012004588720674336,-1.2165892600002337e-06,-0.0017817507940607324
27,19.3,500.928,36.3859,3.14676e-05,135.009,-0.286041,-0.0764735,0.00490184,-0.00154888,-0.0023184,0.00363167,-6.92503e-06,-1.89375e-06,0.00280355,0.004913873672036662,0.0036382725037800157,-6.925006022062696e-06,-0.001547681104434373,-1.8937482068048794e-06,-0.002315714586408446
28,22.39,514.155,37.4266,1.23371e-05,138.723,-0.350047,-0.0935543,0.00581502,-0.00189757,-0.00285543,0.00432977,-9.56102e-06,-2.621e-06,0.00374217,0.005831960048455986,0.00433915699708276,-9.560974293609803e-06,-0.0018957707522936351,-2.620996565227962e-06,-0.0028513571372712487
29,25.48,525.918,38.3516,3.31166e-06,142.025,-0.40572,-0.108402,0.00672719,-0.00224692,-0.00339381,0.00502781,-1.23512e-05,-3.39249e-06,0.00468742,0.006749868368023382,0.005040470646246131,-1.2351123724219093e-05,-0.002244397564847067,-3.3924842455235193e-06,-0.0033880575362716936
30,28.57,536.524,39.1852,-1.87657e-06,145.001,-0.454843,-0.121495,0.00763835,-0.0025967,-0.00393316,0.00572571,-1.52785e-05,-4.20312e-06,0.0056377,0.0076675966132271345,0.005742133207381261,-1.5278383284300645e-05,-0.0025933314908550553,-4.203111166889428e-06,-0.003925435257075671
31,31.66,546.192,39.9446,-5.52932e-06,147.713,-0.498702,-0.133179,0.00854851,-0.00294676,-0.00447319,0.0064234,-1.83279e-05,-5.04854e-06,0.00659187,0.008585152851112277,0.006444074276457101,-1.8327732045020362e-05,-0.0029424225642578072,-5.048527256135138e-06,-0.004463200186607397
32,34.75,555.083,40.6429,-8.59348e-06,150.207,-0.538248,-0.14371,0.00945769,-0.00329699,-0.00501368,0.00712082,-2.14865e-05,-5.92502e-06,0.00754909,0.009502555279156777,0.0071462333241600895,-2.1486269166759442e-05,-0.0032915608966753718,-5.925002447115801e-06,-0.00500113248492895
33,37.84,563.32,41.2895,-1.14881e-05,152.517,-0.574204,-0.153281,0.0103659,-0.00364728,-0.00555448,0.00781791,-2.47435e-05,-6.82938e-06,0.00850872,0.010419812062728795,0.007848549652352599,-2.4743193882126313e-05,-0.0036406367533485806,-6.829356679838305e-06,-0.005539082397713724
34,40.93,570.998,41.8921,-1.44078e-05,154.67,-0.607129,-0.162041,0.0112731,-0.00399759,-0.00609546,0.00851466,-2.80892e-05,-7.75886e-06,0.00947027,0.011336880835731256,0.008551012821511605,-2.808880550209114e-05,-0.003989610273861688,-7.758829900117448e-06,-0.006076920372007688
35,44.02,578.192,42.4566,-1.74446e-05,156.687,-0.637464,-0.17011,0.0121794,-0.00434785,-0.00663653,0.00921101,-3.15153e-05,-8.7111e-06,0.0104333,0.0122538709221236,0.00925356190092641,-3.151480339813606e-05,-0.004338411783792906,-8.711062058464059e-06,-0.006614556870095489
36,47.11,584.964,42.9879,-2.06407e-05,158.586,-0.665563,-0.177582,0.0130847,-0.00469802,-0.0071776,0.00990695,-3.50148e-05,-9.68403e-06,0.0113976,0.013170679282158204,0.009956186288645252,-3.5014186989035245e-05,-0.004687001565734428,-9.683983109964878e-06,-0.007151902547887556
37,50.2,591.363,43.4899,-2.40146e-05,160.38,-0.691715,-0.184534,0.0139891,-0.00504807,-0.00771862,0.0106025,-3.85811e-05,-1.06758e-05,0.0123629,0.014087405325532432,0.010658905673921915,-3.858035575887708e-05,-0.005035349907610898,-1.0675743013832673e-05,-0.007688907947141943
38,53.29,597.431,43.9658,-2.75719e-05,162.081,-0.716157,-0.19103,0.0148925,-0.00539797,-0.00825952,0.0112975,-4.22089e-05,-1.16849e-05,0.0133288,0.015003945826512766,0.011361557756680796,-4.220800921694856e-05,-0.0053834271390151844,-1.1684831731861856e-05,-0.008225503881380103
39,56.38,603.202,44.4185,-3.13121e-05,163.698,-0.739085,-0.197121,0.0157949,-0.00574771,-0.00880027,0.0119921,-4.58931e-05,-1.27099e-05,0.0142954,0.015920298783496545,0.012064293526577341,-4.589204692784232e-05,-0.00573122351651012,-1.2709819229517194e-05,-0.00876166096362041
40,59.47,608.706,44.8502,-3.52311e-05,165.241,-0.760666,-0.202854,0.0166965,-0.00609725,-0.00934083,0.0126862,-4.96293e-05,-1.37495e-05,0.0152623,0.016836665560948427,0.012767011202670986,-4.962806848662904e-05,-0.006078699492727879,-1.374940547604897e-05,-0.009297339963805662
41,62.56,613.968,45.2629,-3.93235e-05,166.716,-0.78104,-0.208265,0.017597,-0.00644659,-0.00988116,0.0133798,-5.34137e-05,-1.48027e-05,0.0162295,0.017752739378618543,0.01346971006943698,-5.3412273513742115e-05,-0.006425855318608509,-1.4802590440621266e-05,-0.00983250173710215
42,65.65,619.01,45.6584,-4.35831e-05,168.13,-0.800328,-0.213386,0.0184967,-0.0067957,-0.0104212,0.0140729,-5.72426e-05,-1.58683e-05,0.0171969,0.018668823556910796,0.014172389410882058,-5.724096167358805e-05,-0.0067726614479919345,-1.5868174099153975e-05,-0.010367087431042643
43,68.74,623.85,46.0381,-4.80036e-05,169.486,-0.818633,-0.218245,0.0193954,-0.00714459,-0.010961,0.0147655,-6.1113e-05,-1.69456e-05,0.0181643,0.019584712721793407,0.014875048510545552,-6.111113263862489e-05,-0.007119128091251259,-1.694545642416667e-05,-0.010901147121568977
44,71.83,628.505,46.4033,-5.25787e-05,170.791,-0.836045,-0.222867,0.0202933,-0.00749323,-0.0115005,0.0154576,-6.5022e-05,-1.80337e-05,0.0191318,0.020500608965430267,0.015577686651501166,-6.501988611551379e-05,-0.0074652257431852,-1.8033537393824517e-05,-0.011434622034899644
45,74.92,632.99,46.7552,-5.73023e-05,172.049,-0.852642,-0.227272,0.0211902,-0.00784162,-0.0120397,0.0161491,-6.89669e-05,-1.91319e-05,0.0200991,0.021416306544806085,0.01628020148833209,-6.896452183802193e-05,-0.007810954705434914,-1.9131716986420244e-05,-0.011967512806435487
46,78.01,637.318,47.0948,-6.21689e-05,173.262,-0.868494,-0.231477,0.0220861,-0.00818975,-0.0125786,0.0168401,-7.29455e-05,-2.02395e-05,0.0210663,0.022331803449443965,0.016982693790698722,-7.29428395417342e-05,-0.008156305360823679,-2.0239295182689077e-05,-0.012499820070709378
47,81.1,641.499,47.4229,-6.71731e-05,174.434,-0.883659,-0.235501,0.0229812,-0.00853761,-0.0131171,0.0175306,-7.69555e-05,-2.13559e-05,0.0220333,0.02324730231710448,0.017685162840289648,-7.695253900141807e-05,-0.008501268105592041,-2.1355671964373713e-05,-0.013031445764536298
48,84.19,645.544,47.7404,-7.23099e-05,175.568,-0.898193,-0.239356,0.0238753,-0.00888521,-0.0136553,0.0182205,-8.0995e-05,-2.24806e-05,0.023,0.024162596851552864,0.0183875060795764,-8.099171999353949e-05,-0.008845853172444462,-2.2480347313225124e-05,-0.013562489323785454
49,87.28,649.462,48.048,-7.75746e-05,176.667,-0.912143,-0.243056,0.0247686,-0.00923253,-0.0141931,0.0189099,-8.50621e-05,-2.36129e-05,0.0239664,0.0250778900541635,0.019089824487606766,-8.50584823220979e-05,-0.009190041055592624,-2.3612621217639074e-05,-0.014092852789508226
50,90.37,653.261,48.3464,-8.29629e-05,177.733,-0.925552,-0.246612,0.0256609,-0.00957956,-0.0147305,0.0195987,-8.91553e-05,-2.47526e-05,0.0249324,0.025992975260007656,0.01979201536548958,-8.915132578435347e-05,-0.009533822181013174,-2.4752293656948865e-05,-0.014622536951537146
51,93.46,656.949,48.636,-8.84706e-05,178.767,-0.938457,-0.250034,0.0265524,-0.00992632,-0.0152675,0.0202869,-9.32728e-05,-2.58991e-05,0.0258981,0.026908055834011124,0.02049407778243273,-9.326845022761265e-05,-0.009877216691652424,-2.589876462122387e-05,-0.01515154259846574
52,96.55,660.533,48.9175,-9.4094e-05,179.772,-0.950894,-0.253332,0.0274429,-0.0102728,-0.0158041,0.0209746,-9.74135e-05,-2.7052e-05,0.0268634,0.027822924742655797,0.021196112926840094,-9.74087554590497e-05,-0.010220215009153266,-2.705163409799649e-05,-0.015679870517649186
53,99.64,664.018,49.1913,-9.98296e-05,180.75,-0.962894,-0.256513,0.0283326,-0.010619,-0.0163404,0.0216618,-0.000101576,-2.82109e-05,0.0278282,0.028737785714354924,0.021898120077673777,-0.0001015708413327765,-0.010562817462810625,-2.821050207635345e-05,-0.016207619874451407
54,102.7,667.41,49.4579,-0.000105674,181.702,-0.974484,-0.259586,0.0292213,-0.0109648,-0.0168762,0.0223483,-0.000105759,-2.93756e-05,0.0287925,0.029652431347108266,0.022599893993442643,-0.00010575340771412645,-0.010904905690068634,-2.9375168541290186e-05,-0.016734594642575318
55,105.8,670.715,49.7176,-0.000111624,182.629,-0.985691,-0.262556,0.0301092,-0.0113104,-0.0174116,0.0230343,-0.000109961,-3.05457e-05,0.0297563,0.0305670657327477,0.023301638191462137,-0.00010995495451082693,-0.011246677893023582,-3.054523348489102e-05,-0.017260894037683383
56,108.9,673.936,49.9709,-0.000117677,183.533,-0.996538,-0.265431,0.0309961,-0.0116557,-0.0179466,0.0237197,-0.000114181,-3.17209e-05,0.0307196,0.0314814811009021,0.02400324954902433,-0.00011417448159767307,-0.011588035476368663,-3.1720396897583214e-05,-0.01778651884220106
57,112.0,677.079,50.218,-0.00012383,184.415,-1.00705,-0.268216,0.0318822,-0.0120007,-0.0184812,0.0244045,-0.000118419,-3.29009e-05,0.0316824,0.032395881906752244,0.02470472713282712,-0.00011841198874695813,-0.011928978788026345,-3.290035877134834e-05,-0.018311469837324346
58,115.1,680.147,50.4594,-0.00013008,185.276,-1.01723,-0.270916,0.0327674,-0.0123453,-0.0190153,0.0250888,-0.000122673,-3.40855e-05,0.0326446,0.03331016334267867,0.025406172549781614,-0.00012266547597516997,-0.012269409402372311,-3.408491909595579e-05,-0.018835649686594902
59,118.2,683.144,50.6951,-0.000136425,186.118,-1.02712,-0.273536,0.0336517,-0.0126897,-0.019549,0.0257725,-0.000126943,-3.52744e-05,0.0336062,0.034224323656533606,0.02610748246542971,-0.0001269349430782496,-0.01260952524646397,-3.527377786560759e-05,-0.01935915738990024
60,121.3,686.074,50.9257,-0.000142863,186.94,-1.03672,-0.27608,0.0345352,-0.0130338,-0.0200823,0.0264556,-0.000131227,-3.64674e-05,0.0345672,0.03513846460878711,0.026808655945238513,-0.00013121839011376313,-0.012949227859640255,-3.646673507240461e-05,-0.019881993724563896
61,124.4,688.939,51.1512,-0.000149392,187.745,-1.04606,-0.278553,0.0354177,-0.0133775,-0.0206152,0.0271381,-0.000135526,-3.76642e-05,0.0355276,0.036052377508558164,0.02750969205428122,-0.00013551681676648997,-0.013288418916702627,-3.766349071288033e-05,-0.020404159466689054
62,127.4,691.742,51.3719,-0.000156009,188.532,-1.05514,-0.280958,0.0362994,-0.013721,-0.0211476,0.0278201,-0.000139837,-3.88648e-05,0.0364874,0.036966267719102275,0.028210692678303895,-0.00013982722326233432,-0.013627296139309686,-3.8864044773490036e-05,-0.020925557483720936
63,130.5,694.487,51.5881,-0.000162713,189.303,-1.06397,-0.283299,0.0371802,-0.0140641,-0.0216795,0.0285014,-0.000144161,-4.00688e-05,0.0374465,0.03788002996952877,0.02891145130954742,-0.00014415060930228485,-0.01396566256392473,-4.006799725631005e-05,-0.021446188705547264
64,133.6,697.175,51.7999,-0.000169502,190.058,-1.07258,-0.285579,0.0380601,-0.014407,-0.0222111,0.0291822,-0.000148497,-4.12762e-05,0.038405,0.038793662501585,0.029612172724103658,-0.00014848597486616377,-0.014303715775696113,-4.1275348149349966e-05,-0.021966249667180415
65,136.7,699.81,52.0075,-0.000176374,190.798,-1.08096,-0.287801,0.0389392,-0.0147495,-0.0227421,0.0298624,-0.000152845,-4.24867e-05,0.0393629,0.0397072675265413,0.030312753164386752,-0.00015283331979798476,-0.014641258945475522,-4.248579745291803e-05,-0.02248544772932204
66,139.8,702.393,52.2111,-0.000183327,191.524,-1.08914,-0.289967,0.0398174,-0.0150917,-0.0232728,0.030542,-0.000157203,-4.37002e-05,0.04032,0.04062073949571654,0.031013191693491038,-0.0001571906442557891,-0.014978391020076476,-4.369924516012258e-05,-0.0230040770717439
67,142.9,704.926,52.4108,-0.000190361,192.236,-1.09712,-0.292081,0.0406947,-0.0154336,-0.0238029,0.031221,-0.000161571,-4.49166e-05,0.0412765,0.04153407664723807,0.03171348737412938,-0.00016155794810890356,-0.015315112342396686,-4.4915591264627075e-05,-0.02352184536387758
68,146.0,707.412,52.6069,-0.000197472,192.934,-1.10491,-0.294145,0.0415712,-0.0157752,-0.0243326,0.0318995,-0.00016595,-4.61356e-05,0.0422323,0.04244738146278415,0.03241374251000306,-0.0001659362310603152,-0.015651423254846253,-4.613453576951532e-05,-0.024038948875432453
69,149.1,709.852,52.7994,-0.000204661,193.62,-1.11252,-0.29616,0.0424468,-0.0161165,-0.0248619,0.0325773,-0.000170337,-4.73573e-05,0.0431874,0.04336054811601198,0.03311374975033088,-0.0001703224934768155,-0.015987324099349554,-4.735617866080677e-05,-0.02455538837202298
70,152.2,712.248,52.9885,-0.000211926,194.294,-1.11996,-0.29813,0.0433216,-0.0164574,-0.0253907,0.0332546,-0.000174733,-4.85813e-05,0.0441418,0.04427367926883674,0.033813714709411746,-0.00017471773507837796,-0.01632271684962172,-4.858011994779421e-05,-0.02507106712517282
71,155.3,714.602,53.1743,-0.000219266,194.956,-1.12723,-0.300056,0.0441954,-0.0167981,-0.0259191,0.0339313,-0.000179138,-4.98077e-05,0.0450955,0.04518656439120772,0.034513533207039204,-0.00017912195574643075,-0.01665779861557104,-4.980645961705221e-05,-0.02558608349399627
72,158.3,716.915,53.3569,-0.000226678,195.606,-1.13435,-0.30194,0.0450685,-0.0171384,-0.026447,0.0346074,-0.000183551,-5.10364e-05,0.0460485,0.04609951527128886,0.03521320430400232,-0.00018353415554572816,-0.016992373035635833,-5.103509766513081e-05,-0.02610034085034796
73,161.4,719.189,53.5365,-0.000234163,196.246,-1.14131,-0.303784,0.0459407,-0.0174784,-0.0269744,0.0352829,-0.000187971,-5.22671e-05,0.0470007,0.04701232128534438,0.03591272706072157,-0.00018795333455834395,-0.01732653881740165,-5.226573409888857e-05,-0.026613840108926534
74,164.5,721.425,53.7131,-0.000241719,196.875,-1.14812,-0.305589,0.046812,-0.0178181,-0.0275014,0.0359578,-0.000192398,-5.34998e-05,0.0479523,0.04792498066320028,0.03661210053724795,-0.00019237949269168553,-0.017660296300247347,-5.349836891122006e-05,-0.02712667947014824
75,167.6,723.624,53.8869,-0.000249345,197.494,-1.1548,-0.307357,0.0476825,-0.0181575,-0.0280279,0.0366321,-0.000196833,-5.47344e-05,0.0489031,0.04883759651728847,0.037311323793267404,-0.0001968136296559564,-0.01799364582306906,-5.4732902100007585e-05,-0.027638762455731936
76,170.7,725.788,54.058,-0.00025704,198.102,-1.16134,-0.30909,0.0485521,-0.0184966,-0.028554,0.0373059,-0.000201274,-5.59709e-05,0.0498531,0.04975006237387358,0.03801049968914594,-0.0002012537457473096,-0.018326587724280752,-5.596933365836776e-05,-0.02815018716073925
77,173.8,727.917,54.2264,-0.000264804,198.702,-1.16776,-0.310789,0.0494209,-0.0188353,-0.0290796,0.037979,-0.000205721,-5.72091e-05,0.0508025,0.050662481525551195,0.03870941975164577,-0.0002056998408860311,-0.01865902420772203,-5.7207463590613905e-05,-0.028660857206523338
78,176.9,730.014,54.3922,-0.000272634,199.292,-1.17405,-0.312455,0.0502888,-0.0191738,-0.0296047,0.0386516,-0.000210174,-5.84489e-05,0.051751,0.051574747313742675,0.039408290711327565,-0.00021015191499207386,-0.018991151912242543,-5.844719189629366e-05,-0.029170773500164615
79,180.0,732.078,54.5556,-0.000280531,199.873,-1.18022,-0.314089,0.0511559,-0.0195119,-0.0301294,0.0393236,-0.000214633,-5.96903e-05,0.0526989,0.05248696321118551,0.04010700782534182,-0.00021460996798539078,-0.0193227749397491,-5.968851856952284e-05,-0.029680033979138876
80,183.1,734.112,54.7165,-0.000288494,200.446,-1.18628,-0.315693,0.0520222,-0.0198497,-0.0306536,0.039995,-0.000219097,-6.09331e-05,0.0536459,0.053399127714423456,0.040805570151527526,-0.00021907300000501007,-0.019653991760703815,-6.093124361639113e-05,-0.0301885424136219
81,186.2,736.115,54.8751,-0.000296521,201.01,-1.19223,-0.317268,0.0528876,-0.0201872,-0.0311774,0.0406658,-0.000223566,-6.21774e-05,0.0545923,0.05431113388770026,0.04150397674736861,-0.00022354101098398527,-0.019984802710996674,-6.21754670254715e-05,-0.030696396636473278
82,189.2,738.09,55.0315,-0.000304613,201.566,-1.19807,-0.318815,0.0537522,-0.0205244,-0.0317007,0.0413361,-0.00022804,-6.3423e-05,0.0555378,0.055223085473921074,0.04220233089022574,-0.00022801400085548096,-0.02031520812603882,-6.342098880407487e-05,-0.031203500516810978
83,192.3,740.036,55.1857,-0.000312768,202.114,-1.20381,-0.320335,0.054616,-0.0208613,-0.0322235,0.0420057,-0.000232519,-6.46699e-05,0.0564826,0.05613498096611558,0.04290042326623378,-0.00023249196955232865,-0.020645208340763554,-6.466780894709423e-05,-0.03170985495415768
84,195.4,741.955,55.3377,-0.000320985,202.655,-1.20944,-0.321828,0.0554789,-0.0211979,-0.0327459,0.0426748,-0.000237002,-6.5918e-05,0.0574267,0.05704671315146981,0.0435984614420708,-0.00023697391724453176,-0.02097480368962701,-6.591582745640867e-05,-0.03221555762489148
85,198.5,743.847,55.4877,-0.000329265,203.188,-1.21499,-0.323296,0.056341,-0.0215341,-0.0332678,0.0433432,-0.000241489,-6.71673e-05,0.0583699,0.05795838604301351,0.04429623582391895,-0.0002414598438783555,-0.021303896637002384,-6.716504432735526e-05,-0.03272051254591868
86,201.6,745.713,55.6357,-0.000337605,203.714,-1.22044,-0.32474,0.0572022,-0.0218701,-0.0337892,0.0440111,-0.00024598,-6.84177e-05,0.0593125,0.0588698922433073,0.04499395425695951,-0.0002459497494001761,-0.021632683288481558,-6.841535956247924e-05,-0.0332247206122116
87,204.7,747.554,55.7817,-0.000346007,204.233,-1.2258,-0.32616,0.0580626,-0.0222057,-0.0343102,0.0446784,-0.000250476,-6.96691e-05,0.0602542,0.05978133594544688,0.04569151143670358,-0.00025044463350554214,-0.021960968270668735,-6.966667316454789e-05,-0.03372827934433231
88,207.8,749.371,55.9258,-0.000354469,204.745,-1.23108,-0.327558,0.0589222,-0.022541,-0.0348307,0.0453452,-0.000254974,-7.09214e-05,0.0611952,0.060692715636697425,0.04638901105705928,-0.00025494149689209156,-0.022288849785599862,-7.091888513699462e-05,-0.0342310929063524
89,210.9,751.164,56.0681,-0.000362991,205.25,-1.23627,-0.328933,0.059781,-0.022876,-0.0353508,0.0460113,-0.000259476,-7.21748e-05,0.0621353,0.061604029803178806,0.04708624296463171,-0.0002594423390140932,-0.022616328165230515,-7.217219546173936e-05,-0.034733258715393234
90,214.0,752.933,56.2086,-0.000371571,205.749,-1.24139,-0.330288,0.060639,-0.0232107,-0.0358703,0.0466769,-0.000263981,-7.3429e-05,0.0630748,0.06251527692986492,0.04778341556125043,-0.0002639461600815185,-0.022943403741042645,-7.342630415696494e-05,-0.035234584556828485
91,217.1,754.681,56.3474,-0.000380211,206.242,-1.24642,-0.331621,0.0614961,-0.023545,-0.0363895,0.0473418,-0.00026849,-7.4684e-05,0.0640134,0.06342634915795053,0.04848031841393596,-0.00026845395978547515,-0.02326997917104745,-7.46812112194517e-05,-0.035735360747777944
92,220.1,756.406,56.4844,-0.000388908,206.729,-1.25138,-0.332935,0.0623524,-0.0238791,-0.0369081,0.0480062,-0.000273001,-7.59399e-05,0.0649512,0.06433735113056316,0.04917716020269869,-0.0002729637386178485,-0.023596250164401922,-7.593701663877184e-05,-0.0362352987445671
93,223.2,758.11,56.6198,-0.000397664,207.21,-1.25627,-0.334229,0.0632079,-0.0242129,-0.0374263,0.04867,-0.000277515,-7.71964e-05,0.0658883,0.06524828132929006,0.04987383520249211,-0.00027747649627418713,-0.023922119345504922,-7.719342043455146e-05,-0.03673459223464115
94,226.3,759.793,56.7536,-0.000406476,207.684,-1.26109,-0.335505,0.0640626,-0.0245463,-0.0379441,0.0493333,-0.000282031,-7.84537e-05,0.0668246,0.06615913823459163,0.05057044752331774,-0.00028199123299610385,-0.02424748946870181,-7.845062258893254e-05,-0.03723324195122901
95,229.4,761.456,56.8858,-0.000415346,208.154,-1.26584,-0.336762,0.0649164,-0.0248794,-0.0384613,0.0499959,-0.00028655,-7.97117e-05,0.0677601,0.06706981361881614,0.05126678617336489,-0.00028650894846993236,-0.024572458503362316,-7.970852310679177e-05,-0.03773105617263728
96,232.5,763.099,57.0165,-0.000424272,208.618,-1.27052,-0.338002,0.0657695,-0.0252123,-0.0389782,0.050658,-0.000291071,-8.09703e-05,0.0686949,0.06798051928308246,0.05196306038863319,-0.00029102864294616726,-0.02489712428830837,-8.0967021993672e-05,-0.03822832445964086
97,235.6,764.723,57.1457,-0.000433254,209.076,-1.27513,-0.339225,0.0666217,-0.0255448,-0.0394945,0.0513195,-0.000295595,-8.22295e-05,0.0696288,0.06889104019947312,0.05265916416402061,-0.0002955513161023715,-0.02522129209859736,-8.222611924735279e-05,-0.03872475901011552
98,238.7,766.328,57.2734,-0.000442291,209.529,-1.27969,-0.340432,0.0674732,-0.025877,-0.0400104,0.0519804,-0.00030012,-8.34893e-05,0.070562,0.06980158853113894,0.05335509655114268,-0.000300074968497932,-0.02554505980456867,-8.348581486539164e-05,-0.03922055300588467
99,241.8,767.915,57.3997,-0.000451385,209.977,-1.28418,-0.341622,0.0683238,-0.0262089,-0.0405258,0.0526407,-0.000304647,-8.47496e-05,0.0714943,0.07071194888371268,0.054050856601296715,-0.00030460059981474163,-0.025868427733343413,-8.474600885410855e-05,-0.0397156111454241
100,244.9,769.483,57.5247,-0.000460533,210.42,-1.28862,-0.342797,0.0691736,-0.0265404,-0.0410408,0.0533005,-0.000309177,-8.60104e-05,0.0724259,0.07162222662010387,0.05474654884011354,-0.00030912920971670754,-0.026191298830708698,-8.600670121161613e-05,-0.04021003028182868
101,248.0,771.035,57.6482,-0.000469736,210.858,-1.293,-0.343957,0.0700226,-0.0268717,-0.0415553,0.0539597,-0.000313707,-8.72716e-05,0.0733567,0.07253242021301198,0.05544206698270271,-0.00031365779910419445,-0.026513868216836878,-8.726779194467849e-05,-0.040703715209910674
102,251.0,772.569,57.7704,-0.000478993,211.292,-1.29732,-0.345103,0.0708708,-0.0272027,-0.0420694,0.0546183,-0.00031824,-8.85333e-05,0.0742867,0.07344252813404184,0.05613741007936546,-0.00031818936702254774,-0.026836038804283313,-8.85293810429788e-05,-0.04119676268120953
103,254.1,774.086,57.8914,-0.000488305,211.72,-1.30159,-0.346234,0.0717182,-0.0275333,-0.0425829,0.0552763,-0.000322774,-8.97954e-05,0.075216,0.07435254885370535,0.056832577180091715,-0.0003227219140766735,-0.027157713634075487,-8.979136851372527e-05,-0.04168898175550961
104,257.2,775.587,58.011,-0.00049767,212.144,-1.30581,-0.347351,0.0725648,-0.0278637,-0.0430961,0.0559338,-0.000327309,-9.10579e-05,0.0761444,0.07526248084142728,0.05752767308732598,-0.000327255440253027,-0.02747908763158291,-9.105375435525254e-05,-0.04218066079443983
105,260.3,777.072,58.1295,-0.000507089,212.564,-1.30998,-0.348455,0.0734106,-0.0281937,-0.0436088,0.0565907,-0.000331846,-9.23207e-05,0.0770721,0.07617232256554796,0.0582225912366543,-0.0003317909452063006,-0.027799966584725166,-9.23164385753239e-05,-0.0426716089043484
106,263.4,778.541,58.2467,-0.000516562,212.979,-1.31409,-0.349545,0.0742556,-0.0285235,-0.044121,0.057247,-0.000336384,-9.35838e-05,0.0779989,0.07708207249332832,0.05891733067709293,-0.0003363274292457197,-0.028120545289411436,-9.357942117271811e-05,-0.04316182695070869
107,266.5,779.995,58.3627,-0.000526087,213.391,-1.31816,-0.350623,0.0750998,-0.0288529,-0.0446327,0.0579027,-0.000340923,-9.48473e-05,0.078925,0.07799172909095309,0.05961189045735682,-0.00034086489235773954,-0.028440629661002914,-9.484280213700735e-05,-0.04365131579745596
108,269.6,781.434,58.4775,-0.000535666,213.797,-1.32218,-0.351689,0.0759433,-0.029182,-0.045144,0.0585579,-0.000345462,-9.6111e-05,0.0798503,0.07890139871366952,0.060306375656490996,-0.00034540233487434513,-0.028760317242304656,-9.610638148582762e-05,-0.04414017189297781
109,272.7,782.858,58.5913,-0.000545297,214.2,-1.32616,-0.352743,0.0767859,-0.0295109,-0.0456549,0.0592125,-0.000350003,-9.7375e-05,0.0807748,0.07981086413619987,0.061000679430828875,-0.0003499417560954843,-0.029079705447694004,-9.737025920852904e-05,-0.044628395951702426
110,275.8,784.268,58.7039,-0.00055498,214.599,-1.33009,-0.353785,0.0776277,-0.0298394,-0.0461653,0.0598665,-0.000354545,-9.86392e-05,0.0816985,0.08072023162070385,0.061694800828132834,-0.00035448215634870106,-0.02939860038309361,-9.863433531398513e-05,-0.045115893198528045
111,278.9,785.664,58.8154,-0.000564716,214.994,-1.33398,-0.354816,0.0784688,-0.0301676,-0.0466752,0.06052,-0.000359088,-9.99036e-05,0.0826214,0.08162960779205752,0.0623888451347514,-0.00035902353562045075,-0.029717099493884902,-9.989860980152976e-05,-0.045602664491698475
112,281.9,787.046,58.9258,-0.000574504,215.385,-1.33783,-0.355835,0.079309,-0.0304955,-0.0471847,0.0611729,-0.000363631,-0.000101168,0.0835435,0.08253877487613193,0.06308270529774207,-0.000363564894260926,-0.030035203101024255,-0.00010116288269046425,-0.04608880607905397
113,285.0,788.415,59.0352,-0.000584344,215.772,-1.34164,-0.356844,0.0801485,-0.0308231,-0.0476937,0.0618252,-0.000368175,-0.000102433,0.0844649,0.08344794774955822,0.06377638036393418,-0.0003681072319019485,-0.030352911525007187,-0.0001024277539193319,-0.04657422332758987
114,288.1,789.77,59.1436,-0.000594236,216.156,-1.34541,-0.357843,0.0809872,-0.0311504,-0.0482022,0.0624769,-0.000372719,-0.000103698,0.0853854,0.08435701670811557,0.06446986937986865,-0.0003726495489024817,-0.03067022508586814,-0.00010369262354825715,-0.04705891709119436
115,291.2,791.112,59.251,-0.00060418,216.536,-1.34914,-0.358831,0.0818251,-0.0314774,-0.0487104,0.0631281,-0.000377264,-0.000104963,0.0863052,0.08526598020949394,0.06516327790812171,-0.00037719284488546556,-0.03098714410318182,-0.00010495749157701795,-0.04754307871364005
116,294.3,792.442,59.3573,-0.000614175,216.912,-1.35283,-0.35981,0.0826622,-0.0318041,-0.049218,0.0637788,-0.00038181,-0.000106228,0.0872242,0.08617483671034365,0.06585660520262815,-0.00038173711983768843,-0.03130366889606295,-0.00010622235800572533,-0.04802642316368533
117,297.4,793.759,59.4628,-0.000624221,217.285,-1.35649,-0.360779,0.0834986,-0.0321305,-0.0497252,0.0644288,-0.000386356,-0.000107494,0.0881424,0.08708369337464128,0.0665496372070109,-0.00038628137413176944,-0.03161979978316798,-0.00010748822272699243,-0.04850914173407905
118,300.5,795.064,59.5672,-0.000634319,217.655,-1.36011,-0.361738,0.0843341,-0.0324566,-0.050232,0.0650783,-0.000390902,-0.000108759,0.0890598,0.08799233133110507,0.0672425862072048,-0.00039082560776748654,-0.03193553708269381,-0.00010875308595437172,-0.04899123512826342
119,303.6,796.357,59.6708,-0.000644467,218.021,-1.36369,-0.362688,0.0851689,-0.0327824,-0.0507383,0.0657272,-0.000395448,-0.000110024,0.0899764,0.08890096654086865,0.06793534466256679,-0.0003953698207452838,-0.032250881112380614,-0.00011001794758169758,-0.049472608995840495
120,306.7,797.638,59.7734,-0.000654667,218.384,-1.36724,-0.36363,0.086003,-0.0331079,-0.0512441,0.0663756,-0.000399995,-0.00011129,0.0908922,0.08980959772901786,0.06862801848063005,-0.00039991501266523066,-0.032565832189509925,-0.00011128380749758637,-0.04995326418226631
121,309.0,798.598,59.8503,-0.000666344,218.656,-1.3699,-0.364334,0.0866326,-0.0333537,-0.051626,0.0668651,-0.000403429,-0.000112246,0.0915837,0.09049595789525577,0.069151239943682,-0.00040334763346316915,-0.032803598285307434,-0.00011223970065343813,-0.05031601775847083
