,Time,S11,S22,S33,S12,S13,S23,LE11,LE22,LE33,LE12,LE13,LE23,SDV_EPBAR,E11,E12,E13,E22,E23,E33
0,0.000284,0.0015581,0.000519365,0.0,0.000899567,1.32028e-20,2.67023e-20,6.7501e-09,2.50301e-10,-3.0004e-09,1.1258e-08,6.18106e-26,5.13348e-25,0.0,6.750100034480511e-09,1.1258000087721598e-08,0.0,2.5030089112476617e-10,0.0,-3.0004000395322805e-09
1,0.000568,0.00311619,0.00103873,2.1684e-19,0.00179913,-2.79039e-28,-1.61103e-28,1.35001e-08,5.00425e-10,-6.00057e-09,2.25162e-08,2.06826e-25,-3.58238e-25,0.0,1.3500100148888805e-08,2.2516200237632233e-08,0.0,5.00425034744012e-10,0.0,-6.000569929831556e-09
2,0.000994,0.00545333,0.00181778,2.1684e-19,0.00314848,-6.04799e-21,-2.25714e-20,2.36252e-08,8.75688e-10,-1.05009e-08,3.94034e-08,-4.13622e-25,7.16424e-25,0.0,2.3625200240573463e-08,3.9403400764470575e-08,0.0,8.756879665838824e-10,0.0,-1.0500899927379237e-08
3,0.001633,0.00895905,0.00298635,4.33681e-19,0.00517251,-5.11908e-20,-1.04754e-20,3.88125e-08,1.4375e-09,-1.725e-08,6.47354e-08,3.9316e-32,2.26991e-32,0.0,3.8812500768869995e-08,6.473540214990692e-08,0.0,1.4374998968946784e-09,0.0,-1.7249999872959165e-08
4,0.0025915,0.0142176,0.00473921,-1.30104e-18,0.00820854,3.90948e-20,-3.46674e-20,6.15937e-08,2.28125e-09,-2.7375e-08,1.02732e-07,2.86544e-24,1.65436e-24,0.0,6.159370191660685e-08,1.027320053470504e-07,0.0,2.281250077729169e-09,0.0,-2.7374999600482397e-08
5,0.0040292,0.0221055,0.00736849,-1.30104e-18,0.0127626,-7.53827e-20,-1.00761e-19,9.57656e-08,3.54688e-09,-4.25625e-08,1.59728e-07,2.30786e-31,1.33244e-31,0.0,9.576560455748506e-08,1.597280128162737e-07,0.0,3.5468799008953056e-09,0.0,-4.256249908074494e-08
6,0.0061859,0.0339373,0.0113124,-4.77049e-18,0.0195937,1.20526e-19,8.8665e-20,1.47024e-07,5.44671e-09,-6.53456e-08,2.45219e-07,-6.61761e-24,1.14621e-23,0.0,1.4702401074373483e-07,2.452190299706558e-07,0.0,5.446709971934638e-09,0.0,-6.534559782167548e-08
7,0.0094208,0.0516849,0.0172283,7.37257e-18,0.0298403,1.86619e-19,-2.58125e-20,2.2391e-07,8.29297e-09,-9.95156e-08,3.7346e-07,-6.95067e-31,-4.01297e-31,0.0,2.2391002496569e-07,3.734600697580248e-07,0.0,8.292970088419338e-09,0.0,-9.951559509779884e-08
8,0.014273,0.0783064,0.0261021,-1.30104e-18,0.0452102,1.86619e-19,-2.58125e-20,3.39241e-07,1.25671e-08,-1.50777e-07,5.65816e-07,2.64704e-23,-4.58482e-23,0.0,3.392410574676319e-07,5.658161601473921e-07,0.0,1.2567100027283118e-08,0.0,-1.5077698867216327e-07
9,0.021552,0.118239,0.0394129,1.25767e-17,0.0682651,-8.0004e-19,6.25633e-19,5.12236e-07,1.89735e-08,-2.27663e-07,8.54355e-07,-6.61759e-24,1.1462e-23,0.0,5.122361312892565e-07,8.543553648987512e-07,0.0,1.8973500104380037e-08,0.0,-2.276629741393421e-07
10,0.03247,0.178137,0.059379,-1.30104e-18,0.102847,-4.23358e-20,-1.58e-19,7.71729e-07,2.8587e-08,-3.42996e-07,1.28716e-06,1.86326e-30,1.07575e-30,0.0,7.717292977993395e-07,1.2871608283671065e-06,0.0,2.858700032248862e-08,0.0,-3.429959412049044e-07
11,0.048847,0.267985,0.0893282,-4.29344e-17,0.154721,2.05368e-18,4.41588e-19,1.16097e-06,4.30043e-08,-5.15992e-07,1.93637e-06,4.58471e-23,2.64698e-23,0.0,1.1609706738191505e-06,1.9363718748444114e-06,0.0,4.300430100911967e-08,0.0,-5.159918669006558e-07
12,0.073412,0.402756,0.134252,-1.51788e-17,0.232531,2.58243e-18,-4.74234e-19,1.74483e-06,6.46307e-08,-7.75487e-07,2.91018e-06,4.93934e-23,-3.26124e-23,0.0,1.744831522154655e-06,2.910184234483637e-06,0.0,6.463070212348043e-08,0.0,-7.754866993003873e-07
13,0.1103,0.604912,0.201637,-1.51788e-17,0.349246,1.27953e-18,-2.44755e-18,2.62061e-06,9.70596e-08,-1.16471e-06,4.37091e-06,6.3275e-30,3.65319e-30,0.0,2.62061343381248e-06,4.370919552521002e-06,0.0,9.705960479777787e-08,0.0,-1.1647093217659332e-06
14,0.1655,0.908146,0.302715,4.03323e-17,0.524319,-4.21537e-18,-5.62004e-18,3.93429e-06,1.45719e-07,-1.74858e-06,6.56199e-06,-9.87872e-23,6.52263e-23,0.0,3.934297739371928e-06,6.562011529931411e-06,0.0,1.4571901063575865e-07,0.0,-1.748578471238993e-06
15,0.2484,1.363,0.454332,-2.09468e-16,0.786926,1.22694e-17,3.89742e-18,5.90479e-06,2.18705e-07,-2.62436e-06,9.8486e-06,7.75059e-23,2.8927e-22,0.0,5.904807433232406e-06,9.848648497623458e-06,0.0,2.1870502386889257e-07,0.0,-2.624356556402141e-06
16,0.3728,2.04527,0.681756,2.34621e-16,1.18084,-2.38375e-18,-4.56255e-18,8.86055e-06,3.28182e-07,-3.93804e-06,1.47785e-05,-2.4013e-22,8.39438e-22,0.0,8.860589254755524e-06,1.4778609202625859e-05,0.0,3.281820537548441e-07,0.0,-3.938032245964784e-06
17,0.5593,3.06867,1.02289,4.56666e-16,1.7717,1.53658e-17,1.54539e-17,1.32942e-05,4.92389e-07,-5.90853e-06,2.21733e-05,1.55012e-22,5.78537e-22,0.0,1.3294288368159712e-05,2.2173545829451413e-05,0.0,4.923891212538223e-07,0.0,-5.908512544672284e-06
18,0.8392,4.60377,1.53459,2.34621e-16,2.65799,5.31314e-17,1.77204e-17,1.99445e-05,7.38697e-07,-8.86424e-06,3.32654e-05,1.58058e-21,-1.04362e-21,0.0,1.9944698892881974e-05,3.326595329955495e-05,0.0,7.38697272906208e-07,0.0,-8.864200712777048e-06
19,1.259,6.90638,2.30213,-1.31969e-15,3.9874,2.38248e-17,8.00221e-19,2.99199e-05,1.10814e-06,-1.32977e-05,4.99034e-05,-1.31371e-26,-7.5847e-27,0.0,2.992034760462836e-05,4.990464519538662e-05,0.0,1.1081406139368255e-06,0.0,-1.3297611585971758e-05
20,1.888,10.3602,3.45341,-4.65036e-15,5.98148,-2.24011e-17,1.31867e-17,4.48827e-05,1.66234e-06,-1.99479e-05,7.48599e-05,-3.16123e-21,2.08725e-21,0.0,4.4883707243537074e-05,7.486270207235357e-05,0.0,1.6623413816585497e-06,0.0,-1.994770104196686e-05
21,2.833,15.5409,5.18029,-2.86312e-14,8.97252,5.76643e-17,-5.78126e-17,6.73263e-05,2.49357e-06,-2.99228e-05,0.000112294,-7.33604e-22,-4.23546e-22,0.0,6.732856646629592e-05,0.00011230030520725798,0.0,2.4935731088859825e-06,0.0,-2.9922352317468537e-05
22,4.249,93.5787,31.1929,-1.03265e-09,54.0277,3.28372e-16,-5.26719e-16,0.000405403,1.5015e-05,-0.000180179,0.000676171,6.77731e-21,-1.17391e-20,0.0,0.00040548518690219915,0.0006763996551444329,0.0,1.5015112725613733e-05,0.0,-0.00018016276873877857
23,6.374,211.097,70.3658,-9.04826e-07,121.877,5.76346e-17,-5.78297e-17,0.000914519,3.38711e-05,-0.000406453,0.00152533,-4.01543e-25,-2.31831e-25,0.0,0.0009149373000056915,0.0015264939075101402,0.0,3.3871673632113186e-05,0.0,-0.00040637040916957634
24,9.214,362.777,120.994,0.000517153,209.509,-0.00809508,-0.00467218,0.00159354,5.50969e-05,-0.000717168,0.00266305,-1.03151e-07,-5.9583e-08,3.39619e-05,0.0015948103595657681,0.002666599067399966,-1.0315099463475974e-07,5.509841786199843e-05,-5.9582998201967996e-08,-0.000716910896495615
25,12.05,380.417,127.275,0.000106295,220.041,-0.131765,-0.07598,0.00225584,-3.10682e-05,-0.00124725,0.00388937,-2.38537e-06,-1.39541e-06,0.000940122,0.0022583863213907485,0.003896943414919418,-2.3853671550222444e-06,-3.106771738847769e-05,-1.3954090264389762e-06,-0.0012464725069949445
26,14.89,394.907,132.438,8.99916e-05,228.695,-0.233052,-0.134324,0.00291684,-0.000119443,-0.00178203,0.00511691,-4.92997e-06,-2.89622e-06,0.00186615,0.002921098116868359,0.005130023741711787,-4.929957847732425e-06,-0.00011943586696883113,-2.8962158059586685e-06,-0.0017804431272976373
27,17.73,407.245,136.826,3.55692e-05,236.056,-0.316038,-0.18209,0.00357671,-0.000209276,-0.00231987,0.00634491,-7.67065e-06,-4.52086e-06,0.00280549,0.0035831140600910416,0.006365081581176213,-7.670620580602083e-06,-0.0002092541033053008,-4.5208497809756665e-06,-0.0023171811812301435
28,20.57,418.013,140.649,1.34893e-05,242.476,-0.385557,-0.222079,0.00423554,-0.000300104,-0.00285977,0.00757296,-1.0583e-05,-6.25305e-06,0.00375426,0.004244522577089738,0.007601707383356526,-1.0582944000248062e-05,-0.0003000589732989889,-6.25303044976544e-06,-0.0028556847529903617
29,23.41,427.584,144.041,2.77935e-06,248.176,-0.444843,-0.256164,0.00489339,-0.000391638,-0.00340113,0.0088008,-1.36446e-05,-8.07826e-06,0.00470997,0.004905382185680818,0.00883964090037015,-1.3644506912879883e-05,-0.00039156131984896536,-8.078227370922342e-06,-0.0033953527089901625
30,26.25,436.211,147.094,-3.7015e-06,253.311,-0.496134,-0.285638,0.00555031,-0.000483688,-0.00394351,0.0100282,-1.68356e-05,-9.98384e-06,0.00567094,0.005565741507221,0.010078650900499753,-1.683545828212729e-05,-0.0004835710418171768,-9.983790161594008e-06,-0.003935744575470079
31,29.09,444.074,149.872,-8.53432e-06,257.986,-0.541027,-0.311427,0.00620634,-0.000576123,-0.00448662,0.0112551,-2.01389e-05,-1.19589e-05,0.00663599,0.006225639233307767,0.011318676935711647,-2.013869721373407e-05,-0.0005759570730107244,-1.1958828492586449e-05,-0.004476570156049187
32,31.93,451.303,152.424,-1.27619e-05,262.282,-0.580701,-0.334209,0.00686152,-0.00066885,-0.00503023,0.0124813,-2.35398e-05,-1.39943e-05,0.00760424,0.006885114161421679,0.012559516500633583,-2.353952294109618e-05,-0.0006686263696998873,-1.3994202080258589e-05,-0.005017599579920762
33,34.77,458.001,154.783,-1.6835e-05,266.259,-0.616043,-0.354499,0.00751586,-0.0007618,-0.00557419,0.0137068,-2.70256e-05,-1.60821e-05,0.00857501,0.007544174968431072,0.013801168855187562,-2.7025234811794974e-05,-0.000761509904049773,-1.6081970683701208e-05,-0.00555868302923479
34,37.61,464.243,156.98,-2.0955e-05,269.964,-0.647739,-0.372691,0.00816939,-0.00085492,-0.00611835,0.0149315,-3.05854e-05,-1.82155e-05,0.0095478,0.008202850521771943,0.015043531752320538,-3.058493227137138e-05,-0.0008545546600163823,-1.821533409873677e-05,-0.0060996710109182395
35,40.45,470.093,159.036,-2.52115e-05,273.433,-0.676326,-0.389096,0.00882213,-0.00094817,-0.00666262,0.0161554,-3.42098e-05,-2.03886e-05,0.0105222,0.008861159679407482,0.016286604073769695,-3.42092148514217e-05,-0.0009477206288635021,-2.0388392153902757e-05,-0.006640473958216875
36,43.29,475.599,160.969,-2.96408e-05,276.696,-0.702234,-0.40396,0.0094741,-0.00104152,-0.00720691,0.0173783,-3.78905e-05,-2.25964e-05,0.0114979,0.00951912135201316,0.017530181192141336,-3.78897821640134e-05,-0.001040977806296306,-2.2596144703235232e-05,-0.007181002499161981
37,46.13,480.802,162.794,-3.42531e-05,279.778,-0.72581,-0.417485,0.0101253,-0.00113494,-0.00775116,0.0186004,-4.16204e-05,-2.48344e-05,0.0124745,0.010176734299374157,0.01877446499132729,-4.161953388315265e-05,-0.0011342961991795963,-2.4834091628789245e-05,-0.0077211972247280825
38,48.97,485.736,164.522,-3.90462e-05,282.699,-0.747339,-0.429834,0.0107758,-0.00122842,-0.00829532,0.0198215,-4.53932e-05,-2.70988e-05,0.013452,0.010834068039655698,0.0200192503395491,-4.5392169744307154e-05,-0.001227665801007749,-2.709843283088542e-05,-0.008261008772799894
39,51.81,490.43,166.165,-4.40112e-05,285.476,-0.767057,-0.441143,0.0114255,-0.00132193,-0.00883933,0.0210416,-4.92032e-05,-2.93861e-05,0.0144301,0.011491020321501066,0.0212645353585319,-4.920198954239119e-05,-0.0013210566354222575,-2.9385668232739803e-05,-0.008800377976994955
40,54.65,494.906,167.729,-4.91366e-05,288.124,-0.78516,-0.451525,0.0120745,-0.00141547,-0.00938315,0.0222607,-5.30454e-05,-3.16932e-05,0.0154086,0.012147691060295118,0.02251031816620741,-5.304399311767405e-05,-0.0014144686948344143,-3.1692697775809187e-05,-0.0093392656132254
41,57.49,499.187,169.224,-5.44095e-05,290.654,-0.801817,-0.461078,0.0127228,-0.00150901,-0.00992676,0.0234788,-5.69156e-05,-3.40176e-05,0.0163874,0.012804079153620362,0.023756596876715275,-5.691398033791373e-05,-0.0015078720168910653,-3.4017021408039305e-05,-0.009877652345581356
42,60.33,503.289,170.655,-5.98169e-05,293.077,-0.817169,-0.469882,0.0133703,-0.00160256,-0.0104701,0.0246958,-6.08096e-05,-3.63566e-05,0.0173664,0.013460082152924047,0.025003267100075943,-6.0807751133706844e-05,-0.0016012765863970824,-3.6355939106780255e-05,-0.010415479297276597
43,63.17,507.227,172.027,-6.53461e-05,295.402,-0.831337,-0.478007,0.0140172,-0.0016961,-0.0110132,0.0259119,-6.47239e-05,-3.87082e-05,0.0183455,0.014115901581992496,0.026250531818793776,-6.472180545358253e-05,-0.0016946624352610629,-3.870745084733063e-05,-0.01095277673414452
44,66.01,511.015,173.346,-7.09849e-05,297.638,-0.844428,-0.485514,0.0146634,-0.00178963,-0.011556,0.0271268,-6.86553e-05,-4.10704e-05,0.0193246,0.01477143505764933,0.027498081260362017,-6.86529432788463e-05,-0.0017880295671014457,-4.1069556622641556e-05,-0.011489485890890605
45,68.85,514.666,174.615,-7.67216e-05,299.791,-0.856532,-0.492456,0.0153088,-0.00188314,-0.0120985,0.0283407,-7.26008e-05,-4.34414e-05,0.0203036,0.01542657993434604,0.028746118524167086,-7.259816462568125e-05,-0.0018813680043500147,-4.34404564360058e-05,-0.012025607408684191
46,71.69,518.188,175.839,-8.25452e-05,301.867,-0.86773,-0.498877,0.0159536,-0.00197663,-0.0126407,0.0295536,-7.65577e-05,-4.58194e-05,0.0212825,0.01608153812891744,0.029994641705146874,-7.655476953405405e-05,-0.001974677753422971,-4.581835030736947e-05,-0.01256114192781943
47,74.53,521.593,177.021,-8.84455e-05,303.873,-0.87809,-0.50482,0.0165977,-0.00207009,-0.0131825,0.0307653,-8.05236e-05,-4.82032e-05,0.0222612,0.016736207061122332,0.03124344264575818,-8.05203580619418e-05,-0.0020679488414143687,-4.820203824440483e-05,-0.013095991397318207
48,77.37,524.887,178.163,-9.44127e-05,305.813,-0.887676,-0.510318,0.0172412,-0.00216351,-0.013724,0.031976,-8.44963e-05,-5.05912e-05,0.0232396,0.017390687366819924,0.03249272518235369,-8.449273028821036e-05,-0.0021611712991448373,-5.058992028683651e-05,-0.01363025525298256
49,80.21,528.078,179.269,-0.000100438,307.692,-0.896542,-0.515405,0.017884,-0.00225691,-0.0142651,0.0331855,-8.84736e-05,-5.29822e-05,0.0242178,0.018044876334468052,0.03374228064980067,-8.846968632647556e-05,-0.0022543650935274995,-5.298079646798293e-05,-0.014163835548697379
50,83.05,531.173,180.34,-0.000106512,309.513,-0.904736,-0.520106,0.0185261,-0.00235026,-0.0148058,0.034394,-9.24536e-05,-5.53751e-05,0.0251956,0.018698772860575863,0.03499231337610409,-9.24493262975945e-05,-0.0023475003013926354,-5.537356682738803e-05,-0.014696733080985402
51,85.89,534.178,181.379,-0.000112627,311.28,-0.912303,-0.524448,0.0191675,-0.00244357,-0.0153462,0.0356014,-9.64347e-05,-5.77688e-05,0.026173,0.019352375841557468,0.03624271781252775,-9.643005032378138e-05,-0.002440586913115994,-5.776713141503187e-05,-0.015229047122220063
52,88.73,537.098,182.388,-0.000118775,312.997,-0.919281,-0.528453,0.0198083,-0.00253684,-0.0158861,0.0368077,-0.000100415,-6.01622e-05,0.02715,0.02000578617430815,0.03749349165559579,-0.00010040995858262569,-0.0025336249406788802,-6.0160390291108534e-05,-0.01576058145907311
53,91.57,539.939,183.368,-0.000124949,314.666,-0.925706,-0.532141,0.0204484,-0.00263006,-0.0164257,0.0380128,-0.000104393,-6.25546e-05,0.0281266,0.020658900885101694,0.03874452872337164,-0.00010438755124031474,-0.0026266044223207663,-6.255264350174539e-05,-0.01629153378549686
54,94.41,542.704,184.322,-0.000131142,316.29,-0.931608,-0.53553,0.0210879,-0.00272324,-0.0169649,0.0392169,-0.000108368,-6.49449e-05,0.0291026,0.021311821001173348,0.039996034328148244,-0.0001083621284003744,-0.0027195353456019866,-6.494279112556622e-05,-0.01682180641613107
55,97.25,545.399,185.25,-0.000137348,317.871,-0.937018,-0.538637,0.0217268,-0.00281636,-0.0175036,0.0404198,-0.000112338,-6.73324e-05,0.0300782,0.021964545614285402,0.04124779828033209,-0.00011233169032309753,-0.002812397778728548,-6.733013322479664e-05,-0.017351301876607717
56,100.1,548.026,186.155,-0.00014356,319.413,-0.94196,-0.541477,0.022365,-0.00290944,-0.0180419,0.0416216,-0.000116301,-6.97163e-05,0.0310533,0.02261697155426967,0.042499922134823676,-0.00011629423730086241,-0.002905211681117237,-6.971386987519868e-05,-0.01788011932682121
57,102.9,550.59,187.036,-0.000149772,320.916,-0.946458,-0.544062,0.0230025,-0.00300247,-0.0185798,0.0428223,-0.000120257,-7.2096e-05,0.0320278,0.023269097716763998,0.04375240356808652,-0.00012024976941682475,-0.002997967094689691,-7.209340114577856e-05,-0.018408259554587025
58,105.8,553.093,187.896,-0.000155978,322.383,-0.950534,-0.546406,0.0236395,-0.00309545,-0.0191173,0.0440219,-0.000124204,-7.44706e-05,0.0330018,0.023921127781537432,0.045005240252609546,-0.00012419628700244267,-0.003090664034161583,-7.446782713371736e-05,-0.018935723346483302
59,108.6,555.539,188.735,-0.000162174,323.816,-0.954208,-0.548519,0.0242758,-0.00318837,-0.0196543,0.0452203,-0.000128142,-7.68397e-05,0.0339752,0.02457285612052673,0.04625832523107798,-0.00012813379016451965,-0.0031832925460720807,-7.68367479058174e-05,-0.019462413434100934
60,111.5,557.93,189.555,-0.000168353,325.216,-0.957497,-0.550412,0.0249114,-0.00328124,-0.020191,0.0464177,-0.00013207,-7.92026e-05,0.0349479,0.025224281628972944,0.04751186529437201,-0.00013206127914144883,-0.003275862615135794,-7.919946355683383e-05,-0.019988526761670622
61,114.3,560.269,190.357,-0.00017451,326.585,-0.960418,-0.552095,0.0255465,-0.00337406,-0.0207271,0.0476139,-0.000135986,-8.15586e-05,0.0359201,0.025875608377151638,0.048765648726005084,-0.00013597675432297507,-0.0033683742560361996,-8.1555274187739e-05,-0.02051377010841482
62,117.1,562.558,191.14,-0.000180636,327.925,-0.962986,-0.553576,0.0261809,-0.00346682,-0.0212629,0.048809,-0.000139889,-8.39074e-05,0.0368916,0.026526630345440116,0.05001977780836153,-0.00013987921599001307,-0.0034608175180554923,-8.390387987255998e-05,-0.021038438259241343
63,120.0,564.8,191.906,-0.000186642,329.235,-0.965214,-0.554866,0.0268147,-0.00355953,-0.0217982,0.0500029,-0.00014378,-8.62484e-05,0.0378625,0.02717744914644471,0.05127414506662431,-0.00014376966415108328,-0.003553202383096754,-8.624468071360969e-05,-0.021562336149460792
64,122.8,566.997,192.657,0.000140404,330.519,-0.967136,-0.556299,0.0274478,-0.00365218,-0.022333,0.0511958,-0.000147659,-8.85827e-05,0.0388328,0.027827961087326214,0.05252895827881354,-0.00014764809894640685,-0.003645518902267053,-8.857877666845759e-05,-0.022085464715041248
65,125.7,569.148,193.392,-0.000199298,331.777,-0.969441,-0.557303,0.0280804,-0.00374477,-0.0228674,0.0523875,-0.000151536,-9.09056e-05,0.0398024,0.028478370758398652,0.053784004709280575,-0.00015152451900024566,-0.0037377670929761297,-9.090146821111311e-05,-0.022607922629508836
66,128.5,571.258,194.114,-0.000205674,333.011,-0.971585,-0.558541,0.0287123,-0.00383729,-0.0234013,0.0535781,-0.000155402,-9.32263e-05,0.0407713,0.02912847161861576,0.0550393871261452,-0.00015538992573460586,-0.003829937010918605,-9.322195456351601e-05,-0.023129612981985126
67,131.3,573.326,194.822,-0.000212136,334.221,-0.97375,-0.559792,0.0293436,-0.00392975,-0.0239348,0.0547676,-0.00015926,-9.55423e-05,0.0417395,0.029778365540181095,0.056295103166186244,-0.00015924731879934928,-0.003922038637018788,-9.553773597981152e-05,-0.02365063433865444
68,134.2,575.356,195.517,-0.000218628,335.409,-0.975936,-0.561054,0.0299743,-0.00402214,-0.0244679,0.055956,-0.000163111,-9.78539e-05,0.0427071,0.030428051612293894,0.05755115046226633,-0.0001630976981240595,-0.004014062028783072,-9.784911246324413e-05,-0.024170987473037142
69,137.0,577.348,196.199,-0.000225161,336.575,-0.978142,-0.562329,0.0306044,-0.00411446,-0.0250005,0.0571433,-0.000166954,-0.000100161,0.0436739,0.031077528923953324,0.058807526643339436,-0.00016694006395645555,-0.004106007206321816,-0.0001001559840544397,-0.024690575626501454
70,139.9,579.303,196.87,-0.000231737,337.72,-0.980369,-0.563614,0.0312338,-0.00420671,-0.0255326,0.0583294,-0.000170791,-0.000102464,0.04464,0.031726693391285865,0.06006412332803657,-0.00017077641604734684,-0.00419787418972728,-0.0001024587507436614,-0.025209399725817483
71,142.7,581.224,197.529,-0.000238356,338.845,-0.982616,-0.564912,0.0318626,-0.00429889,-0.0260643,0.0595145,-0.000174622,-0.000104764,0.0456055,0.03237564714576835,0.06132115002464111,-0.00017460675446590024,-0.004289662999073185,-0.00010475851244373668,-0.025727558123366467
72,145.5,583.112,198.177,-0.00024502,339.95,-0.984883,-0.566221,0.0324908,-0.00439099,-0.0265955,0.0606985,-0.000178446,-0.000107059,0.0465702,0.03302438927587348,0.06257849846966446,-0.00017843007945950173,-0.004381363698229168,-0.00010705326938975634,-0.026244954211923743
73,148.4,584.967,198.814,-0.000251729,341.038,-0.987169,-0.567542,0.0331184,-0.00448302,-0.0271263,0.0618813,-0.000182265,-0.000109351,0.0475341,0.03367291886988277,0.06383605989286756,-0.00018224839074387766,-0.004472986265250833,-0.00010934502139725577,-0.02676168623741615
74,151.2,586.79,199.441,-0.000258483,342.107,-0.989476,-0.568874,0.0337454,-0.00457498,-0.0276566,0.0630631,-0.000186078,-0.00011164,0.0484974,0.034321235015886575,0.06509404454516621,-0.00018606068856263924,-0.00456453072015528,-0.00011163376848710715,-0.027277657693281276
75,154.1,588.584,200.057,-0.000265285,343.159,-0.991802,-0.570217,0.0343717,-0.00466686,-0.0281864,0.0642437,-0.000189885,-0.000113926,0.0494599,0.03496923330485968,0.06635223713910365,-0.00018986697298439825,-0.004655987129500994,-0.00011391951067962758,-0.027792869498576844
76,156.9,590.349,200.664,-0.000272133,344.194,-0.994148,-0.571571,0.0349975,-0.00475866,-0.0287158,0.0654233,-0.000193688,-0.000116208,0.0504216,0.03561711975358772,0.06761084842102538,-0.00019366924369024208,-0.004747355516009466,-0.00011620124811184684,-0.028307419739997952
77,159.7,592.085,201.262,-0.00027903,345.212,-0.996513,-0.572937,0.0356226,-0.00485038,-0.0292447,0.0666017,-0.000197486,-0.000118488,0.0513827,0.03626468639101166,0.06886966259244587,-0.00019746650092344886,-0.004838635902378874,-0.00011848098057409828,-0.028821212061340917
78,162.6,593.794,201.851,-0.000285975,346.215,-0.998897,-0.574313,0.0362471,-0.00494203,-0.0297731,0.067779,-0.000201279,-0.000120764,0.0523429,0.036912035801477394,0.0701287838825313,-0.00020125874474097305,-0.004929838261986341,-0.00012075670832167873,-0.029334247377020395
79,165.4,595.477,202.431,-0.00029297,347.203,-1.0013,-0.575701,0.036871,-0.0050336,-0.0303011,0.0689553,-0.000205068,-0.000123039,0.0533024,0.03755916707222262,0.07138831702019433,-0.00020504697499479363,-0.0050209526649602765,-0.00012303143101266567,-0.02984662361517476
80,168.3,597.134,203.003,-0.000300016,348.177,-1.00372,-0.577099,0.0374943,-0.00512509,-0.0308286,0.0701305,-0.000208852,-0.00012531,0.0542612,0.03820607929030739,0.07264815270480884,-0.00020883019193917995,-0.005111979133931466,-0.00012530214902983783,-0.030358244569328008
81,171.1,598.767,203.566,-0.000307112,349.136,-1.00616,-0.578508,0.038117,-0.00521649,-0.0313557,0.0713046,-0.000212633,-0.00012758,0.0552192,0.03885277154261768,0.07390828851886999,-0.00021261039520581448,-0.005202907743537932,-0.000127571862017839,-0.03086920806235649
82,173.9,600.376,204.121,-0.00031426,350.081,-1.00862,-0.579928,0.0387391,-0.00530782,-0.0318823,0.0724776,-0.000216411,-0.000129847,0.0561764,0.03949924291586582,0.07516872204104108,-0.00021638758482855902,-0.0052937584132146664,-0.00012983857024306822,-0.03137941798732724
83,176.8,601.961,204.669,-0.000321461,351.013,-1.0111,-0.581358,0.0393606,-0.00539907,-0.0324084,0.0736495,-0.000220184,-0.000132112,0.0571329,0.04014549249659338,0.07642945084615915,-0.00022015976128197945,-0.005384521216643567,-0.00013210327359391982,-0.03188887525104023
84,179.6,603.524,205.209,-0.000328715,351.932,-1.0136,-0.5828,0.0399815,-0.00549023,-0.0329341,0.0748203,-0.000223955,-0.000134375,0.0580885,0.0407915193711732,0.07769047250524119,-0.00022392992395092737,-0.005475186231115314,-0.00013436597208404955,-0.03239767751892675
85,182.5,605.065,205.742,-0.000336023,352.838,-1.01611,-0.584251,0.0406018,-0.00558131,-0.0334593,0.07599,-0.000227722,-0.000136636,0.0590435,0.041437322625811346,0.07895178458549035,-0.00022769607331329933,-0.005565763426205406,-0.00013662666572689108,-0.03290572883274079
86,185.3,606.585,206.268,-0.000343386,353.732,-1.01865,-0.585713,0.0412214,-0.00567231,-0.033984,0.0771587,-0.000231487,-0.000138895,0.0599976,0.04208279713826446,0.08021349267164579,-0.00023146020895159491,-0.005656252824403518,-0.00013888535453598916,-0.033413030094697316
87,188.1,608.084,206.787,-0.000350803,354.614,-1.0212,-0.587186,0.0418405,-0.00576322,-0.0345083,0.0783263,-0.000235249,-0.000141153,0.0609509,0.04272815034644517,0.08147548655434611,-0.0002352213311236362,-0.005746644505643217,-0.0001411430383839729,-0.03391967881345104
88,191.0,609.563,207.3,-0.000358278,355.485,-1.02377,-0.588669,0.042459,-0.00585405,-0.0350321,0.0794928,-0.000239008,-0.000143409,0.0619035,0.04337327719234629,0.08273776378947506,-0.00023897943986328496,-0.0058369484367074564,-0.00014339871742086174,-0.03442557917881606
89,193.8,611.022,207.806,-0.000365808,356.344,-1.02635,-0.590162,0.0430768,-0.00594479,-0.0355555,0.0806582,-0.000242765,-0.000145664,0.0628553,0.04401807235971389,0.08400032192912721,-0.00024273553496168,-0.005927154699286397,-0.00014565339151462187,-0.034930828595367225
90,196.7,612.463,208.305,-0.000373397,357.192,-1.02896,-0.591666,0.0436941,-0.00603545,-0.0360783,0.0818226,-0.00024652,-0.000147918,0.0638063,0.04466274367311107,0.08526326704793497,-0.00024648961644146983,-0.006017273258305367,-0.00014790706067191461,-0.035435234894882095
91,199.5,613.885,208.799,-0.000381043,358.03,-1.03158,-0.593179,0.0443108,-0.00612603,-0.0366007,0.0829858,-0.000250273,-0.00015017,0.0647566,0.04530718588046456,0.08652637976410138,-0.000250241684325192,-0.0061073041361336955,-0.00015015872504986483,-0.03593899193537764
92,202.3,615.288,209.286,-0.000388748,358.857,-1.03422,-0.594703,0.0449269,-0.00621652,-0.0371227,0.084148,-0.000254023,-0.000152421,0.065706,0.04595139806687221,0.08778987479740907,-0.00025399073888943136,-0.006197237417089663,-0.0001524093845094443,-0.03644210045883878
93,205.2,616.675,209.768,-0.000396513,359.674,-1.03688,-0.596237,0.0455424,-0.00630692,-0.0376442,0.0853092,-0.000257773,-0.000154671,0.0666547,0.04659537931728153,0.08905375006398786,-0.0002577397793946945,-0.006287073126191922,-0.00015465903905753642,-0.03694446490053582
94,208.0,618.044,210.244,-0.000404338,360.482,-1.03956,-0.597781,0.0461572,-0.00639724,-0.0381652,0.0864693,-0.00026152,-0.00015692,0.0676025,0.04723902399258528,0.09031789444460792,-0.0002614858066255499,-0.006376821224662099,-0.0001569076887006915,-0.03744608615064027
95,210.9,619.397,210.714,-0.000412224,361.28,-1.04225,-0.599335,0.0467715,-0.00648747,-0.0386857,0.0876283,-0.000265267,-0.000159169,0.0685496,0.04788254056090113,0.09158230546891954,-0.0002652318198200776,-0.006466471799436602,-0.00015915633328666967,-0.037946965097744756
96,213.7,620.733,211.179,-0.000420171,362.068,-1.04496,-0.600899,0.0473852,-0.00657762,-0.0392058,0.0887862,-0.000269012,-0.000161416,0.0694959,0.04852582344720724,0.09284698066282604,-0.0002689758195162373,-0.006556034809890421,-0.00016140297313838037,-0.03844719878415093
97,216.5,622.053,211.639,-0.000428181,362.847,-1.04769,-0.602473,0.0479984,-0.00666767,-0.0397255,0.0899431,-0.000272756,-0.000163663,0.0704414,0.049168976652764984,0.0941120269596889,-0.0002727188054639784,-0.006645490411156807,-0.00016364960794179595,-0.03894678794545492
98,219.4,623.358,212.094,-0.000436254,363.617,-1.05043,-0.604057,0.0486109,-0.00675765,-0.0402446,0.091099,-0.000276499,-0.000165909,0.0713861,0.04981178949230047,0.09537744225752909,-0.00027646077767440325,-0.006734868428752483,-0.00016589523786292304,-0.039445541205224255
99,222.2,624.648,212.543,-0.00044439,364.379,-1.05319,-0.605651,0.0492228,-0.00684753,-0.0407633,0.0922538,-0.000280241,-0.000168155,0.07233,0.05045436590249408,0.09664311478651166,-0.00028020173615883603,-0.0068241390868944984,-0.00016814086274030693,-0.03994365160690028
100,225.1,625.923,212.988,-0.000452591,365.132,-1.05597,-0.607254,0.0498341,-0.00693733,-0.0412816,0.0934075,-0.000283982,-0.0001704,0.0732731,0.051096704967302786,0.0979090420577724,-0.00028394168092849004,-0.0069133222748194445,-0.00017038548274450616,-0.040441119882232424
101,227.9,627.184,213.428,-0.000460857,365.877,-1.05877,-0.608868,0.0504449,-0.00702703,-0.0417993,0.0945602,-0.000287723,-0.000172645,0.0742154,0.051738910944435945,0.09917533149625846,-0.0002876816117072245,-0.007002398154698497,-0.0001726300977095141,-0.040937754949390115
102,230.7,628.43,213.863,-0.000469188,366.614,-1.06158,-0.610491,0.0510551,-0.00711665,-0.0423166,0.0957118,-0.000291464,-0.00017489,0.0751569,0.05238087787208445,0.10044187094145007,-0.00029142152849470637,-0.007091386612143702,-0.00017487470763544177,-0.04143374954869128
103,233.6,629.663,214.294,-0.000477586,367.342,-1.06441,-0.612123,0.0516647,-0.00720619,-0.0428335,0.0968624,-0.000295204,-0.000177134,0.0760977,0.05302260483374077,0.10170876806430185,-0.0002951604315865053,-0.007180287669226404,-0.000177118312699176,-0.04192910440805664
104,236.4,630.883,214.721,-0.000486051,368.063,-1.06726,-0.613766,0.0522737,-0.00729563,-0.0433499,0.0980119,-0.000298944,-0.000179379,0.0770376,0.05366409091276925,0.10297591044374621,-0.00029889932069471215,-0.007269081493378238,-0.00017936291254905257,-0.04242372449664178
105,239.3,632.089,215.142,-0.000494584,368.777,-1.07012,-0.615418,0.0528821,-0.00738499,-0.0438658,0.0991604,-0.000302684,-0.000181623,0.0779767,0.05430533519241032,0.10424340599688753,-0.00030263819581966,-0.007357787964792029,-0.00018160650754139862,-0.04291761068827682
106,242.1,633.282,215.56,-0.000503185,369.483,-1.073,-0.617079,0.0534899,-0.00747426,-0.0443813,0.100308,-0.000306423,-0.000183867,0.0789151,0.05494633675578231,0.10551136314426413,-0.00030637605726746564,-0.007446397179929232,-0.00018385009749899428,-0.04341085951415913
107,244.9,634.463,215.974,-0.000511855,370.182,-1.0759,-0.618751,0.0540972,-0.00756343,-0.0448963,0.101454,-0.000310163,-0.000186111,0.0798526,0.05558720024459585,0.10677900538669793,-0.0003101149044293372,-0.00753489923876971,-0.0001860936824220616,-0.04390337608760608
108,247.8,635.631,216.383,-0.000520595,370.873,-1.07881,-0.620431,0.0547039,-0.00765252,-0.0454108,0.1026,-0.000313904,-0.000188356,0.0807893,0.05622781931112808,0.10804810117986685,-0.00031385473729417246,-0.007623314016101723,-0.00018833826212227844,-0.044395161278020345
109,250.6,636.788,216.788,-0.000529405,371.558,-1.08174,-0.622121,0.05531,-0.00774153,-0.0459249,0.103744,-0.000317644,-0.0001906,0.0817253,0.05686819303806656,0.10931643355540954,-0.0003175935564858623,-0.007711641533846625,-0.00019058183697384656,-0.04488631146463429
110,253.5,637.932,217.19,-0.000538286,372.236,-1.08469,-0.623821,0.0559155,-0.00783044,-0.0464386,0.104887,-0.000321386,-0.000192845,0.0826604,0.057508320507985156,0.1105851071477999,-0.0003213343610517505,-0.007799861969900235,-0.00019282640659812333,-0.04537682736663873
111,256.3,639.065,217.587,-0.00054724,372.907,-1.08765,-0.62553,0.0565204,-0.00791926,-0.0469517,0.106029,-0.000325127,-0.000195091,0.0835948,0.05814820080334426,0.11185411980847504,-0.0003250741519446043,-0.007887985272546194,-0.00019507197098822537,-0.04586651887541682
112,259.1,640.187,217.981,-0.000556266,373.572,-1.09063,-0.627249,0.0571248,-0.008008,-0.0474645,0.107171,-0.00032887,-0.000197336,0.0845284,0.058787938885283886,0.11312458250942448,-0.000328815928189341,-0.007976021386513099,-0.00019731653053212117,-0.046355673094676475
113,262.0,641.298,218.371,-0.000565365,374.23,-1.09362,-0.628976,0.0577286,-0.00809664,-0.0479767,0.108311,-0.000332613,-0.000199582,0.0854611,0.059427428085143674,0.11439426811677422,-0.00033255769042861427,-0.008063950494901717,-0.00019956208483751237,-0.046844004646531046
114,264.8,642.397,218.758,-0.000574537,374.883,-1.09664,-0.630714,0.0583318,-0.0081852,-0.0484885,0.10945,-0.000336357,-0.000201829,0.0863931,0.06006666748498524,0.11566428632622805,-0.00033630043832622025,-0.008151792461746243,-0.00020180863389751558,-0.047331705071768315
115,267.7,643.487,219.141,-0.000583785,375.529,-1.09966,-0.63246,0.0589345,-0.00827367,-0.0489999,0.110588,-0.000340102,-0.000204076,0.0873242,0.06070576223733637,0.11693463497535195,-0.00034004417187105673,-0.008239537391212859,-0.00020405517790944572,-0.047818775083377396
116,270.5,644.565,219.521,-0.000593108,376.168,-1.10271,-0.634216,0.0595366,-0.00836205,-0.0495108,0.111725,-0.000343848,-0.000206324,0.0882546,0.06134460548123832,0.11820531189825867,-0.0003437888910515774,-0.00832718530767973,-0.0002063027166672171,-0.04830512022374234
117,273.3,645.633,219.897,-0.000602506,376.802,-1.10577,-0.635981,0.0601381,-0.00845034,-0.0500212,0.112861,-0.000347596,-0.000208572,0.0891842,0.0619831962983699,0.11947631492560928,-0.000347535595509485,-0.0084147362354966,-0.00020855025037247454,-0.048790741349326816
118,276.2,646.692,220.27,-0.000611982,377.431,-1.10885,-0.637756,0.060739,-0.00853854,-0.0505312,0.113996,-0.000351344,-0.000210822,0.090113,0.06262153377031154,0.12074764188461962,-0.0003512822859246256,-0.008502190198983905,-0.0002107997786037208,-0.049275734387501546
119,279.0,647.74,220.639,-0.000621534,378.053,-1.11194,-0.639539,0.0613394,-0.00862665,-0.0510407,0.11513,-0.000355094,-0.000213072,0.0910409,0.06325972330451402,0.12201929059906402,-0.0003550309615873992,-0.008589547222435212,-0.00021304930177346026,-0.04976000502241085
120,281.9,648.779,221.006,-0.000631165,378.67,-1.11505,-0.641332,0.0619392,-0.00871467,-0.0515498,0.116263,-0.000358846,-0.000215322,0.0919681,0.06389765778397716,0.12329125888928183,-0.0003587816224750462,-0.00867680733011511,-0.000215298819881804,-0.05024364908181256
121,284.0,649.558,221.28,-0.000641614,379.133,-1.11741,-0.642693,0.062392,-0.00878111,-0.0519341,0.117119,-0.000361679,-0.000217024,0.0926681,0.06437949972420465,0.12425320786231353,-0.00036161360203523785,-0.008742668655098651,-0.00021700045199513074,-0.050608570323362634
