,Time,S11,S22,S33,S12,S13,S23,LE11,LE22,LE33,LE12,LE13,LE23,SDV_EPBAR,E11,E12,E13,E22,E23,E33
0,0.000284,0.0015581,0.000519365,0.0,0.000899567,1.32028e-20,2.67023e-20,6.7501e-09,2.50301e-10,-3.0004e-09,1.1258e-08,6.18106e-26,5.13348e-25,0.0,6.750100034480511e-09,1.1258000087721598e-08,0.0,2.5030089112476617e-10,0.0,-3.0004000395322805e-09
1,0.000568,0.00311619,0.00103873,2.1684e-19,0.00179913,-2.79039e-28,-1.61103e-28,1.35001e-08,5.00425e-10,-6.00057e-09,2.25162e-08,2.06826e-25,-3.58238e-25,0.0,1.3500100148888805e-08,2.2516200237632233e-08,0.0,5.00425034744012e-10,0.0,-6.000569929831556e-09
2,0.000994,0.00545333,0.00181778,2.1684e-19,0.00314848,-6.04799e-21,-2.25714e-20,2.36252e-08,8.75688e-10,-1.05009e-08,3.94034e-08,-4.13622e-25,7.16424e-25,0.0,2.3625200240573463e-08,3.9403400764470575e-08,0.0,8.756879665838824e-10,0.0,-1.0500899927379237e-08
3,0.001633,0.00895905,0.00298635,4.33681e-19,0.00517251,-5.11908e-20,-1.04754e-20,3.88125e-08,1.4375e-09,-1.725e-08,6.47354e-08,3.9316e-32,2.26991e-32,0.0,3.8812500768869995e-08,6.473540214990692e-08,0.0,1.4374998968946784e-09,0.0,-1.7249999872959165e-08
4,0.0025915,0.0142176,0.00473921,-1.30104e-18,0.00820854,3.90948e-20,-3.46674e-20,6.15937e-08,2.28125e-09,-2.7375e-08,1.02732e-07,2.86544e-24,1.65436e-24,0.0,6.159370191660685e-08,1.027320053470504e-07,0.0,2.281250077729169e-09,0.0,-2.7374999600482397e-08
5,0.0040292,0.0221055,0.00736849,-1.30104e-18,0.0127626,-7.53827e-20,-1.00761e-19,9.57656e-08,3.54688e-09,-4.25625e-08,1.59728e-07,2.30786e-31,1.33244e-31,0.0,9.576560455748506e-08,1.597280128162737e-07,0.0,3.5468799008953056e-09,0.0,-4.256249908074494e-08
6,0.0061859,0.0339373,0.0113124,-4.77049e-18,0.0195937,1.20526e-19,8.8665e-20,1.47024e-07,5.44671e-09,-6.53456e-08,2.45219e-07,-6.61761e-24,1.14621e-23,0.0,1.4702401074373483e-07,2.452190299706558e-07,0.0,5.446709971934638e-09,0.0,-6.534559782167548e-08
7,0.0094208,0.0516849,0.0172283,7.37257e-18,0.0298403,1.86619e-19,-2.58125e-20,2.2391e-07,8.29297e-09,-9.95156e-08,3.7346e-07,-6.95067e-31,-4.01297e-31,0.0,2.2391002496569e-07,3.734600697580248e-07,0.0,8.292970088419338e-09,0.0,-9.951559509779884e-08
8,0.014273,0.0783064,0.0261021,-1.30104e-18,0.0452102,1.86619e-19,-2.58125e-20,3.39241e-07,1.25671e-08,-1.50777e-07,5.65816e-07,2.64704e-23,-4.58482e-23,0.0,3.392410574676319e-07,5.658161601473921e-07,0.0,1.2567100027283118e-08,0.0,-1.5077698867216327e-07
9,0.021552,0.118239,0.0394129,1.25767e-17,0.0682651,-8.0004e-19,6.25633e-19,5.12236e-07,1.89735e-08,-2.27663e-07,8.54355e-07,-6.61759e-24,1.1462e-23,0.0,5.122361312892565e-07,8.543553648987512e-07,0.0,1.8973500104380037e-08,0.0,-2.276629741393421e-07
10,0.03247,0.178137,0.059379,-1.30104e-18,0.102847,-4.23358e-20,-1.58e-19,7.71729e-07,2.8587e-08,-3.42996e-07,1.28716e-06,1.86326e-30,1.07575e-30,0.0,7.717292977993395e-07,1.2871608283671065e-06,0.0,2.858700032248862e-08,0.0,-3.429959412049044e-07
11,0.048847,0.267985,0.0893282,-4.29344e-17,0.154721,2.05368e-18,4.41588e-19,1.16097e-06,4.30043e-08,-5.15992e-07,1.93637e-06,4.58471e-23,2.64698e-23,0.0,1.1609706738191505e-06,1.9363718748444114e-06,0.0,4.300430100911967e-08,0.0,-5.159918669006558e-07
12,0.073412,0.402756,0.134252,-1.51788e-17,0.232531,2.58243e-18,-4.74234e-19,1.74483e-06,6.46307e-08,-7.75487e-07,2.91018e-06,4.93934e-23,-3.26124e-23,0.0,1.744831522154655e-06,2.910184234483637e-06,0.0,6.463070212348043e-08,0.0,-7.754866993003873e-07
13,0.1103,0.604912,0.201637,-1.51788e-17,0.349246,1.27953e-18,-2.44755e-18,2.62061e-06,9.70596e-08,-1.16471e-06,4.37091e-06,6.3275e-30,3.65319e-30,0.0,2.62061343381248e-06,4.370919552521002e-06,0.0,9.705960479777787e-08,0.0,-1.1647093217659332e-06
14,0.1655,0.908146,0.302715,4.03323e-17,0.524319,-4.21537e-18,-5.62004e-18,3.93429e-06,1.45719e-07,-1.74858e-06,6.56199e-06,-9.87872e-23,6.52263e-23,0.0,3.934297739371928e-06,6.562011529931411e-06,0.0,1.4571901063575865e-07,0.0,-1.748578471238993e-06
15,0.2484,1.363,0.454332,-2.09468e-16,0.786926,1.22694e-17,3.89742e-18,5.90479e-06,2.18705e-07,-2.62436e-06,9.8486e-06,7.75059e-23,2.8927e-22,0.0,5.904807433232406e-06,9.848648497623458e-06,0.0,2.1870502386889257e-07,0.0,-2.624356556402141e-06
16,0.3728,2.04527,0.681756,2.34621e-16,1.18084,-2.38375e-18,-4.56255e-18,8.86055e-06,3.28182e-07,-3.93804e-06,1.47785e-05,-2.4013e-22,8.39438e-22,0.0,8.860589254755524e-06,1.4778609202625859e-05,0.0,3.281820537548441e-07,0.0,-3.938032245964784e-06
17,0.5593,3.06867,1.02289,4.56666e-16,1.7717,1.53658e-17,1.54539e-17,1.32942e-05,4.92389e-07,-5.90853e-06,2.21733e-05,1.55012e-22,5.78537e-22,0.0,1.3294288368159712e-05,2.2173545829451413e-05,0.0,4.923891212538223e-07,0.0,-5.908512544672284e-06
18,0.8392,4.60377,1.53459,2.34621e-16,2.65799,5.31314e-17,1.77204e-17,1.99445e-05,7.38697e-07,-8.86424e-06,3.32654e-05,1.58058e-21,-1.04362e-21,0.0,1.9944698892881974e-05,3.326595329955495e-05,0.0,7.38697272906208e-07,0.0,-8.864200712777048e-06
19,1.259,6.90638,2.30213,-1.31969e-15,3.9874,2.38248e-17,8.00221e-19,2.99199e-05,1.10814e-06,-1.32977e-05,4.99034e-05,-1.31371e-26,-7.5847e-27,0.0,2.992034760462836e-05,4.990464519538662e-05,0.0,1.1081406139368255e-06,0.0,-1.3297611585971758e-05
20,1.888,10.3602,3.45341,-4.65036e-15,5.98148,-2.24011e-17,1.31867e-17,4.48827e-05,1.66234e-06,-1.99479e-05,7.48599e-05,-3.16123e-21,2.08725e-21,0.0,4.4883707243537074e-05,7.486270207235357e-05,0.0,1.6623413816585497e-06,0.0,-1.994770104196686e-05
21,2.833,15.5409,5.18029,-2.86312e-14,8.97252,5.76643e-17,-5.78126e-17,6.73263e-05,2.49357e-06,-2.99228e-05,0.000112294,-7.33604e-22,-4.23546e-22,0.0,6.732856646629592e-05,0.00011230030520725798,0.0,2.4935731088859825e-06,0.0,-2.9922352317468537e-05
22,4.249,93.5787,31.1929,-1.03265e-09,54.0277,3.28372e-16,-5.26719e-16,0.000405403,1.5015e-05,-0.000180179,0.000676171,6.77731e-21,-1.17391e-20,0.0,0.00040548518690219915,0.0006763996551444329,0.0,1.5015112725613733e-05,0.0,-0.00018016276873877857
23,6.374,211.097,70.3658,-9.04826e-07,121.877,5.76346e-17,-5.78297e-17,0.000914519,3.38711e-05,-0.000406453,0.00152533,-4.01543e-25,-2.31831e-25,0.0,0.0009149373000056915,0.0015264939075101402,0.0,3.3871673632113186e-05,0.0,-0.00040637040916957634
24,9.214,362.717,120.976,0.00053021,209.476,-0.00834344,-0.00481551,0.00159354,5.5072e-05,-0.000717298,0.00266305,-1.06335e-07,-6.14229e-08,3.43344e-05,0.0015948103595657681,0.002666599067399966,-1.0633499436529803e-07,5.507351649036707e-05,-6.142289810107115e-08,-0.0007170408032888265
25,12.05,380.345,127.261,9.86928e-05,220.007,-0.134338,-0.0774639,0.00225639,-3.07436e-05,-0.00124828,0.00388824,-2.43188e-06,-1.42263e-06,0.000940373,0.002258937563654806,0.003895809012014473,-2.4318770429632153e-06,-3.074312742035179e-05,-1.4226289880570064e-06,-0.001247501222598535
26,14.89,394.825,132.427,8.51684e-05,228.661,-0.237648,-0.136973,0.00291794,-0.000118779,-0.00178397,0.00511463,-5.0268e-06,-2.9531e-06,0.00186627,0.002922201330682883,0.005127732047870204,-5.026787365691732e-06,-0.00011877194605380836,-2.9530956395795727e-06,-0.0017823796713596352
27,17.73,407.155,136.817,3.32702e-05,236.023,-0.322322,-0.185711,0.00357837,-0.000208283,-0.0023227,0.00634147,-7.82218e-06,-4.61016e-06,0.00280546,0.003584780009443289,0.006361619691250153,-7.82214940686643e-06,-0.0002082613106016984,-4.610149373251993e-06,-0.002320004619612237
28,20.57,417.916,140.643,1.21454e-05,242.442,-0.393272,-0.226524,0.00423776,-0.000298791,-0.0028635,0.00756836,-1.0793e-05,-6.37712e-06,0.00375407,0.004246752002404541,0.007597072426163143,-1.0792941755766172e-05,-0.00029874636641469277,-6.377099666221575e-06,-0.0028594040943495935
29,23.41,427.482,144.037,1.89554e-06,248.143,-0.453788,-0.261315,0.00489618,-0.000390013,-0.00340575,0.00879503,-1.39162e-05,-8.23908e-06,0.00470963,0.004908185875608151,0.008833819912435814,-1.3916103170141803e-05,-0.00038993695481648327,-8.239046058844401e-06,-0.003399957011824606
30,26.25,436.103,147.092,-4.38092e-06,253.278,-0.506145,-0.291403,0.00555368,-0.000481758,-0.00394902,0.0100213,-1.71716e-05,-1.01831e-05,0.00567044,0.005569130269479805,0.010071681381853548,-1.7171452568964796e-05,-0.00048164197324751523,-1.0183048152367924e-05,-0.0039412328743971825
31,29.09,443.961,149.872,-9.15396e-06,257.953,-0.551972,-0.317728,0.00621029,-0.000573895,-0.00449301,0.011247,-2.05416e-05,-1.21981e-05,0.00663533,0.006229613832432479,0.011310485287604699,-2.0541389022743495e-05,-0.0005737303537624028,-1.2198025603482598e-05,-0.004482931530441214
32,31.93,451.187,152.424,-1.3409e-05,262.249,-0.592467,-0.340983,0.00686604,-0.000666328,-0.0050375,0.0124721,-2.40112e-05,-1.42746e-05,0.00760341,0.006889665292423297,0.012550200995933292,-2.401091173342973e-05,-0.0006661060527975993,-1.427449811841619e-05,-0.005024833075678137
33,34.77,457.88,154.786,-1.75655e-05,266.226,-0.628536,-0.361691,0.00752096,-0.000758988,-0.00558233,0.0136964,-2.75674e-05,-1.64045e-05,0.00857402,0.007549313456826523,0.01379062537785769,-2.756702002271183e-05,-0.0007587000414649436,-1.6404365446920366e-05,-0.005566777748609364
34,37.61,464.12,156.984,-2.18067e-05,269.931,-0.660878,-0.380254,0.00817508,-0.000851824,-0.00612736,0.0149199,-3.11989e-05,-1.85809e-05,0.00954664,0.008208587212312324,0.01503175731564399,-3.119841331933326e-05,-0.0008514613009290573,-1.8580727376149575e-05,-0.0061086260125401415
35,40.45,469.966,159.041,-2.6211e-05,273.4,-0.69004,-0.396989,0.0088284,-0.000944793,-0.0066725,0.0161426,-3.48962e-05,-2.07977e-05,0.0105209,0.008867485258709396,0.016273595688491405,-3.4895591134675996e-05,-0.0009443468236194352,-2.0797483729295685e-05,-0.006650288301851326
36,43.29,475.469,160.975,-3.08076e-05,276.663,-0.716461,-0.412148,0.00948095,-0.00103786,-0.00721766,0.0173644,-3.86508e-05,-2.30499e-05,0.0114964,0.009526036581678943,0.01751603762092091,-3.865005306746827e-05,-0.001037321609584252,-2.3049634353067283e-05,-0.007191675246019047
37,46.13,480.67,162.8,-3.56022e-05,279.746,-0.740496,-0.425936,0.0101327,-0.00113101,-0.00776277,0.0185852,-4.24554e-05,-2.53328e-05,0.0124729,0.01018420963486677,0.018758979737147685,-4.245449878226282e-05,-0.0011303706492499233,-2.5332479127282426e-05,-0.007732717514752907
38,48.97,485.602,164.529,-4.0589e-05,282.667,-0.762433,-0.43852,0.0107838,-0.00122422,-0.00830779,0.0198052,-4.63035e-05,-2.76424e-05,0.0134502,0.01084215474454675,0.020002624161272298,-4.6302428009514784e-05,-0.0012234709483948114,-2.7642017952356213e-05,-0.008273375680912576
39,51.81,490.293,166.172,-4.57569e-05,285.443,-0.782516,-0.450039,0.0114341,-0.00131746,-0.00885265,0.0210241,-5.01893e-05,-2.99752e-05,0.0144281,0.011499719181680801,0.021246663385543485,-5.018804053813497e-05,-0.0013165925305681503,-2.9974750748174017e-05,-0.008813580668030285
40,54.65,494.768,167.737,-5.10923e-05,288.091,-0.800945,-0.460609,0.0120837,-0.00141073,-0.00939734,0.022242,-5.41078e-05,-3.23282e-05,0.0154064,0.012157002861887145,0.02249119740203742,-5.410633619939986e-05,-0.0014097353881981078,-3.232767744931753e-05,-0.009353322989309132
41,57.49,499.046,169.232,-5.65811e-05,290.62,-0.81789,-0.470327,0.0127325,-0.00150402,-0.0099418,0.023459,-5.80543e-05,-3.46985e-05,0.016385,0.012813903400835658,0.023736326696772503,-5.8052614881676234e-05,-0.0015028895287412247,-3.469789801402445e-05,-0.009892543673706955
42,60.33,503.146,170.664,-6.22091e-05,293.043,-0.833498,-0.479278,0.0133807,-0.00159731,-0.010486,0.0246748,-6.20249e-05,-3.70836e-05,0.0173639,0.013470622192586434,0.024981742257478512,-6.202297649560151e-05,-0.001596034979340022,-3.708291241177886e-05,-0.010431213566068132
43,63.17,507.083,172.036,-6.79625e-05,295.368,-0.847891,-0.487532,0.0140281,-0.00169059,-0.01103,0.0258897,-6.60159e-05,-3.94813e-05,0.0183428,0.014126955505563643,0.02622774930987437,-6.601372099845904e-05,-0.0016891617576967333,-3.948052062374696e-05,-0.010969392587921845
44,66.01,510.87,173.356,-7.38282e-05,297.604,-0.861178,-0.495152,0.0146749,-0.00178386,-0.0115736,0.0271035,-7.00239e-05,-4.18896e-05,0.0193217,0.014783104996254792,0.027474140833975813,-7.002144838397228e-05,-0.0017822698674153648,-4.188872264299093e-05,-0.01150688352283924
45,68.85,514.519,174.625,-7.97939e-05,299.757,-0.873452,-0.502192,0.015321,-0.00187712,-0.012117,0.0283162,-7.40458e-05,-4.43065e-05,0.0203006,0.015438968214189774,0.028720914553013177,-7.404305867741989e-05,-0.0018753593120992562,-4.4305518481557726e-05,-0.012043884765881141
46,71.69,518.04,175.85,-8.58479e-05,301.833,-0.884795,-0.508698,0.0159664,-0.00197035,-0.01266,0.0295279,-7.8079e-05,-4.67305e-05,0.0212793,0.016094544055843096,0.029968171183002656,-7.80759519142249e-05,-0.0019684101347190452,-4.672940814720583e-05,-0.012580199313875995
47,74.53,521.443,177.031,-9.19794e-05,303.839,-0.895278,-0.514711,0.0166111,-0.00206356,-0.0132026,0.0307385,-8.2121e-05,-4.916e-05,0.0222578,0.01674983141758002,0.031215805691832355,-8.211762816290324e-05,-0.002061432323844037,-4.915879166700332e-05,-0.013115827968532834
48,77.37,524.736,178.174,-9.81779e-05,305.779,-0.904965,-0.520267,0.0172551,-0.00215674,-0.013745,0.031948,-8.61693e-05,-5.15936e-05,0.0232361,0.017404829195659888,0.03246381579078217,-8.616558753249404e-05,-0.002154415907407503,-5.159226907314185e-05,-0.013650968800129282
49,80.21,527.926,179.279,-0.000104434,307.657,-0.913911,-0.5254,0.0178985,-0.00224988,-0.0142869,0.0331564,-9.02219e-05,-5.403e-05,0.024214,0.018059638092197572,0.033712199187121206,-9.021783012674867e-05,-0.0022473509170592987,-5.402854040581495e-05,-0.01418532654282978
50,83.05,531.02,180.351,-0.000110738,309.478,-0.922167,-0.530137,0.0185412,-0.00234299,-0.0148285,0.0343637,-9.42769e-05,-5.64679e-05,0.0251917,0.018714155328183546,0.034960953584112,-9.427245607274148e-05,-0.002340247341355406,-5.6466305718094745e-05,-0.01471909921128789
51,85.89,534.024,181.39,-0.000117082,311.245,-0.929776,-0.534504,0.0191832,-0.00243606,-0.0153697,0.0355699,-9.83323e-05,-5.89064e-05,0.0261689,0.0193683797994888,0.03621007668101717,-9.832746553783966e-05,-0.0024330952137925355,-5.890466505209524e-05,-0.015252188967694869
52,88.73,536.943,182.399,-0.000123458,312.961,-0.93678,-0.538524,0.0198246,-0.00252908,-0.0159105,0.036775,-0.000102387,-6.13444e-05,0.0271457,0.02002241240412639,0.03745956617310342,-0.0001023817586299769,-0.002525884571575876,-6.134251847078609e-05,-0.015784596607899548
53,91.57,539.783,183.379,-0.000129857,314.63,-0.943213,-0.542217,0.0204653,-0.00262207,-0.0164509,0.037979,-0.000106438,-6.37808e-05,0.0281221,0.02067615016628288,0.03870941975164577,-0.00010643233567697585,-0.0026186353770539794,-6.377876604801713e-05,-0.016316322926501092
54,94.41,542.548,184.333,-0.000136274,316.254,-0.949108,-0.545603,0.0211054,-0.002715,-0.0169908,0.0391819,-0.000110485,-6.62149e-05,0.029098,0.021329694114430087,0.03995963510393685,-0.00011047889675708245,-0.002711317720716644,-6.621270784190614e-05,-0.016847270401584957
55,97.25,545.242,185.261,-0.000142699,317.835,-0.954495,-0.548697,0.0217448,-0.00280789,-0.0175304,0.0403836,-0.000114527,-6.86457e-05,0.0300735,0.021982941141665657,0.04121010579227269,-0.00011452044203341671,-0.0028039515639680657,-6.864334393785754e-05,-0.01737763650883173
56,100.1,547.868,186.165,-0.000149128,319.376,-0.9594,-0.551515,0.0223836,-0.00290074,-0.0180696,0.0415843,-0.000118561,-7.10725e-05,0.0310484,0.022635992406834005,0.042461037612928854,-0.00011855397192239714,-0.0028965369187236023,-7.106997440964324e-05,-0.017907323670734
57,102.9,550.431,187.046,-0.000155554,320.879,-0.963847,-0.554072,0.0230218,-0.00299353,-0.0186083,0.0427838,-0.000122588,-7.34946e-05,0.0320227,0.023288847000929813,0.04371221987409002,-0.00012258048639812724,-0.0029890538566732516,-7.349189933802958e-05,-0.018436234520544548
58,105.8,552.934,187.906,-0.00016197,322.346,-0.967858,-0.556378,0.0236593,-0.00308628,-0.0191466,0.0439822,-0.000126605,-7.59113e-05,0.0329965,0.023941401620577896,0.04496375436807187,-0.00012659698592509816,-0.003081522333636122,-7.590841881011112e-05,-0.018964468108676358
59,108.6,555.379,188.745,-0.000168371,323.779,-0.971453,-0.558447,0.0242962,-0.00317897,-0.0196845,0.0451795,-0.000130611,-7.83218e-05,0.0339697,0.024593757619986167,0.04621563876221835,-0.00013060247075458165,-0.0031739224249826004,-7.831873292785119e-05,-0.019492025222074938
60,111.5,557.77,189.565,-0.000174752,325.178,-0.974651,-0.560289,0.0249325,-0.00327161,-0.0202219,0.0463757,-0.000134607,-8.07256e-05,0.0349423,0.025245914089536914,0.04746787071992209,-0.00013459794088421795,-0.0032662641154760363,-8.07223417763625e-05,-0.02001880864833616
61,114.3,560.109,190.366,-0.000181104,326.547,-0.977468,-0.561913,0.0255681,-0.0033642,-0.0207589,0.0475708,-0.00013859,-8.31221e-05,0.0359143,0.025897767529610594,0.04872044790062979,-0.00013858039684955248,-0.0033585474197600496,-8.311864545396119e-05,-0.020544917275282848
62,117.1,562.398,191.149,-0.000187404,327.886,-0.979921,-0.563329,0.0262031,-0.00345673,-0.0212955,0.0487647,-0.000142559,-8.55108e-05,0.0368857,0.02654941948959233,0.04997326296251603,-0.00014254883894859738,-0.0034507623869761694,-8.5507144055752e-05,-0.021070351885959293
63,120.0,564.639,191.915,-0.000189637,329.196,-0.982016,-0.564573,0.0268375,-0.00354921,-0.0218316,0.0499575,-0.000146515,-8.7891e-05,0.0378564,0.027200869059271104,0.051226418303844,-0.00014650426720153042,-0.0035429189990831,-8.788713769913858e-05,-0.021595015421686514
64,122.8,566.835,192.666,9.8959e-05,330.48,-0.984034,-0.566017,0.0274713,-0.00364163,-0.0223673,0.0511492,-0.000150462,-9.02655e-05,0.0388265,0.02785211532822296,0.052479911572155036,-0.00015045068116092963,-0.0036350073070430255,-9.026142619228406e-05,-0.022119006608354752
65,125.7,568.986,193.402,-0.000206755,331.738,-0.986407,-0.567073,0.0281044,-0.00373399,-0.0229025,0.0523397,-0.000154407,-9.2629e-05,0.0397959,0.02850305453550095,0.053733635037700456,-0.00015439507985259837,-0.0037270273282182798,-9.262471006665773e-05,-0.022642228489353267
66,128.5,571.094,194.123,-0.000213375,332.972,-0.988625,-0.568355,0.0287369,-0.00382629,-0.0234373,0.0535292,-0.00015834,-9.49902e-05,0.0407646,0.029153788490413834,0.054987796961504465,-0.00015832746488375626,-0.0038189790799572076,-9.498568857380096e-05,-0.023164779682913306
67,131.3,573.162,194.832,-0.000220081,334.182,-0.990865,-0.569648,0.0293688,-0.00391851,-0.0239716,0.0547175,-0.000162266,-9.73467e-05,0.0417327,0.029804316281970555,0.05624218410715098,-0.00016225283558457537,-0.0039108426578118305,-9.734196196375944e-05,-0.023686563334213262
68,134.2,575.191,195.527,-0.00022682,335.369,-0.993126,-0.570954,0.0300001,-0.00401067,-0.0245055,0.0559048,-0.000166185,-9.96988e-05,0.0427,0.03045463699897555,0.057497005229492526,-0.0001661711920377673,-0.004002638004558023,-9.969383023977763e-05,-0.02420767795412282
69,137.0,577.182,196.21,-0.000233604,336.535,-0.995409,-0.572272,0.0306307,-0.00410276,-0.0250389,0.0570909,-0.000170097,-0.000102047,0.0436667,0.03110464661956036,0.058752046582533746,-0.00017008253432537757,-0.004094355178441922,-0.0001020417933820239,-0.024728026789330504
70,139.9,579.137,196.88,-0.000240432,337.68,-0.997712,-0.573603,0.0312608,-0.00419478,-0.0255718,0.0582759,-0.000174001,-0.00010439,0.0446327,0.031754550388075176,0.060007411414495726,-0.00017398586270389593,-0.004185994199502385,-0.00010438455155348247,-0.02524761076840698
71,142.7,581.057,197.54,-0.000247307,338.805,-1.00004,-0.574945,0.0318902,-0.00428673,-0.0261043,0.0594598,-0.0001779,-0.00010673,0.0455979,0.03240414110684431,0.06126309734548996,-0.00017788417673325618,-0.004277555087759399,-0.00010672430455616055,-0.025766528241633946
72,145.5,582.943,198.188,-0.000254228,339.911,-1.00238,-0.576299,0.032519,-0.00437861,-0.0266364,0.0606426,-0.000181792,-0.000109067,0.0465625,0.03305352097440606,0.06251910199174704,-0.00018177547683562167,-0.004369037863214964,-0.00010906105241093034,-0.026284779978854034
73,148.4,584.797,198.825,-0.000261197,340.998,-1.00475,-0.577665,0.0331471,-0.00447041,-0.0271679,0.0618243,-0.000185679,-0.000111399,0.0475263,0.03370258570837148,0.06377542296562266,-0.00018566176272127866,-0.00446043259045692,-0.00011139279536176439,-0.026802172109156697
74,151.2,586.62,199.452,-0.000268214,342.067,-1.00713,-0.579043,0.0337747,-0.00456213,-0.027699,0.0630049,-0.00018956,-0.000113729,0.0484893,0.03435154107205407,0.0650320578756034,-0.00018954203463827923,-0.0045517392921902156,-0.00011372253310237834,-0.027318900246246725
75,154.1,588.413,200.069,-0.000275281,343.119,-1.00954,-0.580432,0.0344017,-0.00465379,-0.0282297,0.0641844,-0.000193436,-0.000116055,0.0494517,0.035000282847599484,0.0662890043263129,-0.00019341729246313832,-0.0046429778982376435,-0.00011604826587896522,-0.027834965155949964
76,156.9,590.177,200.676,-0.000282397,344.154,-1.01197,-0.581833,0.035028,-0.00474536,-0.0287599,0.0653628,-0.000197306,-0.000118378,0.0504132,0.03564870655743646,0.0675462599185177,-0.0001972865364512355,-0.004734118567812251,-0.00011837099360101355,-0.02835027043792271
77,159.7,591.913,201.274,-0.000289565,345.173,-1.01441,-0.583245,0.0356537,-0.00483686,-0.0292896,0.0665401,-0.000201172,-0.000120698,0.0513741,0.036296914723906504,0.06880382224913362,-0.00020115176627000242,-0.004825181229782927,-0.00012069071628939554,-0.028864817009981003
78,162.6,593.621,201.863,-0.000296784,346.176,-1.01688,-0.584669,0.0362788,-0.00492828,-0.0298189,0.0677163,-0.000205034,-0.000123016,0.0523342,0.03694490643400927,0.0700616889112311,-0.00020501298196584639,-0.004916155953196832,-0.0001230084338420534,-0.02937870285045241
79,165.4,595.303,202.444,-0.000304056,347.164,-1.01936,-0.586103,0.0369033,-0.00501962,-0.0303477,0.0688915,-0.000208891,-0.000125331,0.0532935,0.037592680774562126,0.07131996462603296,-0.00020886918379403596,-0.00500704276064845,-0.00012532314639823738,-0.029891831709157768
80,168.3,596.96,203.015,-0.000311381,348.137,-1.02187,-0.58755,0.0375272,-0.00511088,-0.030876,0.0700655,-0.000212745,-0.000127643,0.0542521,0.038240236832204566,0.07257843284080301,-0.00021272237138714178,-0.005097841674708725,-0.00012763485397881968,-0.030404204499276388
81,171.1,598.592,203.579,-0.00031876,349.096,-1.02439,-0.589007,0.0381505,-0.00520206,-0.0314039,0.0712384,-0.000216594,-0.000129954,0.0552099,0.038887573693397126,0.07383719814328726,-0.00021657054521295738,-0.005188552717925399,-0.00012994555634471272,-0.03091591904078428
82,173.9,600.2,204.135,-0.000326194,350.042,-1.02694,-0.590475,0.0387731,-0.00529316,-0.0319313,0.0724103,-0.00022044,-0.000132262,0.056167,0.03953458649096242,0.07509636562086852,-0.00022041570488839923,-0.005279175912823675,-0.00013225325376720054,-0.031426879233035776
83,176.8,601.784,204.683,-0.000333683,350.973,-1.0295,-0.591954,0.0393952,-0.00538418,-0.0324582,0.0735811,-0.000224282,-0.000134568,0.0571233,0.04018148215325135,0.07635582558973364,-0.00022425685067239964,-0.0053697112819048876,-0.00013455894613279007,-0.03193708598459555
84,179.6,603.347,205.223,-0.000341228,351.892,-1.03208,-0.593445,0.0400167,-0.00547512,-0.0329847,0.0747508,-0.000228122,-0.000136872,0.0580788,0.04082815587745392,0.07761557562009891,-0.00022809598215489668,-0.0054601588476477225,-0.00013686263345513705,-0.032446636957759956
85,182.5,604.887,205.757,-0.000348831,352.799,-1.03468,-0.594946,0.0406375,-0.00556597,-0.0335107,0.0759194,-0.000231958,-0.000139174,0.0590335,0.041474502601887675,0.07887561327837744,-0.00023193109982300175,-0.005550508688012767,-0.00013916431574811927,-0.03295543620078867
86,185.3,606.406,206.283,-0.000356491,353.693,-1.0373,-0.596457,0.0412578,-0.00565674,-0.0340362,0.0770869,-0.000235792,-0.000141475,0.0599875,0.04212072964244751,0.08013593612718539,-0.0002357642032511098,-0.005640770771732528,-0.0001414649928840328,-0.03346348461765192
87,188.1,607.904,206.802,-0.00036421,354.575,-1.03994,-0.59798,0.0418774,-0.00574743,-0.0345613,0.0782534,-0.000239623,-0.000143774,0.0609407,0.04276662772509621,0.0813966498650085,-0.0002395942927019279,-0.0057309451212136375,-0.0001437636650136742,-0.0339708797136381
88,191.0,609.383,207.315,-0.000371988,355.445,-1.04259,-0.599513,0.0424965,-0.00583803,-0.0350859,0.0794187,-0.000243451,-0.000146072,0.0618931,0.04341240442387195,0.08265753589365854,-0.00024342136820987292,-0.0058210218170496875,-0.00014606133200478766,-0.03447752568528262
89,193.8,610.841,207.821,-0.000379827,356.305,-1.04527,-0.601057,0.0431149,-0.00592855,-0.0356101,0.080583,-0.000247277,-0.000148368,0.0628447,0.044057850206034255,0.08391880816987385,-0.00024724642956241993,-0.005911010825190854,-0.00014835699401249958,-0.03498351993363924
90,196.7,612.281,208.321,-0.000387726,357.153,-1.04796,-0.602612,0.0437328,-0.00601899,-0.0361337,0.0817463,-0.000251102,-0.000150663,0.0637956,0.044703172903591826,0.08518046461961193,-0.0002510704765312788,-0.006000912167971828,-0.00015065165090011323,-0.035488670302694425
91,199.5,613.702,208.815,-0.000395686,357.991,-1.05068,-0.604177,0.04435,-0.00610934,-0.036657,0.0829084,-0.000254924,-0.000152956,0.0647456,0.04534816272529185,0.08644228587678304,-0.0002548915096379778,-0.006090715928611545,-0.000152944302827418,-0.035993267042273014
92,202.3,615.105,209.302,-0.000403709,358.818,-1.05341,-0.605753,0.0449667,-0.00619961,-0.0371797,0.0840695,-0.000258745,-0.000155249,0.0656949,0.045993027760940386,0.08770448664376662,-0.00025871152839940237,-0.006180432070285624,-0.0001552369494975947,-0.03649702169384261
93,205.2,616.491,209.784,-0.000411794,359.635,-1.05615,-0.607339,0.0455827,-0.00628979,-0.037702,0.0852296,-0.000262564,-0.000157541,0.0666434,0.04663755796096192,0.08896706483560046,-0.0002625295330895838,-0.006270050677957717,-0.00015752859106821226,-0.037000127901788304
94,208.0,617.86,210.261,-0.000419943,360.443,-1.05892,-0.608935,0.0461982,-0.00637988,-0.0382238,0.0863885,-0.000266381,-0.000159832,0.0675911,0.04728196167278531,0.09022980031778749,-0.0002663455237315038,-0.006359571776553774,-0.0001598192275462651,-0.03750249015733842
95,210.9,619.211,210.731,-0.000428157,361.241,-1.0617,-0.610542,0.046813,-0.00646989,-0.0387451,0.0875464,-0.000270198,-0.000162122,0.068538,0.04792602858870487,0.09149290853895597,-0.00027016149980785276,-0.00644900532648085,-0.00016210885893863658,-0.03800410935081677
96,213.7,620.547,211.197,-0.000436436,362.029,-1.06451,-0.612159,0.0474273,-0.00655981,-0.039266,0.0887033,-0.000274013,-0.000164411,0.0694841,0.048569967313596196,0.09275638740327175,-0.0002739754618665824,-0.006538341415310955,-0.00016439748525209907,-0.03850508252046636
97,216.5,621.867,211.657,-0.000444781,362.808,-1.06733,-0.613786,0.048041,-0.00664965,-0.0397865,0.0898591,-0.000277827,-0.0001667,0.0704294,0.04921367220317885,0.09402012540934335,-0.0002777884096528682,-0.006627590001611838,-0.00016668610632697423,-0.03900541040338701
98,219.4,623.171,212.112,-0.000453192,363.579,-1.07017,-0.615424,0.0486541,-0.0067394,-0.0403064,0.0910138,-0.000281641,-0.000168988,0.0713739,0.04985714234122107,0.09528412007503007,-0.0002816013428966757,-0.006716741174690566,-0.00016897372233215524,-0.03950490163652143
99,222.2,624.46,212.562,-0.00046167,364.34,-1.07302,-0.617071,0.0492666,-0.00682906,-0.0408259,0.0921674,-0.000285453,-0.000171276,0.0723177,0.05050037681135211,0.09654836891447482,-0.00028541226216871607,-0.006805794959335976,-0.0001712613331031898,-0.04000374925323369
100,225.1,625.735,213.007,-0.000470217,365.094,-1.07589,-0.618729,0.0498785,-0.00691864,-0.0413449,0.0933201,-0.000289266,-0.000173564,0.0732606,0.05114337469706376,0.09781308900070607,-0.0002892241666243578,-0.0068947613113610196,-0.00017354893864029997,-0.04050185803696105
101,227.9,626.995,213.447,-0.000478832,365.838,-1.07879,-0.620397,0.0504898,-0.00700813,-0.0418635,0.0944716,-0.000293077,-0.000175851,0.0742028,0.05178613508171126,0.09907794887600163,-0.000293034057131325,-0.006983630322668133,-0.00017583553911915129,-0.040999324769109946
102,230.7,628.241,213.883,-0.000487517,366.575,-1.08169,-0.622075,0.0511006,-0.00709753,-0.0423816,0.0956222,-0.000296889,-0.000178138,0.0751441,0.05242876229138993,0.10034327576694357,-0.00029684493282200464,-0.007072402017963553,-0.0001781221343685191,-0.04149605433004311
103,233.6,629.473,214.314,-0.000496272,367.304,-1.08462,-0.623763,0.0517107,-0.00718684,-0.0428992,0.0967716,-0.0003007,-0.000180425,0.0760847,0.05307104498767812,0.10160873744962018,-0.0003006547942862037,-0.00716107642192465,-0.0001804087243885144,-0.04199204759819053
104,236.4,630.692,214.74,-0.000505098,368.025,-1.08756,-0.625461,0.0523203,-0.00727606,-0.0434164,0.09792,-0.000304511,-0.000182712,0.0770245,0.053713192803470866,0.10287455161508596,-0.00030446464123112804,-0.0072496535592013744,-0.0001826953091790262,-0.04248740120168881
105,239.3,631.897,215.163,-0.000513995,368.739,-1.09052,-0.627169,0.0529293,-0.0073652,-0.0439331,0.0990674,-0.000308323,-0.000184998,0.0779634,0.054355099578661914,0.10414071613528275,-0.00030827547334855154,-0.007338143381033335,-0.00018498088892515696,-0.04298202016567432
106,242.1,633.09,215.581,-0.000522965,369.445,-1.0935,-0.628887,0.0535377,-0.00745425,-0.0444494,0.100214,-0.000312134,-0.000187285,0.0789016,0.054996764395890185,0.10540744996012474,-0.0003120852912510408,-0.007426535983626192,-0.00018726746325914423,-0.04347600101653282
107,244.9,634.27,215.994,-0.000532008,370.144,-1.0965,-0.630614,0.0541455,-0.00754321,-0.0449652,0.101359,-0.000315946,-0.000189572,0.079839,0.05563818633767181,0.10667386637536813,-0.00031589609431859067,-0.007514831391547072,-0.000189554032363759,-0.04396924887565001
108,247.8,635.438,216.404,-0.000541125,370.835,-1.09951,-0.632352,0.0547527,-0.00763208,-0.0454805,0.102503,-0.000319758,-0.00019186,0.0807755,0.05627936448640236,0.10794062572669616,-0.00031970688285931637,-0.007603029629334457,-0.00019184159604712647,-0.04446176461412599
109,250.6,636.594,216.81,-0.000550316,371.52,-1.10254,-0.634099,0.0553594,-0.00772087,-0.0459954,0.103647,-0.000323571,-0.000194147,0.0817113,0.05692040361639328,0.10920883507996515,-0.0003235186565497816,-0.007691140644587313,-0.00019412815469077582,-0.04495364460615481
110,253.5,637.738,217.212,-0.000559583,372.198,-1.10558,-0.635856,0.0559655,-0.00780956,-0.0465098,0.104789,-0.000327384,-0.000196435,0.0826463,0.05756119724591802,0.1104762751401549,-0.0003273304157060952,-0.007779144614729838,-0.00019641570790851492,-0.04544479411688507
111,256.3,638.87,217.61,-0.000568925,372.87,-1.10865,-0.637623,0.056571,-0.00789817,-0.0470237,0.10593,-0.000331198,-0.000198724,0.0835805,0.05820174445694826,0.11174405169907509,-0.00033114315999693833,-0.007867061409514431,-0.00019870425569379346,-0.04593521401300327
112,259.1,639.991,218.004,-0.000578345,373.535,-1.11173,-0.6394,0.0571759,-0.00798669,-0.0475372,0.10707,-0.000335013,-0.000201013,0.0845139,0.058842044331343324,0.1130121626038918,-0.0003349568894110977,-0.0079548811302802,-0.00020099279824048466,-0.04642500051716014
113,262.0,641.101,218.394,-0.000587841,374.193,-1.11482,-0.641186,0.0577803,-0.00807512,-0.0480503,0.108209,-0.000338829,-0.000203302,0.0854465,0.05948220189906661,0.11428060569830834,-0.00033877160393724903,-0.008042603801426962,-0.00020328133554869954,-0.04691415434624846
114,264.8,642.2,218.781,-0.000597416,374.845,-1.11794,-0.642982,0.0583841,-0.00816346,-0.0485628,0.109347,-0.000342646,-0.000205592,0.0863783,0.06012211042151505,0.11554937882257432,-0.000342587303563624,-0.008130229447325221,-0.00020557086741290753,-0.04740248569654859
115,267.7,643.289,219.165,-0.00060707,375.491,-1.12107,-0.644788,0.0589873,-0.00825171,-0.049075,0.110484,-0.000346465,-0.000207883,0.0873093,0.0607617689801474,0.1168184798134877,-0.0003464049879329245,-0.008217758092318284,-0.00020786139382633628,-0.047890281208280205
116,270.5,644.367,219.545,-0.000616803,376.131,-1.12421,-0.646603,0.0595899,-0.00833987,-0.0495866,0.11162,-0.000350284,-0.000210174,0.0882395,0.061401176656318945,0.11808790650440026,-0.0003502226577224432,-0.008305189760720255,-0.00021015191499207386,-0.048377255961650434
117,273.3,645.434,219.921,-0.000626617,376.765,-1.12738,-0.648428,0.060192,-0.00842795,-0.0500978,0.112755,-0.000354105,-0.000212467,0.0891689,0.06204043873532017,0.1193576567252228,-0.0003540423122242453,-0.008392534392892115,-0.00021244443048529238,-0.04886360118797184
118,276.2,646.492,220.294,-0.000636512,377.394,-1.13056,-0.650262,0.0607935,-0.00851593,-0.0506086,0.113889,-0.000357927,-0.00021476,0.0900975,0.06267944822205629,0.12062772830242907,-0.0003578629517732024,-0.008479772180069678,-0.00021473694072193794,-0.04934931759795291
119,279.0,647.54,220.664,-0.000646489,378.016,-1.13375,-0.652106,0.0613944,-0.00860383,-0.0511189,0.115022,-0.000361751,-0.000217054,0.0910253,0.06331820419750556,0.12189811905906023,-0.0003616855759963622,-0.008566922977761293,-0.00021703044548471162,-0.04983431088462098
120,281.9,648.578,221.031,-0.000656549,378.633,-1.13697,-0.653959,0.0619947,-0.00869164,-0.0516287,0.116154,-0.000365576,-0.000219349,0.0919523,0.06395670574254986,0.12316882681473196,-0.0003655091852364789,-0.008653976894096527,-0.00021932494476684106,-0.050318581901761306
121,284.0,649.356,221.306,-0.000667425,379.096,-1.13941,-0.655366,0.062448,-0.00875792,-0.0520136,0.117009,-0.000368466,-0.000221084,0.0926522,0.06443910664516728,0.12412954681093114,-0.0003683981247403212,-0.008719681131045598,-0.00022105956273332783,-0.05068404394190573
