,Time,S11,S22,S33,S12,S13,S23,LE11,LE22,LE33,LE12,LE13,LE23,SDV_EPBAR,E11,E12,E13,E22,E23,E33
0,0.000284,0.0015581,0.000519365,0.0,0.000899567,1.32028e-20,2.67023e-20,6.7501e-09,2.50301e-10,-3.0004e-09,1.1258e-08,6.18106e-26,5.13348e-25,0.0,6.750100034480511e-09,1.1258000087721598e-08,0.0,2.5030089112476617e-10,0.0,-3.0004000395322805e-09
1,0.000568,0.00311619,0.00103873,2.1684e-19,0.00179913,-2.79039e-28,-1.61103e-28,1.35001e-08,5.00425e-10,-6.00057e-09,2.25162e-08,2.06826e-25,-3.58238e-25,0.0,1.3500100148888805e-08,2.2516200237632233e-08,0.0,5.00425034744012e-10,0.0,-6.000569929831556e-09
2,0.000994,0.00545333,0.00181778,2.1684e-19,0.00314848,-6.04799e-21,-2.25714e-20,2.36252e-08,8.75688e-10,-1.05009e-08,3.94034e-08,-4.13622e-25,7.16424e-25,0.0,2.3625200240573463e-08,3.9403400764470575e-08,0.0,8.756879665838824e-10,0.0,-1.0500899927379237e-08
3,0.001633,0.00895905,0.00298635,4.33681e-19,0.00517251,-5.11908e-20,-1.04754e-20,3.88125e-08,1.4375e-09,-1.725e-08,6.47354e-08,3.9316e-32,2.26991e-32,0.0,3.8812500768869995e-08,6.473540214990692e-08,0.0,1.4374998968946784e-09,0.0,-1.7249999872959165e-08
4,0.0025915,0.0142176,0.00473921,-1.30104e-18,0.00820854,3.90948e-20,-3.46674e-20,6.15937e-08,2.28125e-09,-2.7375e-08,1.02732e-07,2.86544e-24,1.65436e-24,0.0,6.159370191660685e-08,1.027320053470504e-07,0.0,2.281250077729169e-09,0.0,-2.7374999600482397e-08
5,0.0040292,0.0221055,0.00736849,-1.30104e-18,0.0127626,-7.53827e-20,-1.00761e-19,9.57656e-08,3.54688e-09,-4.25625e-08,1.59728e-07,2.30786e-31,1.33244e-31,0.0,9.576560455748506e-08,1.597280128162737e-07,0.0,3.5468799008953056e-09,0.0,-4.256249908074494e-08
6,0.0061859,0.0339373,0.0113124,-4.77049e-18,0.0195937,1.20526e-19,8.8665e-20,1.47024e-07,5.44671e-09,-6.53456e-08,2.45219e-07,-6.61761e-24,1.14621e-23,0.0,1.4702401074373483e-07,2.452190299706558e-07,0.0,5.446709971934638e-09,0.0,-6.534559782167548e-08
7,0.0094208,0.0516849,0.0172283,7.37257e-18,0.0298403,1.86619e-19,-2.58125e-20,2.2391e-07,8.29297e-09,-9.95156e-08,3.7346e-07,-6.95067e-31,-4.01297e-31,0.0,2.2391002496569e-07,3.734600697580248e-07,0.0,8.292970088419338e-09,0.0,-9.951559509779884e-08
8,0.014273,0.0783064,0.0261021,-1.30104e-18,0.0452102,1.86619e-19,-2.58125e-20,3.39241e-07,1.25671e-08,-1.50777e-07,5.65816e-07,2.64704e-23,-4.58482e-23,0.0,3.392410574676319e-07,5.658161601473921e-07,0.0,1.2567100027283118e-08,0.0,-1.5077698867216327e-07
9,0.021552,0.118239,0.0394129,1.25767e-17,0.0682651,-8.0004e-19,6.25633e-19,5.12236e-07,1.89735e-08,-2.27663e-07,8.54355e-07,-6.61759e-24,1.1462e-23,0.0,5.122361312892565e-07,8.543553648987512e-07,0.0,1.8973500104380037e-08,0.0,-2.276629741393421e-07
10,0.03247,0.178137,0.059379,-1.30104e-18,0.102847,-4.23358e-20,-1.58e-19,7.71729e-07,2.8587e-08,-3.42996e-07,1.28716e-06,1.86326e-30,1.07575e-30,0.0,7.717292977993395e-07,1.2871608283671065e-06,0.0,2.858700032248862e-08,0.0,-3.429959412049044e-07
11,0.048847,0.267985,0.0893282,-4.29344e-17,0.154721,2.05368e-18,4.41588e-19,1.16097e-06,4.30043e-08,-5.15992e-07,1.93637e-06,4.58471e-23,2.64698e-23,0.0,1.1609706738191505e-06,1.9363718748444114e-06,0.0,4.300430100911967e-08,0.0,-5.159918669006558e-07
12,0.073412,0.402756,0.134252,-1.51788e-17,0.232531,2.58243e-18,-4.74234e-19,1.74483e-06,6.46307e-08,-7.75487e-07,2.91018e-06,4.93934e-23,-3.26124e-23,0.0,1.744831522154655e-06,2.910184234483637e-06,0.0,6.463070212348043e-08,0.0,-7.754866993003873e-07
13,0.1103,0.604912,0.201637,-1.51788e-17,0.349246,1.27953e-18,-2.44755e-18,2.62061e-06,9.70596e-08,-1.16471e-06,4.37091e-06,6.3275e-30,3.65319e-30,0.0,2.62061343381248e-06,4.370919552521002e-06,0.0,9.705960479777787e-08,0.0,-1.1647093217659332e-06
14,0.1655,0.908146,0.302715,4.03323e-17,0.524319,-4.21537e-18,-5.62004e-18,3.93429e-06,1.45719e-07,-1.74858e-06,6.56199e-06,-9.87872e-23,6.52263e-23,0.0,3.934297739371928e-06,6.562011529931411e-06,0.0,1.4571901063575865e-07,0.0,-1.748578471238993e-06
15,0.2484,1.363,0.454332,-2.09468e-16,0.786926,1.22694e-17,3.89742e-18,5.90479e-06,2.18705e-07,-2.62436e-06,9.8486e-06,7.75059e-23,2.8927e-22,0.0,5.904807433232406e-06,9.848648497623458e-06,0.0,2.1870502386889257e-07,0.0,-2.624356556402141e-06
16,0.3728,2.04527,0.681756,2.34621e-16,1.18084,-2.38375e-18,-4.56255e-18,8.86055e-06,3.28182e-07,-3.93804e-06,1.47785e-05,-2.4013e-22,8.39438e-22,0.0,8.860589254755524e-06,1.4778609202625859e-05,0.0,3.281820537548441e-07,0.0,-3.938032245964784e-06
17,0.5593,3.06867,1.02289,4.56666e-16,1.7717,1.53658e-17,1.54539e-17,1.32942e-05,4.92389e-07,-5.90853e-06,2.21733e-05,1.55012e-22,5.78537e-22,0.0,1.3294288368159712e-05,2.2173545829451413e-05,0.0,4.923891212538223e-07,0.0,-5.908512544672284e-06
18,0.8392,4.60377,1.53459,2.34621e-16,2.65799,5.31314e-17,1.77204e-17,1.99445e-05,7.38697e-07,-8.86424e-06,3.32654e-05,1.58058e-21,-1.04362e-21,0.0,1.9944698892881974e-05,3.326595329955495e-05,0.0,7.38697272906208e-07,0.0,-8.864200712777048e-06
19,1.259,6.90638,2.30213,-1.31969e-15,3.9874,2.38248e-17,8.00221e-19,2.99199e-05,1.10814e-06,-1.32977e-05,4.99034e-05,-1.31371e-26,-7.5847e-27,0.0,2.992034760462836e-05,4.990464519538662e-05,0.0,1.1081406139368255e-06,0.0,-1.3297611585971758e-05
20,1.888,10.3602,3.45341,-4.65036e-15,5.98148,-2.24011e-17,1.31867e-17,4.48827e-05,1.66234e-06,-1.99479e-05,7.48599e-05,-3.16123e-21,2.08725e-21,0.0,4.4883707243537074e-05,7.486270207235357e-05,0.0,1.6623413816585497e-06,0.0,-1.994770104196686e-05
21,2.833,15.5409,5.18029,-2.86312e-14,8.97252,5.76643e-17,-5.78126e-17,6.73263e-05,2.49357e-06,-2.99228e-05,0.000112294,-7.33604e-22,-4.23546e-22,0.0,6.732856646629592e-05,0.00011230030520725798,0.0,2.4935731088859825e-06,0.0,-2.9922352317468537e-05
22,4.249,93.5787,31.1929,-1.03265e-09,54.0277,3.28372e-16,-5.26719e-16,0.000405403,1.5015e-05,-0.000180179,0.000676171,6.77731e-21,-1.17391e-20,0.0,0.00040548518690219915,0.0006763996551444329,0.0,1.5015112725613733e-05,0.0,-0.00018016276873877857
23,6.374,211.097,70.3658,-9.04826e-07,121.877,5.76346e-17,-5.78297e-17,0.000914519,3.38711e-05,-0.000406453,0.00152533,-4.01543e-25,-2.31831e-25,0.0,0.0009149373000056915,0.0015264939075101402,0.0,3.3871673632113186e-05,0.0,-0.00040637040916957634
24,9.214,362.789,121.0,0.000476727,209.518,-0.00842196,-0.00486085,0.00159354,5.50543e-05,-0.000717094,0.00266306,-1.07311e-07,-6.19861e-08,3.38708e-05,0.0015948103595657681,0.002666609094065908,-1.0731099420180357e-07,5.5055815515903106e-05,-6.198609803220734e-08,-0.000716836949544386
25,12.05,380.419,127.296,8.60024e-05,220.059,-0.137512,-0.0792938,0.00225617,-3.2829e-05,-0.00124577,0.00388983,-2.48942e-06,-1.45628e-06,0.000940054,0.0022587170667127676,0.0038974052076197196,-2.4894169013967016e-06,-3.282846113428217e-05,-1.4562789396599385e-06,-0.001244994350680595
26,14.89,394.9,132.471,7.90258e-05,228.721,-0.243296,-0.140228,0.00291748,-0.000122974,-0.0017791,0.00511784,-5.14648e-06,-3.0234e-06,0.00186611,0.0029217399865764104,0.005130958513068551,-5.146466756866808e-06,-0.00012296643900755466,-3.0233954295688648e-06,-0.0017775183397112926
27,17.73,407.23,136.868,3.06479e-05,236.089,-0.330002,-0.190135,0.00357767,-0.000214615,-0.00231543,0.00634633,-8.00898e-06,-4.72023e-06,0.00280548,0.0035840775003430636,0.00636651062060678,-8.008947928184185e-06,-0.00021459197184825474,-4.720218859777248e-06,-0.002312751459680462
28,20.57,417.992,140.7,1.08609e-05,242.513,-0.402659,-0.231929,0.00423682,-0.000307277,-0.00285382,0.0075749,-1.10513e-05,-6.52969e-06,0.00375428,0.004245808010901353,0.0076036621325650255,-1.1051238934634e-05,-0.0003072297952577685,-6.529668681642953e-06,-0.002849751726663907
29,23.41,427.557,144.099,1.12022e-06,248.219,-0.464638,-0.267562,0.00489498,-0.000400665,-0.00339363,0.00880326,-1.42498e-05,-8.43655e-06,0.00471003,0.004906979986508686,0.008842122648939243,-1.4249698472079686e-05,-0.0004005847444978894,-8.436514412402119e-06,-0.0033878781461058605
30,26.25,436.18,147.159,-4.99618e-06,253.357,-0.518267,-0.29838,0.00555221,-0.000494584,-0.00393445,0.0100312,-1.75839e-05,-1.04276e-05,0.00567104,0.005567652083944941,0.010081681140997834,-1.7583745404170514e-05,-0.0004944617134946538,-1.0427545632740731e-05,-0.003926720192435451
31,29.09,444.037,149.943,-9.77643e-06,258.036,-0.565215,-0.325349,0.00620855,-0.000588901,-0.00447598,0.0112587,-2.10356e-05,-1.24914e-05,0.00663613,0.00622786299442768,0.011322317689502093,-2.1035378753309075e-05,-0.0005887276318399248,-1.2491321982777137e-05,-0.004465977730404025
32,31.93,451.263,152.499,-1.41282e-05,262.336,-0.606708,-0.349176,0.00686403,-0.000683518,-0.00501801,0.0124855,-2.45895e-05,-1.46183e-05,0.00760441,0.006887641446229997,0.01256376925953373,-2.4589197680668917e-05,-0.0006832844547857153,-1.4618193153181913e-05,-0.00500544082069776
33,34.77,457.957,154.863,-1.84343e-05,266.316,-0.643673,-0.370398,0.00751867,-0.000778366,-0.00556036,0.0137115,-2.82322e-05,-1.68e-05,0.00857522,0.00754700617154036,0.01380593373187855,-2.8231801475153695e-05,-0.0007780631517656511,-1.679985888081159e-05,-0.005544929810717747
34,37.61,464.196,157.064,-2.28597e-05,270.023,-0.676826,-0.389426,0.0081725,-0.00087339,-0.00610292,0.0149368,-3.19524e-05,-1.90295e-05,0.00954805,0.008205986037512769,0.015048911497295148,-3.195188952753725e-05,-0.0008730087059680702,-1.9029318940266826e-05,-0.006084335010524966
35,40.45,470.043,159.124,-2.74726e-05,273.494,-0.706727,-0.406584,0.00882554,-0.00096855,-0.00664557,0.0161613,-3.57402e-05,-2.13006e-05,0.0105225,0.00886459990182753,0.01629260018242218,-3.573956132663092e-05,-0.0009680811068430994,-2.1300373143851026e-05,-0.006623537033910942
36,43.29,475.546,161.061,-3.22965e-05,276.76,-0.733825,-0.422132,0.0094778,-0.00106381,-0.00718825,0.0173848,-3.9587e-05,-2.36079e-05,0.0114982,0.009522856579672334,0.017536795159814433,-3.958621644506444e-05,-0.0010632443547393677,-2.360762133568617e-05,-0.007162476323819944
37,46.13,480.747,162.889,-3.73333e-05,279.844,-0.758483,-0.436277,0.0101293,-0.00115915,-0.00773087,0.0186075,-4.34852e-05,-2.59469e-05,0.0124749,0.01018077501439274,0.018781698315706974,-4.34842545323777e-05,-0.0011584784451412755,-2.5946563382062138e-05,-0.007701063683565601
38,48.97,485.679,164.62,-4.25749e-05,282.767,-0.780998,-0.449191,0.01078,-0.00125455,-0.00827339,0.0198291,-4.74282e-05,-2.83135e-05,0.0134524,0.010838313551656986,0.020027002515309977,-4.7427075300698895e-05,-0.001253763381133921,-2.83130991766134e-05,-0.008239259698244461
39,51.81,490.37,166.265,-4.80083e-05,285.546,-0.801616,-0.461017,0.0114301,-0.00134998,-0.00881577,0.0210499,-5.14101e-05,-3.0704e-05,0.0144305,0.011495673190896172,0.021273011889353155,-5.1408778523498455e-05,-0.0013490691869058047,-3.070352863698833e-05,-0.00877702503880362
40,54.65,494.845,167.832,-5.3619e-05,288.195,-0.820544,-0.471872,0.0120793,-0.00144544,-0.00935796,0.0222696,-5.54258e-05,-3.31152e-05,0.0154091,0.012152549380872069,0.022519418548535786,-5.5424264018721914e-05,-0.0014443958547467606,-3.3114651697863096e-05,-0.009314310555018523
41,57.49,499.123,169.329,-5.93915e-05,290.726,-0.837956,-0.481858,0.0127279,-0.00154092,-0.00989993,0.0234883,-5.94706e-05,-3.55445e-05,0.0163879,0.01280924446759557,0.02376632261058287,-5.9468831658859855e-05,-0.0015397333923441447,-3.554386830173506e-05,-0.009851087006621295
42,60.33,503.223,170.762,-6.5311e-05,293.151,-0.854001,-0.491059,0.0133758,-0.00163639,-0.0104416,0.024706,-6.35403e-05,-3.7989e-05,0.017367,0.013465656198704545,0.025013722186721266,-6.353828135785555e-05,-0.0016350518438984496,-3.7988278427047995e-05,-0.010387275736537638
43,63.17,507.16,172.137,-7.13629e-05,295.478,-0.868806,-0.499549,0.0140229,-0.00173186,-0.0109831,0.0259226,-6.76311e-05,-4.04467e-05,0.0183461,0.014121682059105911,0.026261512758232186,-6.76288130686542e-05,-0.0017303611958346954,-4.044588204321631e-05,-0.010923005964676435
44,66.01,510.947,173.458,-7.75337e-05,297.714,-0.882481,-0.507391,0.0146693,-0.00182732,-0.0115243,0.0271382,-7.17397e-05,-4.29153e-05,0.0193253,0.01477742222677847,0.027509794805255394,-7.173712676922239e-05,-0.0018256514672778668,-4.291437915171503e-05,-0.011458149610915846
45,68.85,514.596,174.729,-8.38103e-05,299.869,-0.895121,-0.51464,0.0153151,-0.00192276,-0.0120651,0.0283528,-7.5863e-05,-4.53931e-05,0.0203043,0.015432977141951021,0.028758566427510956,-7.586012247540186e-05,-0.001920912681164455,-4.5392069748850794e-05,-0.011992608512893299
46,71.69,518.118,175.955,-9.01807e-05,301.947,-0.906811,-0.521345,0.0159602,-0.00201818,-0.0126056,0.0295662,-7.99982e-05,-4.78783e-05,0.0212833,0.016088244289199194,0.030007619719393697,-7.999500022926043e-05,-0.0020161448440777496,-4.7877153852460275e-05,-0.012526482215626689
47,74.53,521.521,177.138,-9.66335e-05,303.954,-0.917622,-0.527546,0.0166046,-0.00211357,-0.0131458,0.0307786,-8.41426e-05,-5.03693e-05,0.022262,0.01674322256515448,0.03125715827475406,-8.41390601107328e-05,-0.0021113379837119917,-5.036803148805724e-05,-0.013059771355568683
48,77.37,524.813,178.282,-0.000103158,305.895,-0.927621,-0.533281,0.0172483,-0.00220893,-0.0136856,0.0319899,-8.8294e-05,-5.28647e-05,0.0232405,0.01739791086634357,0.032507076930978096,-8.829010219946198e-05,-0.002206492109500968,-5.286330268639006e-05,-0.013592377927544308
49,80.21,528.003,179.389,-0.000109744,307.774,-0.936865,-0.538584,0.0178913,-0.00230425,-0.0142251,0.0332001,-9.24501e-05,-5.53632e-05,0.0242187,0.018052308089191227,0.033757373397274915,-9.244582662115697e-05,-0.0023015972538900087,-5.536166748631999e-05,-0.014124401313439838
50,83.05,531.098,180.461,-0.000116382,309.596,-0.945403,-0.543483,0.0185337,-0.00239953,-0.0147641,0.0344092,-9.66089e-05,-5.78636e-05,0.0251965,0.018706515000669777,0.0350080453788304,-9.660423351043335e-05,-0.0023966534291556263,-5.786192593415507e-05,-0.014655645078075819
51,85.89,534.102,181.502,-0.000123064,311.364,-0.953283,-0.548005,0.0191755,-0.00249477,-0.0153028,0.0356172,-0.000100769,-6.03647e-05,0.026174,0.019360530693183442,0.03625909057681387,-0.00010076392297486692,-0.0024916606475673397,-6.036287808819374e-05,-0.015186307135414134
52,88.73,537.021,182.512,-0.00012978,313.081,-0.960545,-0.552172,0.0198165,-0.00258997,-0.0158411,0.0368241,-0.000104927,-6.28655e-05,0.027151,0.02001415025604758,0.03751050668838185,-0.00010492149535479278,-0.0025866189213881174,-6.286352400586281e-05,-0.015716289688681218
53,91.57,539.861,183.493,-0.000136524,314.751,-0.967225,-0.556007,0.0204569,-0.00268512,-0.0163791,0.0380299,-0.000109084,-6.53649e-05,0.0281276,0.020667576522630737,0.038762291406683635,-0.00010907805055682118,-0.002681518289688656,-6.536276376145622e-05,-0.016245691902863735
54,94.41,542.626,184.448,-0.000143286,316.376,-0.973356,-0.559528,0.0210967,-0.00278023,-0.0169166,0.0392346,-0.000113236,-6.78622e-05,0.0291038,0.02132080858474339,0.04001444242086705,-0.00011322958904613767,-0.002776368739799584,-6.785989741298071e-05,-0.016774317762539348
55,97.25,545.32,185.377,-0.00015006,317.958,-0.97897,-0.562752,0.0217358,-0.00287529,-0.0174536,0.0404382,-0.000117383,-7.03564e-05,0.0300794,0.02197374333658564,0.041266957416083994,-0.00011737611088513678,-0.002871160312672316,-7.035392504650684e-05,-0.01730216821337005
56,100.1,547.946,186.283,-0.00015684,319.5,-0.984092,-0.565695,0.0223743,-0.0029703,-0.0179903,0.0416406,-0.000121524,-7.28468e-05,0.0310545,0.022626481936328213,0.04251972982151653,-0.00012151661625781074,-0.002965893023382349,-7.284414673625061e-05,-0.017829440633479576
57,102.9,550.509,187.165,-0.000163618,321.004,-0.988748,-0.568371,0.0230122,-0.00306526,-0.0185266,0.042842,-0.000125656,-7.53325e-05,0.0320291,0.02327902347515165,0.04377296569297284,-0.00012564810561543904,-0.0030605668869947422,-7.532966257850493e-05,-0.018356037484900445
58,105.8,553.012,188.026,-0.000170389,322.472,-0.992961,-0.570793,0.0236494,-0.00316016,-0.0190624,0.0440422,-0.000129779,-7.7813e-05,0.0330031,0.023931264650879802,0.04502645407430639,-0.00012977057906982115,-0.0031551719501157205,-7.780997264705825e-05,-0.018881861439199232
59,108.6,555.458,188.866,-0.000177146,323.905,-0.99675,-0.572973,0.0242859,-0.00325501,-0.0195978,0.0452413,-0.000133892,-8.02874e-05,0.0339765,0.024583204358632038,0.046280296886609396,-0.00013388303686612257,-0.003249718198129581,-8.028417705296942e-05,-0.01940701149536994
60,111.5,557.848,189.686,-0.000183883,325.306,-1.00013,-0.574921,0.0249219,-0.00334981,-0.0201327,0.0464393,-0.000137994,-8.27552e-05,0.0349493,0.025235046540445616,0.04753449179502778,-0.00013798447926582913,-0.003344205646068632,-8.27517758829055e-05,-0.019931390427272877
61,114.3,560.187,190.488,-0.000190594,326.675,-1.00313,-0.576648,0.0255572,-0.00344455,-0.0206673,0.0476361,-0.000142084,-8.52158e-05,0.0359216,0.025886585304887744,0.048788931581845496,-0.00014207390654641383,-0.003438624343341523,-8.521216923684793e-05,-0.02045519508049165
62,117.1,562.476,191.272,-0.000197265,328.015,-1.00576,-0.578163,0.0261919,-0.00353924,-0.0212013,0.0488319,-0.00014616,-8.76685e-05,0.0368931,0.026537922200478903,0.050043823536595866,-0.00014614931914747054,-0.0035329842724610705,-8.766465722931382e-05,-0.02097813236963575
63,120.0,564.717,192.039,-0.000203612,329.326,-1.00803,-0.57948,0.0268259,-0.00363388,-0.021735,0.0500265,-0.000150223,-9.0113e-05,0.0378641,0.02718895359829987,0.051298955429208926,-0.0001502117170900652,-0.0036272854484274974,-9.010893994554348e-05,-0.021500496935006774
64,122.8,566.914,192.791,0.000182969,330.61,-1.01006,-0.580989,0.0274594,-0.00372845,-0.0222682,0.0512199,-0.000154275,-9.25512e-05,0.0388344,0.027839883960827372,0.0525543245323703,-0.0001542631002240391,-0.0037215079606611745,-9.254691726978681e-05,-0.02202209379995923
65,125.7,569.065,193.527,-0.00021765,331.869,-1.0125,-0.582054,0.0280922,-0.00382296,-0.0228009,0.0524123,-0.000158324,-9.49774e-05,0.039804,0.0284905068747765,0.05381013887665986,-0.00015831146741684954,-0.003815661791634173,-9.497288978954632e-05,-0.022542923895179867
66,128.5,571.174,194.249,-0.000224626,333.103,-1.01476,-0.583364,0.0287244,-0.0039174,-0.0233332,0.0536036,-0.000162363,-9.74015e-05,0.040773,0.029140924148460146,0.05506629097353932,-0.00016234981984142305,-0.003909736998233493,-9.739675662789882e-05,-0.023063085843405995
67,131.3,573.242,194.958,-0.0002317,334.314,-1.01705,-0.584686,0.029356,-0.00401178,-0.0238651,0.0547937,-0.000166393,-9.98208e-05,0.0417413,0.029791134871083313,0.05632267282816117,-0.00016637915745243426,-0.004003743561016071,-9.981581806972617e-05,-0.023582580416216192
68,134.2,575.271,195.653,-0.000238807,335.502,-1.01936,-0.58602,0.0299869,-0.00410608,-0.0243965,0.0559827,-0.000170416,-0.000102235,0.0427088,0.030441035087539703,0.05757938745494595,-0.00017040148001823407,-0.004097661579694156,-0.0001022297741803957,-0.024101310794114816
69,137.0,577.262,196.337,-0.00024596,336.668,-1.0217,-0.587367,0.0306173,-0.00420032,-0.0249274,0.0571706,-0.000174431,-0.000104646,0.0436757,0.03109082990986778,0.058836432483379664,-0.00017441578779753275,-0.004191510993812986,-0.0001046405247983051,-0.024619277901679615
70,139.9,579.217,197.008,-0.000253161,337.814,-1.02405,-0.588727,0.031247,-0.00429448,-0.0254579,0.0583574,-0.00017844,-0.000107052,0.0446419,0.03174031227352314,0.060093805539038536,-0.00017842408053003744,-0.004285271906804722,-0.00010704627013913282,-0.02513658014819975
71,142.7,581.138,197.668,-0.00026041,338.939,-1.02643,-0.590098,0.0318761,-0.00438857,-0.025988,0.0595431,-0.000182442,-0.000109454,0.0456074,0.03238958431108041,0.06135150424359481,-0.00018242535847035057,-0.0043789542982138885,-0.00010944801012946481,-0.025653218300022873
72,145.5,583.024,198.316,-0.000267708,340.046,-1.02882,-0.591482,0.0325045,-0.00448259,-0.0265175,0.0607277,-0.000186437,-0.000111852,0.0465721,0.033038541806951205,0.06260952621482274,-0.000186419621702405,-0.004472558188542752,-0.00011184574479827791,-0.026168998356112416
73,148.4,584.879,198.954,-0.000275057,341.133,-1.03124,-0.592878,0.0331324,-0.00457652,-0.0270466,0.0619112,-0.000190427,-0.000114247,0.0475361,0.03368739039204738,0.06386786906660324,-0.0001904088699296036,-0.004566063689597555,-0.00011424047405994564,-0.026684116052678508
74,151.2,586.702,199.582,-0.000282456,342.203,-1.03368,-0.594286,0.0337596,-0.00467039,-0.0275753,0.0630936,-0.000194411,-0.000116638,0.0484994,0.034335922481704584,0.0651265304089319,-0.0001943921034061047,-0.004659500687665075,-0.00011663119805294109,-0.027198572152068
75,154.1,588.495,200.199,-0.000289907,343.255,-1.03614,-0.595706,0.0343863,-0.00476417,-0.0281035,0.0642749,-0.00019839,-0.000119026,0.049462,0.034984343965973386,0.06638550784792274,-0.00019837032200520355,-0.004752839342972548,-0.00011901891668664177,-0.027712270186663113
76,156.9,590.259,200.807,-0.000297411,344.291,-1.03862,-0.597137,0.0350123,-0.00485788,-0.0286312,0.0654551,-0.000202363,-0.000121411,0.0504238,0.035632447000381484,0.06764479898581621,-0.00020234252598916314,-0.004846099584620789,-0.00012140362998280807,-0.02822521107033016
77,159.7,591.995,201.405,-0.000304969,345.31,-1.04112,-0.59858,0.0356377,-0.00495151,-0.0291585,0.0666342,-0.000206331,-0.000123793,0.0513848,0.036280334105916134,0.06890440142098297,-0.00020630971522306307,-0.004939271482406138,-0.00012378533796275626,-0.02873749284157423
78,162.6,593.704,201.995,-0.000312581,346.313,-1.04364,-0.600035,0.0362625,-0.00504506,-0.0296853,0.0678122,-0.000210295,-0.000126172,0.0523452,0.036928004369786604,0.07016431274793189,-0.00021027288955632883,-0.005032355059506943,-0.00012616404064791364,-0.02924901918247713
79,165.4,595.386,202.576,-0.000320248,347.302,-1.04618,-0.601501,0.0368866,-0.00513853,-0.0302117,0.0689891,-0.000214254,-0.000128548,0.0533047,0.03757535312147953,0.07142453055731512,-0.0002142310492507793,-0.005125350339077239,-0.00012853973805981855,-0.029759888026303027
80,168.3,597.043,203.148,-0.000327971,348.276,-1.04874,-0.602979,0.0375102,-0.00523191,-0.0307376,0.0701649,-0.00021821,-0.000130922,0.0542635,0.038222586898203126,0.07268505243593348,-0.00021818619392943717,-0.005218247396431508,-0.0001309134300888637,-0.030270003154660108
81,171.1,598.675,203.712,-0.000335751,349.235,-1.05131,-0.604468,0.0381332,-0.00532522,-0.031263,0.0713396,-0.000222161,-0.000133293,0.0552216,0.03886960109383586,0.07394587596674462,-0.00022213632407230843,-0.005311066151240662,-0.000133284116882737,-0.030779365473804332
82,173.9,600.283,204.268,-0.000343588,350.181,-1.05391,-0.605968,0.0387555,-0.00541844,-0.031788,0.0725133,-0.000226108,-0.000135662,0.0561788,0.03951629084324226,0.07520710624957205,-0.0002260824395126093,-0.005403786731880689,-0.0001356527983269462,-0.03128807275958356
83,176.8,601.868,204.817,-0.000351485,351.113,-1.05653,-0.60748,0.0393773,-0.00551158,-0.0323125,0.0736858,-0.000230052,-0.000138029,0.0571353,0.04016286307136219,0.07646852594443354,-0.00023002554006767983,-0.0054964191092274906,-0.0001380194744358132,-0.03179602894226741
84,179.6,603.43,205.358,-0.00035944,352.033,-1.05917,-0.609003,0.0399984,-0.00560463,-0.0328365,0.0748573,-0.000233993,-0.000140394,0.0580911,0.040809108896481705,0.0777303477904121,-0.00023396562577304714,-0.00558895336220655,-0.0001403841452235488,-0.032303234923529156
85,182.5,604.971,205.891,-0.000367455,352.939,-1.06183,-0.610537,0.0406189,-0.0056976,-0.0333601,0.0760277,-0.000237931,-0.000142758,0.059046,0.04145513135629253,0.07899246183453057,-0.00023790269666434938,-0.005681399459789072,-0.00014274781056156094,-0.03280978832247017
86,185.3,606.49,206.418,-0.000375532,353.834,-1.06451,-0.612082,0.0412389,-0.00579049,-0.0338832,0.077197,-0.000241865,-0.000145119,0.0600002,0.0421010337467842,0.0802548656407025,-0.00024183575301883753,-0.005773757424961223,-0.00014510847074722388,-0.03331559321739486
87,188.1,607.989,206.938,-0.00038367,354.716,-1.0672,-0.613638,0.0418582,-0.00588329,-0.0344058,0.0783652,-0.000245797,-0.000147479,0.0609536,0.04274660679804554,0.08151755676903338,-0.00024576679439214377,-0.005866017339345775,-0.0001474681255068111,-0.03382065050541527
88,191.0,609.467,207.451,-0.00039187,355.587,-1.06992,-0.615205,0.0424769,-0.005976,-0.034928,0.0795323,-0.000249727,-0.000149837,0.0619062,0.04339195374116245,0.08278053277582642,-0.0002496958208081379,-0.005958179228647942,-0.0001498257749973364,-0.034325057649553736
89,193.8,610.926,207.958,-0.000400134,356.447,-1.07265,-0.616783,0.0430951,-0.00606863,-0.0354497,0.0806984,-0.000253654,-0.000152194,0.0628581,0.04403717806525487,0.08404389961797465,-0.00025362183254395987,-0.006050253058040744,-0.00015218241908065977,-0.03482871887552352
90,196.7,612.366,208.458,-0.000408461,357.296,-1.0754,-0.618371,0.0437126,-0.00616117,-0.035971,0.0818634,-0.000257579,-0.000154549,0.0638091,0.04468207011263803,0.08530754669252905,-0.00025754582937742576,-0.006142228911834358,-0.00015453705791845795,-0.03533173154273073
91,199.5,613.787,208.952,-0.000416853,358.134,-1.07818,-0.619971,0.0443295,-0.00625363,-0.0364918,0.0830273,-0.000261502,-0.000156903,0.0647594,0.04532673330760817,0.08657147154450939,-0.00026146781133218333,-0.0062341167533087605,-0.00015689069136803901,-0.035833999974890896
92,202.3,615.19,209.441,-0.000425311,358.962,-1.08097,-0.621581,0.0449459,-0.006346,-0.0370121,0.0841902,-0.000265423,-0.000159257,0.0657089,0.04597127133223067,0.08783578049872909,-0.0002653877784317693,-0.006325906668561809,-0.00015924431927705207,-0.03633552506163862
93,205.2,616.576,209.923,-0.000433835,359.78,-1.08377,-0.623202,0.0455616,-0.00643828,-0.0375319,0.085352,-0.000269343,-0.000161609,0.0666576,0.046615474141473934,0.08910036256199083,-0.00026930673043057407,-0.006417598683159942,-0.00016159594196896165,-0.036836307691030634
94,208.0,617.945,210.4,-0.000442427,360.587,-1.0866,-0.624833,0.0461767,-0.00653047,-0.0380513,0.0865127,-0.000273261,-0.00016396,0.0676055,0.04725944535266069,0.09036521526808117,-0.00027322366761350914,-0.006509192822640397,-0.00016394655929374835,-0.037336445015908715
95,210.9,619.297,210.871,-0.000451086,361.386,-1.08945,-0.626475,0.0467913,-0.00662257,-0.0385703,0.0876724,-0.000277177,-0.00016631,0.0685526,0.04790328884061168,0.09163044531006626,-0.00027713859000422225,-0.006600689112512659,-0.0001662961712585176,-0.037835937771363515
96,213.7,620.632,211.337,-0.000459813,362.174,-1.09231,-0.628128,0.0474052,-0.00671459,-0.0390887,0.088831,-0.000281093,-0.00016866,0.069499,0.04854679417338281,0.09289594130427004,-0.00028105349706408767,-0.006692097511335704,-0.00016864577770170364,-0.03833459435826814
97,216.5,621.952,211.797,-0.00046861,362.954,-1.09519,-0.629791,0.0480186,-0.00680652,-0.0396068,0.0899885,-0.000285007,-0.000171009,0.0704445,0.049190170080146256,0.09416170077329977,-0.00028496638936315044,-0.006783408109655498,-0.00017099437879430912,-0.03883270415844542
98,219.4,623.257,212.253,-0.000477478,363.725,-1.09809,-0.631464,0.0486314,-0.00689836,-0.0401243,0.091145,-0.000288921,-0.000173357,0.0713893,0.04983331085457832,0.0954278307787999,-0.0002888792663472417,-0.0068746209328977015,-0.00017334197454343947,-0.039329979552937044
99,222.2,624.546,212.703,-0.000486416,364.487,-1.10101,-0.633148,0.0492436,-0.00699011,-0.0406414,0.0923005,-0.000292833,-0.000175705,0.0723332,0.05047621558054072,0.09669432921582,-0.0002927901286018386,-0.006965736006459111,-0.00017568956478042352,-0.03982661360470985
100,225.1,625.82,213.149,-0.000495426,365.241,-1.10395,-0.634843,0.0498552,-0.00708177,-0.041158,0.0934548,-0.000296746,-0.000178053,0.0732764,0.051118883341758625,0.09796097438365159,-0.0002967019752605493,-0.007056753355708101,-0.00017803714950526128,-0.04032251107477658
101,227.9,627.081,213.589,-0.000504508,365.986,-1.1069,-0.636547,0.0504662,-0.00717334,-0.0416742,0.0946082,-0.000300657,-0.0001804,0.0742187,0.051761313221822425,0.09922809317844039,-0.00030061180721352443,-0.0071476730059835125,-0.00018038372889839227,-0.040817768757554496
102,230.7,628.326,214.026,-0.000513663,366.723,-1.10988,-0.638262,0.0510766,-0.00726483,-0.0421899,0.0957604,-0.000304569,-0.000182747,0.0751603,0.05240350430419194,0.10049535371599871,-0.0003045226235705023,-0.007238504910211385,-0.0001827303027840399,-0.04131229151055471
103,233.6,629.559,214.457,-0.000522893,367.452,-1.11287,-0.639987,0.0516864,-0.00735622,-0.0427051,0.0969117,-0.00030848,-0.000185094,0.0761011,0.05304545567219621,0.10176308364543551,-0.0003084324249369441,-0.007329229237536206,-0.0001850768711623152,-0.04180608020707799
104,236.4,630.778,214.884,-0.000532197,368.174,-1.11587,-0.641722,0.0522957,-0.00744752,-0.0432199,0.0980619,-0.000312391,-0.000187441,0.0770411,0.053687271777757894,0.10303106061801137,-0.0003123422110121732,-0.0074198559417349985,-0.00018742343403321815,-0.0422992314889562
105,239.3,631.983,215.307,-0.000541577,368.888,-1.1189,-0.643468,0.0529043,-0.00753873,-0.0437342,0.099211,-0.000316302,-0.000189788,0.0779802,0.05432874103065566,0.10429928212688533,-0.0003162519817961895,-0.00751038504803192,-0.00018976999139674877,-0.0427916503578355
106,242.1,633.176,215.725,-0.000551033,369.594,-1.12194,-0.645223,0.0535124,-0.00762986,-0.0442481,0.100359,-0.000320213,-0.000192134,0.0789186,0.05497007331539461,0.10556774566152627,-0.00032016173728921515,-0.007600826505614777,-0.00019211554344500392,-0.043283433354252554
107,244.9,634.356,216.139,-0.000560566,370.294,-1.125,-0.646989,0.0541199,-0.00772089,-0.0447615,0.101506,-0.000324125,-0.000194481,0.0798562,0.05561116234601027,0.10683655939136916,-0.0003240724771670367,-0.007691160490764348,-0.00019446208979612134,-0.04377448557567731
108,247.8,635.524,216.55,-0.000570176,370.986,-1.12808,-0.648765,0.0547269,-0.00781183,-0.0452744,0.102652,-0.000328036,-0.000196829,0.080793,0.05625211283034659,0.10810572117923534,-0.00032798220207419515,-0.007781396953515096,-0.00019680963044310662,-0.044264807888119484
109,250.6,636.68,216.956,-0.000579866,371.671,-1.13118,-0.65055,0.0553332,-0.00790268,-0.0457869,0.103797,-0.000331949,-0.000199176,0.081729,0.05689271266457174,0.10937522888445028,-0.000331893911026504,-0.007871535918977268,-0.00019915616577725892,-0.04475449668060549
110,253.5,637.824,217.358,-0.000589634,372.349,-1.13429,-0.652346,0.055939,-0.00799345,-0.0462989,0.104941,-0.000335862,-0.000201524,0.0826642,0.0575331722455239,0.11064508036284804,-0.0003358056046725011,-0.00796158733261687,-0.00020150369540261615,-0.04524345719373213
111,256.3,638.956,217.756,-0.000599483,373.021,-1.13742,-0.654152,0.0565442,-0.00808412,-0.0468105,0.106084,-0.000339775,-0.000203872,0.0835986,0.05817338503021463,0.11191527346677477,-0.00033971728301196435,-0.008051531377818333,-0.0002038512195159381,-0.04573178571594483
112,259.1,640.077,218.151,-0.000609413,373.686,-1.14057,-0.655968,0.0571488,-0.0081747,-0.0473216,0.107226,-0.00034369,-0.000206221,0.0845322,0.058813350100750394,0.11318580604509432,-0.00034363094535783123,-0.008141378000891208,-0.0002061997379111391,-0.04621938758299371
113,262.0,641.187,218.542,-0.000619424,374.345,-1.14374,-0.657793,0.0577528,-0.00826519,-0.0478323,0.108367,-0.000347605,-0.00020857,0.085465,0.0594530665391273,0.11445667594319153,-0.00034754459238151014,-0.008231127226830948,-0.00020854825078953088,-0.04670635898302411
114,264.8,642.286,218.929,-0.000629518,374.998,-1.14692,-0.659629,0.0583563,-0.00835559,-0.0483425,0.109506,-0.000351522,-0.00021092,0.086397,0.06009263943649379,0.11572676527565662,-0.00035146022338061744,-0.008320779080604801,-0.00021089775794047583,-0.04719260534667602
115,267.7,643.375,219.313,-0.000639694,375.644,-1.15012,-0.661474,0.0589592,-0.00844589,-0.0488522,0.110645,-0.00035544,-0.000213271,0.0873282,0.06073196199322917,0.11699830206404016,-0.00035537683868680503,-0.008410323671254827,-0.00021324825935686853,-0.04767812752989109
116,270.5,644.453,219.693,-0.000649955,376.284,-1.15333,-0.663329,0.0595615,-0.00853611,-0.0493615,0.111783,-0.000359359,-0.000215622,0.0882586,0.061371033290939625,0.1182701696872066,-0.00035929443828841556,-0.008499780856378814,-0.00021559875524723715,-0.04816302157079133
117,273.3,645.521,220.07,-0.000660301,376.919,-1.15657,-0.665194,0.0601632,-0.00862624,-0.0498703,0.11292,-0.000363279,-0.000217974,0.0891883,0.062009852411129884,0.11954236597667678,-0.0003632130221739027,-0.008589140744066248,-0.00021795024539361663,-0.048647193041748804
118,276.2,646.578,220.444,-0.000670732,377.548,-1.15982,-0.667069,0.0607644,-0.00871627,-0.0503787,0.114056,-0.000367201,-0.000220327,0.0901171,0.06264852470005255,0.12081488876051849,-0.0003671335899642081,-0.008678393445954558,-0.00022030272978890153,-0.049130737881293074
119,279.0,647.626,220.814,-0.000681249,378.171,-1.16309,-0.668954,0.061365,-0.00880622,-0.0508867,0.11519,-0.000371124,-0.000222681,0.0910451,0.06328694310184257,0.12208661377617491,-0.00037105514200697076,-0.008767558814191556,-0.0002226562084263195,-0.04961365679466001
120,281.9,648.664,221.181,-0.000691854,378.788,-1.16637,-0.670848,0.061965,-0.00889607,-0.0513941,0.116324,-0.000375049,-0.000225035,0.0919724,0.0639251066976374,0.12335978174599971,-0.00037497867791536077,-0.00885661704803098,-0.00022500968152350254,-0.050095760505147635
121,284.0,649.442,221.457,-0.000703278,379.251,-1.16886,-0.672285,0.062418,-0.0089639,-0.0517773,0.11718,-0.000378013,-0.000226816,0.0926724,0.06440717395096085,0.12432178939970862,-0.00037794156208770247,-0.00892384402366786,-0.00022679027919569883,-0.050459694075596695
