,Time,S11,S22,S33,S12,S13,S23,LE11,LE22,LE33,LE12,LE13,LE23,SDV_EPBAR,E11,E12,E13,E22,E23,E33
0,0.000284,0.0015581,0.000519365,0.0,0.000899567,1.32028e-20,2.67023e-20,6.7501e-09,2.50301e-10,-3.0004e-09,1.1258e-08,6.18106e-26,5.13348e-25,0.0,6.750100034480511e-09,1.1258000087721598e-08,0.0,2.5030089112476617e-10,0.0,-3.0004000395322805e-09
1,0.000568,0.00311619,0.00103873,2.1684e-19,0.00179913,-2.79039e-28,-1.61103e-28,1.35001e-08,5.00425e-10,-6.00057e-09,2.25162e-08,2.06826e-25,-3.58238e-25,0.0,1.3500100148888805e-08,2.2516200237632233e-08,0.0,5.00425034744012e-10,0.0,-6.000569929831556e-09
2,0.000994,0.00545333,0.00181778,2.1684e-19,0.00314848,-6.04799e-21,-2.25714e-20,2.36252e-08,8.75688e-10,-1.05009e-08,3.94034e-08,-4.13622e-25,7.16424e-25,0.0,2.3625200240573463e-08,3.9403400764470575e-08,0.0,8.756879665838824e-10,0.0,-1.0500899927379237e-08
3,0.001633,0.00895905,0.00298635,4.33681e-19,0.00517251,-5.11908e-20,-1.04754e-20,3.88125e-08,1.4375e-09,-1.725e-08,6.47354e-08,3.9316e-32,2.26991e-32,0.0,3.8812500768869995e-08,6.473540214990692e-08,0.0,1.4374998968946784e-09,0.0,-1.7249999872959165e-08
4,0.0025915,0.0142176,0.00473921,-1.30104e-18,0.00820854,3.90948e-20,-3.46674e-20,6.15937e-08,2.28125e-09,-2.7375e-08,1.02732e-07,2.86544e-24,1.65436e-24,0.0,6.159370191660685e-08,1.027320053470504e-07,0.0,2.281250077729169e-09,0.0,-2.7374999600482397e-08
5,0.0040292,0.0221055,0.00736849,-1.30104e-18,0.0127626,-7.53827e-20,-1.00761e-19,9.57656e-08,3.54688e-09,-4.25625e-08,1.59728e-07,2.30786e-31,1.33244e-31,0.0,9.576560455748506e-08,1.597280128162737e-07,0.0,3.5468799008953056e-09,0.0,-4.256249908074494e-08
6,0.0061859,0.0339373,0.0113124,-4.77049e-18,0.0195937,1.20526e-19,8.8665e-20,1.47024e-07,5.44671e-09,-6.53456e-08,2.45219e-07,-6.61761e-24,1.14621e-23,0.0,1.4702401074373483e-07,2.452190299706558e-07,0.0,5.446709971934638e-09,0.0,-6.534559782167548e-08
7,0.0094208,0.0516849,0.0172283,7.37257e-18,0.0298403,1.86619e-19,-2.58125e-20,2.2391e-07,8.29297e-09,-9.95156e-08,3.7346e-07,-6.95067e-31,-4.01297e-31,0.0,2.2391002496569e-07,3.734600697580248e-07,0.0,8.292970088419338e-09,0.0,-9.951559509779884e-08
8,0.014273,0.0783064,0.0261021,-1.30104e-18,0.0452102,1.86619e-19,-2.58125e-20,3.39241e-07,1.25671e-08,-1.50777e-07,5.65816e-07,2.64704e-23,-4.58482e-23,0.0,3.392410574676319e-07,5.658161601473921e-07,0.0,1.2567100027283118e-08,0.0,-1.5077698867216327e-07
9,0.021552,0.118239,0.0394129,1.25767e-17,0.0682651,-8.0004e-19,6.25633e-19,5.12236e-07,1.89735e-08,-2.27663e-07,8.54355e-07,-6.61759e-24,1.1462e-23,0.0,5.122361312892565e-07,8.543553648987512e-07,0.0,1.8973500104380037e-08,0.0,-2.276629741393421e-07
10,0.03247,0.178137,0.059379,-1.30104e-18,0.102847,-4.23358e-20,-1.58e-19,7.71729e-07,2.8587e-08,-3.42996e-07,1.28716e-06,1.86326e-30,1.07575e-30,0.0,7.717292977993395e-07,1.2871608283671065e-06,0.0,2.858700032248862e-08,0.0,-3.429959412049044e-07
11,0.048847,0.267985,0.0893282,-4.29344e-17,0.154721,2.05368e-18,4.41588e-19,1.16097e-06,4.30043e-08,-5.15992e-07,1.93637e-06,4.58471e-23,2.64698e-23,0.0,1.1609706738191505e-06,1.9363718748444114e-06,0.0,4.300430100911967e-08,0.0,-5.159918669006558e-07
12,0.073412,0.402756,0.134252,-1.51788e-17,0.232531,2.58243e-18,-4.74234e-19,1.74483e-06,6.46307e-08,-7.75487e-07,2.91018e-06,4.93934e-23,-3.26124e-23,0.0,1.744831522154655e-06,2.910184234483637e-06,0.0,6.463070212348043e-08,0.0,-7.754866993003873e-07
13,0.1103,0.604912,0.201637,-1.51788e-17,0.349246,1.27953e-18,-2.44755e-18,2.62061e-06,9.70596e-08,-1.16471e-06,4.37091e-06,6.3275e-30,3.65319e-30,0.0,2.62061343381248e-06,4.370919552521002e-06,0.0,9.705960479777787e-08,0.0,-1.1647093217659332e-06
14,0.1655,0.908146,0.302715,4.03323e-17,0.524319,-4.21537e-18,-5.62004e-18,3.93429e-06,1.45719e-07,-1.74858e-06,6.56199e-06,-9.87872e-23,6.52263e-23,0.0,3.934297739371928e-06,6.562011529931411e-06,0.0,1.4571901063575865e-07,0.0,-1.748578471238993e-06
15,0.2484,1.363,0.454332,-2.09468e-16,0.786926,1.22694e-17,3.89742e-18,5.90479e-06,2.18705e-07,-2.62436e-06,9.8486e-06,7.75059e-23,2.8927e-22,0.0,5.904807433232406e-06,9.848648497623458e-06,0.0,2.1870502386889257e-07,0.0,-2.624356556402141e-06
16,0.3728,2.04527,0.681756,2.34621e-16,1.18084,-2.38375e-18,-4.56255e-18,8.86055e-06,3.28182e-07,-3.93804e-06,1.47785e-05,-2.4013e-22,8.39438e-22,0.0,8.860589254755524e-06,1.4778609202625859e-05,0.0,3.281820537548441e-07,0.0,-3.938032245964784e-06
17,0.5593,3.06867,1.02289,4.56666e-16,1.7717,1.53658e-17,1.54539e-17,1.32942e-05,4.92389e-07,-5.90853e-06,2.21733e-05,1.55012e-22,5.78537e-22,0.0,1.3294288368159712e-05,2.2173545829451413e-05,0.0,4.923891212538223e-07,0.0,-5.908512544672284e-06
18,0.8392,4.60377,1.53459,2.34621e-16,2.65799,5.31314e-17,1.77204e-17,1.99445e-05,7.38697e-07,-8.86424e-06,3.32654e-05,1.58058e-21,-1.04362e-21,0.0,1.9944698892881974e-05,3.326595329955495e-05,0.0,7.38697272906208e-07,0.0,-8.864200712777048e-06
19,1.259,6.90638,2.30213,-1.31969e-15,3.9874,2.38248e-17,8.00221e-19,2.99199e-05,1.10814e-06,-1.32977e-05,4.99034e-05,-1.31371e-26,-7.5847e-27,0.0,2.992034760462836e-05,4.990464519538662e-05,0.0,1.1081406139368255e-06,0.0,-1.3297611585971758e-05
20,1.888,10.3602,3.45341,-4.65036e-15,5.98148,-2.24011e-17,1.31867e-17,4.48827e-05,1.66234e-06,-1.99479e-05,7.48599e-05,-3.16123e-21,2.08725e-21,0.0,4.4883707243537074e-05,7.486270207235357e-05,0.0,1.6623413816585497e-06,0.0,-1.994770104196686e-05
21,2.833,15.5409,5.18029,-2.86312e-14,8.97252,5.76643e-17,-5.78126e-17,6.73263e-05,2.49357e-06,-2.99228e-05,0.000112294,-7.33604e-22,-4.23546e-22,0.0,6.732856646629592e-05,0.00011230030520725798,0.0,2.4935731088859825e-06,0.0,-2.9922352317468537e-05
22,4.249,93.5787,31.1929,-1.03265e-09,54.0277,3.28372e-16,-5.26719e-16,0.000405403,1.5015e-05,-0.000180179,0.000676171,6.77731e-21,-1.17391e-20,0.0,0.00040548518690219915,0.0006763996551444329,0.0,1.5015112725613733e-05,0.0,-0.00018016276873877857
23,6.374,211.097,70.3658,-9.04826e-07,121.877,5.76346e-17,-5.78297e-17,0.000914519,3.38711e-05,-0.000406453,0.00152533,-4.01543e-25,-2.31831e-25,0.0,0.0009149373000056915,0.0015264939075101402,0.0,3.3871673632113186e-05,0.0,-0.00040637040916957634
24,9.214,362.765,120.993,0.000488876,209.504,-0.00845912,-0.00488229,0.00159354,5.50521e-05,-0.000717154,0.00266306,-1.07793e-07,-6.22645e-08,3.40244e-05,0.0015948103595657681,0.002666609094065908,-1.077929941972755e-07,5.505361539470677e-05,-6.226449811297385e-08,-0.0007168969065323161
25,12.05,380.392,127.287,8.78251e-05,220.044,-0.137476,-0.0792735,0.00225631,-3.24068e-05,-0.00124641,0.00388933,-2.48875e-06,-1.45589e-06,0.000940158,0.002258857382942958,0.0038969032590425723,-2.4887469031176224e-06,-3.2406274905305565e-05,-1.4558889401827813e-06,-0.0012456335536795704
26,14.89,394.871,132.461,7.96674e-05,228.704,-0.243231,-0.140191,0.00291778,-0.000122121,-0.00178032,0.00511683,-5.14499e-06,-3.02253e-06,0.00186616,0.0029220408631436268,0.005129943331313225,-5.144976764515086e-06,-0.0001221135435341969,-3.022525432161416e-06,-0.0017787361703959226
27,17.73,407.199,136.858,3.08903e-05,236.071,-0.329913,-0.190084,0.00357812,-0.000213327,-0.00231725,0.00634481,-8.00661e-06,-4.71884e-06,0.00280547,0.0035845291132794443,0.006364980944673082,-8.006577947194948e-06,-0.00021330424741339282,-4.718828866323577e-06,-0.0023145672488205093
28,20.57,417.96,140.689,1.09463e-05,242.494,-0.402551,-0.231867,0.00423742,-0.000305552,-0.00285623,0.00757286,-1.10479e-05,-6.52774e-06,0.00375421,0.004246410558566893,0.00760160662319076,-1.1047838972211288e-05,-0.00030550532374185035,-6.527718694360196e-06,-0.002852154855866429
29,23.41,427.524,144.088,1.15064e-06,248.199,-0.464511,-0.267489,0.00489574,-0.000398502,-0.00339664,0.0088007,-1.42455e-05,-8.43398e-06,0.00470989,0.004907743716103807,0.008839540016411185,-1.424539853334128e-05,-0.000398422608624327,-8.43394443406087e-06,-0.003390877944077997
30,26.25,436.145,147.147,-4.98453e-06,253.337,-0.518122,-0.298297,0.00555313,-0.000491982,-0.00393806,0.0100281,-1.75784e-05,-1.04243e-05,0.00567084,0.005568577206610303,0.010078549892639899,-1.7578245500859957e-05,-0.0004918609967003995,-1.0424245667217669e-05,-0.003930316010485213
31,29.09,444.002,149.93,-9.76961e-06,258.015,-0.565051,-0.325255,0.00620963,-0.000585859,-0.00448019,0.0112551,-2.10289e-05,-1.24874e-05,0.00663586,0.006228949721106547,0.011318676935711647,-2.1028678894197128e-05,-0.000585687418125258,-1.2487322032739279e-05,-0.004470168919815443
32,31.93,451.227,152.486,-1.41205e-05,262.314,-0.606525,-0.349072,0.00686526,-0.000680037,-0.00502282,0.0124813,-2.45814e-05,-1.46135e-05,0.00760408,0.006888879918790725,0.012559516500633583,-2.4581097879838865e-05,-0.0006798058272443619,-1.4613393223283921e-05,-0.00501022673301732
33,34.77,457.92,154.85,-1.84234e-05,266.294,-0.64347,-0.370282,0.00752007,-0.000774445,-0.00556578,0.0137068,-2.82227e-05,-1.67943e-05,0.00857482,0.007548416738336616,0.013801168855187562,-2.82223017433747e-05,-0.0007741451948701794,-1.6794158976485285e-05,-0.0055503197425914585
34,37.61,464.159,157.051,-2.28444e-05,270.0,-0.676601,-0.389298,0.00817406,-0.000869031,-0.00610894,0.0149316,-3.19413e-05,-1.90229e-05,0.00954758,0.008207558840077622,0.01504363325667879,-3.194078988211224e-05,-0.0008686535019208907,-1.9022719065731053e-05,-0.006090318364818326
35,40.45,470.005,159.11,-2.74523e-05,273.472,-0.706479,-0.406443,0.00882726,-0.000963751,-0.0066522,0.0161555,-3.57274e-05,-2.1293e-05,0.0105219,0.00886633515043167,0.016286705702435178,-3.572676178409395e-05,-0.0009632867411601964,-2.1292773305647827e-05,-0.006630123098027685
36,43.29,475.507,161.047,-3.22707e-05,276.737,-0.733553,-0.421977,0.00947969,-0.00105858,-0.00719547,0.0173785,-3.95723e-05,-2.35992e-05,0.0114976,0.009524764579674105,0.017530384698197787,-3.9571517026826264e-05,-0.0010580199018455083,-2.359892154102372e-05,-0.007169644584863355
37,46.13,480.708,162.874,-3.73017e-05,279.821,-0.758185,-0.436108,0.0101314,-0.00115348,-0.0077387,0.0186006,-4.34685e-05,-2.59371e-05,0.0124742,0.01018289639624781,0.018774668746240453,-4.346755525841406e-05,-0.0011528149976582913,-2.5936763636380533e-05,-0.007708833353818667
38,48.97,485.639,164.605,-4.25371e-05,282.743,-0.780673,-0.449007,0.0107823,-0.00124843,-0.00828183,0.0198218,-4.74094e-05,-2.83024e-05,0.0134517,0.010840638482451759,0.020019556345370226,-4.7408276192095755e-05,-0.001247651035462094,-2.8301999490887297e-05,-0.008247630123569438
39,51.81,490.33,166.25,-4.79639e-05,285.522,-0.801263,-0.460816,0.0114324,-0.00134343,-0.00882481,0.021042,-5.13892e-05,-3.06916e-05,0.0144297,0.011497999633619749,0.021264943864427677,-5.1387879597686315e-05,-0.0013425280018865005,-3.0691129017657026e-05,-0.008785985653995243
40,54.65,494.804,167.817,-5.35674e-05,288.17,-0.820161,-0.471655,0.0120819,-0.00143846,-0.0093676,0.0222611,-5.54025e-05,-3.31014e-05,0.0154082,0.012155180980921498,0.022510727170416578,-5.540096530987082e-05,-0.0014374259123047795,-3.3100852154688276e-05,-0.009323860719032906
41,57.49,499.083,169.314,-5.93323e-05,290.701,-0.837542,-0.481622,0.0127306,-0.00153349,-0.00991018,0.0234793,-5.94447e-05,-3.55292e-05,0.016387,0.012811979056247313,0.02375710875514181,-5.944293319881666e-05,-0.0015323148050031543,-3.5528568845477615e-05,-0.009861235980965888
42,60.33,503.182,170.747,-6.52434e-05,293.126,-0.853555,-0.490805,0.0133786,-0.00162853,-0.0104525,0.0246965,-6.35117e-05,-3.79721e-05,0.0173659,0.013468493906514611,0.025003984602613993,-6.350968317470063e-05,-0.0016272046645666727,-3.79713790689129e-05,-0.010398062456444479
43,63.17,507.119,172.121,-7.12864e-05,295.452,-0.868326,-0.499276,0.0140259,-0.00172357,-0.0109946,0.0259126,-6.75998e-05,-4.04281e-05,0.018345,0.014124724428715707,0.026251250194417652,-6.75975151850361e-05,-0.001722085506226434,-4.042728279540775e-05,-0.01093438028470528
44,66.01,510.906,173.442,-7.74475e-05,297.689,-0.881966,-0.507098,0.0146726,-0.00181859,-0.0115363,0.0271276,-7.17054e-05,-4.2895e-05,0.0193241,0.014780770997797177,0.027498903259155716,-7.170282922919213e-05,-0.0018169373671780287,-4.28940800226707e-05,-0.011470012041945754
45,68.85,514.554,174.713,-8.37138e-05,299.843,-0.89457,-0.514327,0.0153185,-0.0019136,-0.0120778,0.0283416,-7.58255e-05,-4.53709e-05,0.0203031,0.015436429619942293,0.028747044396090438,-7.582262531946604e-05,-0.001911770234852117,-4.536987075631771e-05,-0.012005156127087524
46,71.69,518.075,175.938,-9.0073e-05,301.92,-0.906222,-0.52101,0.0159637,-0.00200858,-0.0126189,0.0295545,-7.99574e-05,-4.78541e-05,0.0212819,0.01609180060427784,0.029995568700741604,-7.995420349227178e-05,-0.002006564153080981,-4.785295501086306e-05,-0.01253961552607663
47,74.53,521.478,177.121,-9.65138e-05,303.927,-0.916995,-0.527189,0.0166083,-0.00210354,-0.0131597,0.0307664,-8.40983e-05,-5.03431e-05,0.0222606,0.0167469845220376,0.03124457701416916,-8.40947638370837e-05,-0.0021013291102376375,-5.034183280738791e-05,-0.01307348972940392
48,77.37,524.771,178.265,-0.000103025,305.867,-0.926953,-0.532901,0.0172522,-0.00219846,-0.0137001,0.0319771,-8.8246e-05,-5.28363e-05,0.023239,0.01740187872593335,0.03249386092497608,-8.824210643620933e-05,-0.0021960451567836214,-5.2834904187282206e-05,-0.01360668073436877
49,80.21,527.961,179.372,-0.000109598,307.747,-0.936155,-0.53818,0.0178954,-0.00229335,-0.0142401,0.0331868,-9.23983e-05,-5.53326e-05,0.0242171,0.018056482112211336,0.03374362451563884,-9.239403140848257e-05,-0.002290722282031532,-5.533106917987585e-05,-0.014139189336509816
50,83.05,531.055,180.444,-0.000116222,309.568,-0.944651,-0.543055,0.018538,-0.0023882,-0.0147798,0.0343953,-9.65531e-05,-5.78305e-05,0.0251949,0.018710895448102338,0.03499365886698613,-9.654843889939091e-05,-0.0023853505192080737,-5.782882784888255e-05,-0.014671114863010093
51,85.89,534.058,181.484,-0.000122888,311.336,-0.952487,-0.547551,0.0191799,-0.00248301,-0.0153191,0.0356028,-0.000100709,-6.03291e-05,0.0261723,0.019365015889385884,0.03624416855334833,-0.00010070392901884162,-0.0024799298805198156,-6.0327280236416314e-05,-0.015202359467780924
52,88.73,536.978,182.494,-0.000129587,313.053,-0.959703,-0.551693,0.0198211,-0.00257778,-0.015858,0.0368092,-0.000104863,-6.28273e-05,0.0271493,0.02001884233193052,0.03749504789700042,-0.00010485750206778999,-0.0025744603781666653,-6.282532640655702e-05,-0.01573292394282577
53,91.57,539.817,183.475,-0.000136313,314.723,-0.966337,-0.555502,0.0204617,-0.0026725,-0.0163965,0.0380144,-0.000109015,-6.53241e-05,0.0281258,0.02067247573875619,0.038746190715947426,-0.00010900905808075567,-0.0026689320510305814,-6.532196642738963e-05,-0.01626280907890465
54,94.41,542.582,184.43,-0.000143057,316.347,-0.972421,-0.558995,0.0211016,-0.00276718,-0.0169346,0.0392186,-0.000113163,-6.78185e-05,0.0291019,0.021325813068966637,0.03999780232290928,-0.00011315659730914973,-0.002763354886496483,-6.781620037754621e-05,-0.016792015665537896
55,97.25,545.276,185.359,-0.000149812,317.929,-0.977986,-0.562191,0.0217409,-0.00286181,-0.0174723,0.0404216,-0.000117305,-7.03098e-05,0.0300774,0.021978955415967283,0.041249672528056,-0.00011729812003746787,-0.0028577189253186086,-7.030732832391529e-05,-0.01732054449100584
56,100.1,547.902,186.264,-0.000156571,319.471,-0.983058,-0.565106,0.0223796,-0.00295639,-0.0180096,0.0416235,-0.00012144,-7.27971e-05,0.0310525,0.022631901871045246,0.04250190288655742,-0.00012143262646169273,-0.0029520241824967375,-7.279445035535126e-05,-0.017848396342352024
57,102.9,550.465,187.146,-0.000163327,320.975,-0.987663,-0.567752,0.0230176,-0.00305092,-0.0185464,0.0428243,-0.000125567,-7.52796e-05,0.032027,0.0232845491967979,0.04375449107498097,-0.00012555911679412723,-0.0030462706730203237,-7.527676656193805e-05,-0.018375473842937695
58,105.8,552.968,188.006,-0.000170074,322.443,-0.991822,-0.570144,0.023655,-0.0031454,-0.0190829,0.044024,-0.000129685,-7.77567e-05,0.0330009,0.02393699868201704,0.0450074347659184,-0.00012967659126383868,-0.0031404584118681633,-7.775367702611558e-05,-0.018901974154883594
59,108.6,555.413,188.846,-0.000176807,323.876,-0.995557,-0.572293,0.0242917,-0.00323982,-0.0196189,0.0452225,-0.000133792,-8.02277e-05,0.0339743,0.024589146958450936,0.04626062700192546,-0.00013378305024946968,-0.003234577446355358,-8.022448184408226e-05,-0.019427701789143992
60,111.5,557.804,189.667,-0.000183519,325.276,-0.998887,-0.57421,0.0249278,-0.00333419,-0.0201544,0.04642,-0.000137888,-8.26919e-05,0.034947,0.025241095445064587,0.0475142745744328,-0.00013787849388657847,-0.0033286377609760276,-8.268848111903093e-05,-0.01995265768535015
61,114.3,560.142,190.468,-0.000190203,326.645,-1.00183,-0.575905,0.0255633,-0.00342851,-0.0206895,0.0476163,-0.000141971,-8.51488e-05,0.0359192,0.025892843232144802,0.048768165766582605,-0.00014196092259444182,-0.003422639370676772,-8.514517494384588e-05,-0.020476940733783144
62,117.1,562.431,191.252,-0.000196841,327.985,-1.0044,-0.577388,0.0261982,-0.00352278,-0.0212242,0.0488115,-0.000146041,-8.75978e-05,0.0368907,0.02654438940976056,0.05002240286108717,-0.0001460303365321547,-0.003516582290394199,-8.759396342472581e-05,-0.021000551713701965
63,120.0,564.673,192.019,-0.000202575,329.296,-1.0066,-0.578677,0.0268324,-0.00361699,-0.0217585,0.0500055,-0.000150097,-9.00382e-05,0.0378615,0.02719563034819772,0.051276878382954694,-0.00015008573600883146,-0.003610456571159104,-9.003414668284915e-05,-0.021523491403142803
64,122.8,566.869,192.77,0.000166197,330.58,-1.00865,-0.580182,0.027466,-0.00371113,-0.0222922,0.0511985,-0.000154143,-9.24728e-05,0.0388318,0.02784666772644795,0.05253180011083747,-0.00015413112057804934,-0.0037042522677450673,-9.246852452238219e-05,-0.022045564988052768
65,125.7,569.019,193.506,-0.000217173,331.838,-1.01109,-0.581253,0.028099,-0.00380522,-0.0228256,0.0523903,-0.000158187,-9.48956e-05,0.0398013,0.028497500634002026,0.05378695530862454,-0.00015817448909616338,-0.0037979893247200858,-9.489109755489444e-05,-0.022567066786793766
66,128.5,571.128,194.228,-0.000224133,333.072,-1.01336,-0.582566,0.0287314,-0.00389924,-0.0233585,0.053581,-0.000162219,-9.73163e-05,0.0407702,0.029148128160143116,0.055042446744804296,-0.00016220584320936204,-0.0038916478348081096,-9.731156492243098e-05,-0.023087802034672977
67,131.3,573.196,194.937,-0.00023119,334.283,-1.01566,-0.583891,0.0293631,-0.00399319,-0.0238909,0.0547706,-0.000166244,-9.97321e-05,0.0417384,0.029798446414097013,0.056298272056249044,-0.00016623018223183017,-0.003985227818505632,-9.972712691941332e-05,-0.02360777166067296
68,134.2,575.225,195.633,-0.000238279,335.471,-1.01798,-0.585229,0.0299942,-0.00408707,-0.0244229,0.0559591,-0.000170261,-0.000102143,0.0427059,0.030448557334552317,0.05755442887591444,-0.00017024650641839223,-0.004078729296290051,-0.0001021377835813686,-0.024127074179431718
69,137.0,577.216,196.316,-0.000245416,336.637,-1.02031,-0.586579,0.0306247,-0.00418088,-0.0249545,0.0571465,-0.000174271,-0.00010455,0.0436728,0.031098460010240636,0.05881091483284573,-0.00017425581569130433,-0.0041721522886206674,-0.00010454453483921267,-0.024645710361087092
70,139.9,579.171,196.987,-0.000252599,337.783,-1.02267,-0.587942,0.0312546,-0.00427462,-0.0254856,0.0583327,-0.000178275,-0.000106953,0.0446389,0.03174815352969307,0.06006762154541545,-0.00017825910995639127,-0.004265496815938796,-0.00010694728073179505,-0.02516358349093173
71,142.7,581.091,197.647,-0.000259832,338.908,-1.02506,-0.589317,0.0318839,-0.00436829,-0.0260162,0.0595179,-0.000182271,-0.000109352,0.0456043,0.032397636981243316,0.061324758522685485,-0.00018225438965047136,-0.00435876289866699,-0.00010934602128798154,-0.02568069449185073
72,145.5,582.978,198.295,-0.000267113,340.014,-1.02746,-0.590705,0.0325125,-0.00446188,-0.0265463,0.0607019,-0.000186261,-0.000111747,0.0465689,0.03304680614834288,0.06258211124270097,-0.00018624365449682045,-0.004451940601728599,-0.00011174075653652693,-0.026197044285096394
73,148.4,584.832,198.933,-0.000274445,341.102,-1.02988,-0.592104,0.0331405,-0.0045554,-0.0270761,0.0618849,-0.000190246,-0.000114138,0.0475329,0.033695763293819736,0.06383988970957688,-0.00019022790437717152,-0.004545039902852155,-0.00011413148650629701,-0.02671282844774514
74,151.2,586.655,199.561,-0.000281828,342.171,-1.03233,-0.593515,0.033768,-0.00464884,-0.0276053,0.0630668,-0.000194224,-0.000116526,0.0484961,0.034344610939944786,0.06509798540042167,-0.00019420513973988918,-0.004638050868783772,-0.00011651921110933383,-0.027227755757146976
75,154.1,588.448,200.178,-0.000289262,343.223,-1.03479,-0.594938,0.0343947,-0.0047422,-0.0281341,0.0642475,-0.000198197,-0.000118911,0.0494586,0.03499303787097707,0.06635628928530402,-0.000198177360272056,-0.004730973522657722,-0.00011890393036717573,-0.027742021735994382
76,156.9,590.212,200.786,-0.00029675,344.259,-1.03728,-0.596373,0.0350209,-0.00483549,-0.0286624,0.0654272,-0.000202165,-0.000121292,0.0504203,0.03564135347772335,0.06761501211145338,-0.000202144566033291,-0.004823817839347266,-0.00012128464442273668,-0.028255529970767523
77,159.7,591.948,201.384,-0.000304291,345.278,-1.03978,-0.59782,0.0356465,-0.0049287,-0.0291903,0.0666057,-0.000206129,-0.000123671,0.0513813,0.036289453412981176,0.06887393807964726,-0.00020610775687723848,-0.004916573888323561,-0.00012366335305702414,-0.02876837849821723
78,162.6,593.656,201.974,-0.000311887,346.281,-1.04231,-0.599278,0.0362715,-0.00502182,-0.0297177,0.0677832,-0.000210087,-0.000126047,0.0523415,0.03693733676382149,0.0701332784328621,-0.0002100649332714699,-0.005009231742746478,-0.00012603905641062063,-0.02928047100473341
79,165.4,595.338,202.555,-0.000319538,347.27,-1.04485,-0.600748,0.0368958,-0.00511487,-0.0302446,0.0689595,-0.000214042,-0.00012842,0.053301,0.03758489885863869,0.07139281686057553,-0.00021401909464535684,-0.0051018113264009735,-0.0001284117545047314,-0.029791808400893904
80,168.3,596.995,203.127,-0.000327245,348.243,-1.04742,-0.60223,0.0375195,-0.00520784,-0.0307711,0.0701348,-0.000217992,-0.000130791,0.0542598,0.03823224241315959,0.07265276510178209,-0.00021796824147035654,-0.005194302711473253,-0.00013078244722997123,-0.030302488565420838
81,171.1,598.627,203.691,-0.000335009,349.203,-1.05001,-0.603723,0.0381427,-0.00530072,-0.0312971,0.071309,-0.000221938,-0.000133159,0.0552177,0.038879470401925076,0.07391301372573489,-0.00022191337358390406,-0.005286695973827915,-0.000133150134733806,-0.030812415333938303
82,173.9,600.235,204.247,-0.00034283,350.149,-1.05261,-0.605227,0.0387652,-0.00539352,-0.0318227,0.0724821,-0.00022588,-0.000135525,0.0561749,0.03952637420016769,0.0751735603111765,-0.00022585449103340594,-0.005379001085418,-0.00013551581690196546,-0.03132168648025746
83,176.8,601.819,204.796,-0.000350711,351.081,-1.05524,-0.606742,0.0393871,-0.00548624,-0.0323478,0.0736541,-0.00022982,-0.000137889,0.0571314,0.04017305671736904,0.07643440243302169,-0.0002297935934066908,-0.00547121806919193,-0.0001378794937487715,-0.03183020593921826
84,179.6,603.382,205.336,-0.00035865,352.0,-1.05788,-0.608269,0.0400084,-0.00557888,-0.0328724,0.0748251,-0.000233755,-0.000140251,0.058087,0.04081951703961151,0.0776956454319242,-0.00023372768142859712,-0.005563346948074366,-0.00014024116528821295,-0.03233797461381416
85,182.5,604.922,205.87,-0.00036665,352.907,-1.06055,-0.609806,0.0406291,-0.00567143,-0.0333966,0.0759949,-0.000237688,-0.000142612,0.0590419,0.04146575425280896,0.07895707146218767,-0.0002376597544452297,-0.005655377801520922,-0.00014260183139203075,-0.03284509012093473
86,185.3,606.441,206.397,-0.000374711,353.801,-1.06323,-0.611355,0.0412492,-0.0057639,-0.0339203,0.0771637,-0.000241618,-0.00014497,0.059996,0.04211176744271028,0.08021889375261182,-0.00024158881272173804,-0.005747320597695116,-0.00014495949235726613,-0.0333514565436176
87,188.1,607.939,206.917,-0.000382833,354.684,-1.06593,-0.612915,0.0418687,-0.00585628,-0.0344435,0.0783314,-0.000245545,-0.000147327,0.0609493,0.042757555694898475,0.08148100209339204,-0.00024551485629364933,-0.005839165417840686,-0.00014731614791041459,-0.03385707478028921
88,191.0,609.418,207.43,-0.000391018,355.555,-1.06865,-0.614486,0.0424876,-0.00594858,-0.0349662,0.079498,-0.00024947,-0.000149682,0.0619019,0.04340311809479669,0.08274339404048536,-0.0002494388849469953,-0.005930922228230551,-0.0001496707982082679,-0.034361945727784726
89,193.8,610.876,207.936,-0.000399266,356.414,-1.07139,-0.616067,0.0431059,-0.00604079,-0.0354885,0.0806636,-0.000253392,-0.000152036,0.0628537,0.044048453727666415,0.08400617554667034,-0.0002533598989585828,-0.006022581111894354,-0.0001520244431130191,-0.034866166794736975
90,196.7,612.316,208.437,-0.000407578,357.263,-1.07415,-0.61766,0.0437236,-0.00613292,-0.0360104,0.081828,-0.000257313,-0.000154389,0.0638047,0.044693561678612825,0.08526912748540005,-0.00025727989784918304,-0.006114152033217191,-0.0001543770826315516,-0.03536973872376159
91,199.5,613.737,208.931,-0.000415955,358.101,-1.07693,-0.619263,0.0443407,-0.00622495,-0.0365317,0.0829914,-0.000261231,-0.00015674,0.0647549,0.04533844103258433,0.08653246432886474,-0.0002611968821532029,-0.006205615139066145,-0.00015672771692787357,-0.03587246943082123
92,202.3,615.14,209.419,-0.000424398,358.929,-1.07973,-0.620877,0.0449572,-0.00631691,-0.0370527,0.0841538,-0.000265148,-0.00015909,0.0657043,0.04598309087437724,0.08779618399697964,-0.00026511285137564844,-0.006297000268745245,-0.00015907734585696165,-0.036374649045098795
93,205.2,616.526,209.901,-0.000432907,359.747,-1.08254,-0.622502,0.0455731,-0.00640877,-0.0375731,0.085315,-0.000269063,-0.00016144,0.0666529,0.04662751028863443,0.08906006659405596,-0.0002690268057972123,-0.006388277633867068,-0.0001614269692643555,-0.03687598921770874
94,208.0,617.894,210.378,-0.000441483,360.554,-1.08538,-0.624137,0.0461884,-0.00650055,-0.0380931,0.0864752,-0.000272976,-0.000163788,0.0676008,0.047271698359851344,0.09032432733916207,-0.0002729387454416532,-0.006479467132995742,-0.00016377458747773854,-0.03737668351151657
95,210.9,619.246,210.849,-0.000450127,361.352,-1.08823,-0.625783,0.0468031,-0.00659224,-0.0386126,0.0876344,-0.000276888,-0.000166136,0.0685478,0.04791565417237531,0.0915889641412917,-0.000276849670055479,-0.006570558854490538,-0.00016612220017886425,-0.037876636450412726
96,213.7,620.582,211.315,-0.00045884,362.141,-1.0911,-0.627439,0.0474172,-0.00668384,-0.0391316,0.0887925,-0.0002808,-0.000168483,0.0694941,0.04855937681040845,0.0928538656204918,-0.0002807605793698764,-0.006661552823711947,-0.0001684688075364038,-0.0383758489192535
97,216.5,621.902,211.776,-0.000467622,362.921,-1.09399,-0.629106,0.0480308,-0.00677536,-0.0396502,0.0899495,-0.00028471,-0.000170829,0.0704395,0.04920297027830234,0.09411902929906901,-0.00028466947395411335,-0.006752458998467548,-0.00017081440955712957,-0.03887441791388968
98,219.4,623.206,212.231,-0.000476475,363.692,-1.0969,-0.630784,0.0486437,-0.00686679,-0.0401684,0.0911054,-0.000288619,-0.000173175,0.0713842,0.049846223883716956,0.0953844526955927,-0.0002885773535431513,-0.00684326746976871,-0.00017316000607514592,-0.03937234416669222
99,222.2,624.495,212.682,-0.000485398,364.454,-1.09982,-0.632472,0.0492561,-0.00695812,-0.040686,0.0922604,-0.000292527,-0.00017552,0.0723281,0.050489346615304465,0.09665035265495425,-0.0002924842181488696,-0.006933968332232809,-0.0001755045972658964,-0.03986943638278806
100,225.1,625.769,213.127,-0.000494394,365.207,-1.10277,-0.63417,0.0498678,-0.00704937,-0.0412032,0.0934142,-0.000296435,-0.000177865,0.0732712,0.0511321275231269,0.09791639807299646,-0.00029639106748657884,-0.0070245814733350675,-0.00017784918295860042,-0.04036588751696091
101,227.9,627.029,213.568,-0.000503462,365.952,-1.10573,-0.635878,0.050479,-0.00714053,-0.04172,0.094567,-0.000300343,-0.00018021,0.0742135,0.05177477585279244,0.0991828059139257,-0.000300297901556279,-0.007115096986728187,-0.00018019376315325797,-0.040861698297751325
102,230.7,628.275,214.004,-0.000512603,366.689,-1.10871,-0.637597,0.0510896,-0.0072316,-0.0422362,0.0957188,-0.00030425,-0.000182554,0.075155,0.05241718563867637,0.10044957406150767,-0.0003042037206624215,-0.00720551489760346,-0.000182537338032418,-0.04135667772390905
103,233.6,629.507,214.435,-0.000521818,367.419,-1.11171,-0.639326,0.0516996,-0.00732258,-0.042752,0.0968695,-0.000308157,-0.000184898,0.0760957,0.05305935596395295,0.10171659022432378,-0.00030810952450843754,-0.0072958352311237595,-0.00018488090741819452,-0.04185101844810635
104,236.4,630.726,214.862,-0.000531108,368.14,-1.11472,-0.641066,0.052309,-0.00741348,-0.0432674,0.0980191,-0.000312064,-0.000187243,0.0770356,0.05370128591166634,0.10298385189889059,-0.00031201531309466013,-0.007386067938562668,-0.00018722547112348664,-0.042344721195071267
105,239.3,631.931,215.285,-0.000540473,368.854,-1.11775,-0.642815,0.0529178,-0.00750428,-0.0437823,0.0991677,-0.000315971,-0.000189587,0.0779747,0.05434297456473569,0.104251467003174,-0.00031592108642086725,-0.007476193191845448,-0.00018956902952027566,-0.04283769097216761
106,242.1,633.124,215.703,-0.000549915,369.56,-1.1208,-0.644575,0.0535261,-0.00759499,-0.0442967,0.100315,-0.000319878,-0.000191931,0.078913,0.054984526504402886,0.10551910175089119,-0.00031982684448728094,-0.0075662209430905625,-0.0001919125824239032,-0.04332992864954677
107,244.9,634.304,216.118,-0.000559434,370.26,-1.12387,-0.646345,0.0541338,-0.00768561,-0.0448107,0.101462,-0.000323785,-0.000194276,0.0798505,0.0556258354431447,0.10678785965415805,-0.0003237325872939012,-0.007656151217346419,-0.00019425712963982988,-0.04382153071366701
108,247.8,635.472,216.528,-0.000569031,370.952,-1.12696,-0.648125,0.0547408,-0.00777615,-0.0453242,0.102607,-0.000327693,-0.000196621,0.0807873,0.05626679483675456,0.10805585754372249,-0.000327639314513295,-0.0077459939621729035,-0.00019660167135793216,-0.04431240231557576
109,250.6,636.627,216.934,-0.000578707,371.637,-1.13006,-0.649915,0.0553473,-0.00786659,-0.0458373,0.103752,-0.000331602,-0.000198966,0.0817232,0.056907614956881014,0.10932530812237595,-0.0003315470261335829,-0.007835729356583054,-0.00019894620757798798,-0.04480263984075483
110,253.5,637.771,217.336,-0.000588462,372.315,-1.13318,-0.651715,0.0559533,-0.00795694,-0.0463499,0.104895,-0.000335511,-0.000201311,0.0826583,0.057548295078014844,0.11059399186419583,-0.0003354547224786453,-0.00792536734897853,-0.00020129073830021937,-0.04529214853577557
111,256.3,638.904,217.735,-0.000598297,372.987,-1.13632,-0.653524,0.0565586,-0.00804721,-0.046862,0.106038,-0.00033942,-0.000203657,0.0835926,0.05818862283667103,0.11186412654058353,-0.00033936240354859315,-0.008014917884143657,-0.00020363626332087215,-0.045780929263523285
112,259.1,640.024,218.129,-0.000608213,373.652,-1.13947,-0.655344,0.0571634,-0.00813738,-0.0473737,0.107179,-0.000343331,-0.000206003,0.0845262,0.05882880888851072,0.11313348754170471,-0.00034327206865680804,-0.008104361146388017,-0.00020598178283892654,-0.046269078258447394
113,262.0,641.134,218.52,-0.000618211,374.311,-1.14265,-0.657174,0.0577676,-0.00822746,-0.0478849,0.108319,-0.000347243,-0.00020835,0.0854589,0.05946874656054413,0.11440318330657973,-0.0003471827181273923,-0.0081937070813346,-0.00020832829664596542,-0.04675650090979733
114,264.8,642.233,218.907,-0.000628292,374.963,-1.14584,-0.659014,0.0583712,-0.00831745,-0.0483957,0.109459,-0.000351156,-0.000210698,0.0863909,0.06010843493449758,0.11567432734998939,-0.00035109435194813354,-0.008282955713831863,-0.0002106758047352164,-0.04724329335175881
115,267.7,643.322,219.291,-0.000638455,375.61,-1.14904,-0.660864,0.0589743,-0.00840735,-0.048906,0.110597,-0.00035507,-0.000213046,0.087322,0.06074797916678465,0.1169446874323028,-0.00035500697010781845,-0.008372107068699841,-0.00021302330731243213,-0.047729361068435394
116,270.5,644.4,219.672,-0.000648703,376.25,-1.15227,-0.662723,0.0595768,-0.00849716,-0.0494159,0.111734,-0.000358985,-0.000215395,0.0882523,0.06138727239197794,0.11821537579135333,-0.0003589205725946787,-0.008461161170729814,-0.00021537180416231205,-0.04821480009402923
117,273.3,645.467,220.049,-0.000659036,376.885,-1.15551,-0.664592,0.0601787,-0.00858688,-0.0499253,0.11287,-0.000362901,-0.000217745,0.0891819,0.06202631369141676,0.11948639025778252,-0.00036283515939683486,-0.008550118044684307,-0.0002177212952779728,-0.048699516007236765
118,276.2,646.525,220.422,-0.000669454,377.513,-1.15877,-0.666471,0.06078,-0.00867651,-0.0504342,0.114006,-0.000366819,-0.000220095,0.0901107,0.06266510214634158,0.12075884941707593,-0.00036675173013622775,-0.008638977715298424,-0.0002200707808722724,-0.04918350966091045
119,279.0,647.573,220.792,-0.000679958,378.136,-1.16204,-0.66836,0.0613808,-0.00876605,-0.0509427,0.11514,-0.000370739,-0.000222447,0.0910386,0.0633037431682637,0.12203051084807104,-0.0003706702847890986,-0.008727740207277734,-0.00022242226050050995,-0.04966687693970151
120,281.9,648.611,221.16,-0.00069055,378.754,-1.16533,-0.670259,0.061981,-0.0088555,-0.0514508,0.116273,-0.00037466,-0.0002248,0.0919658,0.06394212963552781,0.12330249185803543,-0.00037458982370652816,-0.008816405545299832,-0.00022477473437321205,-0.05014961854863709
121,284.0,649.389,221.435,-0.000701962,379.216,-1.16783,-0.6717,0.0624341,-0.00892302,-0.0518343,0.117128,-0.000377622,-0.000226578,0.0926658,0.0644243110444147,0.12426332618671654,-0.0003775507097865116,-0.008883328002269764,-0.00022655233314339274,-0.05051381633053531
