,Time,S11,S22,S33,S12,S13,S23,LE11,LE22,LE33,LE12,LE13,LE23,SDV_EPBAR,E11,E12,E13,E22,E23,E33
0,0.000284,0.0015581,0.000519365,0.0,0.000899567,1.32028e-20,2.67023e-20,6.7501e-09,2.50301e-10,-3.0004e-09,1.1258e-08,6.18106e-26,5.13348e-25,0.0,6.750100034480511e-09,1.1258000087721598e-08,0.0,2.5030089112476617e-10,0.0,-3.0004000395322805e-09
1,0.000568,0.00311619,0.00103873,2.1684e-19,0.00179913,-2.79039e-28,-1.61103e-28,1.35001e-08,5.00425e-10,-6.00057e-09,2.25162e-08,2.06826e-25,-3.58238e-25,0.0,1.3500100148888805e-08,2.2516200237632233e-08,0.0,5.00425034744012e-10,0.0,-6.000569929831556e-09
2,0.000994,0.00545333,0.00181778,2.1684e-19,0.00314848,-6.04799e-21,-2.25714e-20,2.36252e-08,8.75688e-10,-1.05009e-08,3.94034e-08,-4.13622e-25,7.16424e-25,0.0,2.3625200240573463e-08,3.9403400764470575e-08,0.0,8.756879665838824e-10,0.0,-1.0500899927379237e-08
3,0.001633,0.00895905,0.00298635,4.33681e-19,0.00517251,-5.11908e-20,-1.04754e-20,3.88125e-08,1.4375e-09,-1.725e-08,6.47354e-08,3.9316e-32,2.26991e-32,0.0,3.8812500768869995e-08,6.473540214990692e-08,0.0,1.4374998968946784e-09,0.0,-1.7249999872959165e-08
4,0.0025915,0.0142176,0.00473921,-1.30104e-18,0.00820854,3.90948e-20,-3.46674e-20,6.15937e-08,2.28125e-09,-2.7375e-08,1.02732e-07,2.86544e-24,1.65436e-24,0.0,6.159370191660685e-08,1.027320053470504e-07,0.0,2.281250077729169e-09,0.0,-2.7374999600482397e-08
5,0.0040292,0.0221055,0.00736849,-1.30104e-18,0.0127626,-7.53827e-20,-1.00761e-19,9.57656e-08,3.54688e-09,-4.25625e-08,1.59728e-07,2.30786e-31,1.33244e-31,0.0,9.576560455748506e-08,1.597280128162737e-07,0.0,3.5468799008953056e-09,0.0,-4.256249908074494e-08
6,0.0061859,0.0339373,0.0113124,-4.77049e-18,0.0195937,1.20526e-19,8.8665e-20,1.47024e-07,5.44671e-09,-6.53456e-08,2.45219e-07,-6.61761e-24,1.14621e-23,0.0,1.4702401074373483e-07,2.452190299706558e-07,0.0,5.446709971934638e-09,0.0,-6.534559782167548e-08
7,0.0094208,0.0516849,0.0172283,7.37257e-18,0.0298403,1.86619e-19,-2.58125e-20,2.2391e-07,8.29297e-09,-9.95156e-08,3.7346e-07,-6.95067e-31,-4.01297e-31,0.0,2.2391002496569e-07,3.734600697580248e-07,0.0,8.292970088419338e-09,0.0,-9.951559509779884e-08
8,0.014273,0.0783064,0.0261021,-1.30104e-18,0.0452102,1.86619e-19,-2.58125e-20,3.39241e-07,1.25671e-08,-1.50777e-07,5.65816e-07,2.64704e-23,-4.58482e-23,0.0,3.392410574676319e-07,5.658161601473921e-07,0.0,1.2567100027283118e-08,0.0,-1.5077698867216327e-07
9,0.021552,0.118239,0.0394129,1.25767e-17,0.0682651,-8.0004e-19,6.25633e-19,5.12236e-07,1.89735e-08,-2.27663e-07,8.54355e-07,-6.61759e-24,1.1462e-23,0.0,5.122361312892565e-07,8.543553648987512e-07,0.0,1.8973500104380037e-08,0.0,-2.276629741393421e-07
10,0.03247,0.178137,0.059379,-1.30104e-18,0.102847,-4.23358e-20,-1.58e-19,7.71729e-07,2.8587e-08,-3.42996e-07,1.28716e-06,1.86326e-30,1.07575e-30,0.0,7.717292977993395e-07,1.2871608283671065e-06,0.0,2.858700032248862e-08,0.0,-3.429959412049044e-07
11,0.048847,0.267985,0.0893282,-4.29344e-17,0.154721,2.05368e-18,4.41588e-19,1.16097e-06,4.30043e-08,-5.15992e-07,1.93637e-06,4.58471e-23,2.64698e-23,0.0,1.1609706738191505e-06,1.9363718748444114e-06,0.0,4.300430100911967e-08,0.0,-5.159918669006558e-07
12,0.073412,0.402756,0.134252,-1.51788e-17,0.232531,2.58243e-18,-4.74234e-19,1.74483e-06,6.46307e-08,-7.75487e-07,2.91018e-06,4.93934e-23,-3.26124e-23,0.0,1.744831522154655e-06,2.910184234483637e-06,0.0,6.463070212348043e-08,0.0,-7.754866993003873e-07
13,0.1103,0.604912,0.201637,-1.51788e-17,0.349246,1.27953e-18,-2.44755e-18,2.62061e-06,9.70596e-08,-1.16471e-06,4.37091e-06,6.3275e-30,3.65319e-30,0.0,2.62061343381248e-06,4.370919552521002e-06,0.0,9.705960479777787e-08,0.0,-1.1647093217659332e-06
14,0.1655,0.908146,0.302715,4.03323e-17,0.524319,-4.21537e-18,-5.62004e-18,3.93429e-06,1.45719e-07,-1.74858e-06,6.56199e-06,-9.87872e-23,6.52263e-23,0.0,3.934297739371928e-06,6.562011529931411e-06,0.0,1.4571901063575865e-07,0.0,-1.748578471238993e-06
15,0.2484,1.363,0.454332,-2.09468e-16,0.786926,1.22694e-17,3.89742e-18,5.90479e-06,2.18705e-07,-2.62436e-06,9.8486e-06,7.75059e-23,2.8927e-22,0.0,5.904807433232406e-06,9.848648497623458e-06,0.0,2.1870502386889257e-07,0.0,-2.624356556402141e-06
16,0.3728,2.04527,0.681756,2.34621e-16,1.18084,-2.38375e-18,-4.56255e-18,8.86055e-06,3.28182e-07,-3.93804e-06,1.47785e-05,-2.4013e-22,8.39438e-22,0.0,8.860589254755524e-06,1.4778609202625859e-05,0.0,3.281820537548441e-07,0.0,-3.938032245964784e-06
17,0.5593,3.06867,1.02289,4.56666e-16,1.7717,1.53658e-17,1.54539e-17,1.32942e-05,4.92389e-07,-5.90853e-06,2.21733e-05,1.55012e-22,5.78537e-22,0.0,1.3294288368159712e-05,2.2173545829451413e-05,0.0,4.923891212538223e-07,0.0,-5.908512544672284e-06
18,0.8392,4.60377,1.53459,2.34621e-16,2.65799,5.31314e-17,1.77204e-17,1.99445e-05,7.38697e-07,-8.86424e-06,3.32654e-05,1.58058e-21,-1.04362e-21,0.0,1.9944698892881974e-05,3.326595329955495e-05,0.0,7.38697272906208e-07,0.0,-8.864200712777048e-06
19,1.259,6.90638,2.30213,-1.31969e-15,3.9874,2.38248e-17,8.00221e-19,2.99199e-05,1.10814e-06,-1.32977e-05,4.99034e-05,-1.31371e-26,-7.5847e-27,0.0,2.992034760462836e-05,4.990464519538662e-05,0.0,1.1081406139368255e-06,0.0,-1.3297611585971758e-05
20,1.888,10.3602,3.45341,-4.65036e-15,5.98148,-2.24011e-17,1.31867e-17,4.48827e-05,1.66234e-06,-1.99479e-05,7.48599e-05,-3.16123e-21,2.08725e-21,0.0,4.4883707243537074e-05,7.486270207235357e-05,0.0,1.6623413816585497e-06,0.0,-1.994770104196686e-05
21,2.833,15.5409,5.18029,-2.86312e-14,8.97252,5.76643e-17,-5.78126e-17,6.73263e-05,2.49357e-06,-2.99228e-05,0.000112294,-7.33604e-22,-4.23546e-22,0.0,6.732856646629592e-05,0.00011230030520725798,0.0,2.4935731088859825e-06,0.0,-2.9922352317468537e-05
22,4.249,93.5787,31.1929,-1.03265e-09,54.0277,3.28372e-16,-5.26719e-16,0.000405403,1.5015e-05,-0.000180179,0.000676171,6.77731e-21,-1.17391e-20,0.0,0.00040548518690219915,0.0006763996551444329,0.0,1.5015112725613733e-05,0.0,-0.00018016276873877857
23,6.374,211.097,70.3658,-9.04826e-07,121.877,5.76346e-17,-5.78297e-17,0.000914519,3.38711e-05,-0.000406453,0.00152533,-4.01543e-25,-2.31831e-25,0.0,0.0009149373000056915,0.0015264939075101402,0.0,3.3871673632113186e-05,0.0,-0.00040637040916957634
24,9.214,362.613,120.944,0.00050982,209.418,-0.00863667,-0.00498472,0.00159352,5.4957e-05,-0.000717424,0.00266315,-1.10109e-07,-6.36032e-08,3.49879e-05,0.0015947903276698483,0.002666699334064937,-1.1010899392260853e-07,5.4958510163682917e-05,-6.360319793063951e-08,-0.0007171667129337589
25,12.05,380.224,127.23,8.13494e-05,219.945,-0.136626,-0.0787831,0.00225633,-3.19621e-05,-0.0012473,0.00388905,-2.47317e-06,-1.44678e-06,0.000940815,0.002258877428120476,0.00389662216794906,-2.473166941685534e-06,-3.196158921747738e-05,-1.4467789534178266e-06,-0.0012465224446701617
26,14.89,394.691,132.396,7.78883e-05,228.596,-0.24153,-0.139211,0.00291784,-0.000121129,-0.00178184,0.00511615,-5.10895e-06,-3.00136e-06,0.00186647,0.0029221010384676838,0.00512925984318402,-5.1089369493828585e-06,-0.00012112166417888037,-3.0013554959129607e-06,-0.0017802534655637636
27,17.73,407.01,136.788,3.01407e-05,235.955,-0.327522,-0.188707,0.00357823,-0.000211785,-0.0023194,0.00634373,-7.94835e-06,-4.68452e-06,0.00280541,0.003584639507583809,0.0063638940710806224,-7.948318411998834e-06,-0.0002117625751398844,-4.6845090276859125e-06,-0.0023167122701950316
28,20.57,417.763,140.614,1.06148e-05,242.373,-0.399583,-0.230158,0.00423759,-0.000303459,-0.00285901,0.00757136,-1.09659e-05,-6.47928e-06,0.00375376,0.004246581280471284,0.007600095221914405,-1.0965839874699235e-05,-0.00030341296097480264,-6.479259009539717e-06,-0.0028549269230228047
29,23.41,427.321,144.009,1.03485e-06,248.072,-0.461051,-0.265498,0.00489596,-0.000395857,-0.00340005,0.00879878,-1.41383e-05,-8.37054e-06,0.00470904,0.004907964795831665,0.008837603046353726,-1.4138200054691907e-05,-0.00039577865895534803,-8.370504967158965e-06,-0.003394276375389804
30,26.25,435.936,147.064,-4.96679e-06,253.205,-0.514234,-0.296061,0.00555341,-0.000488786,-0.0039421,0.0100258,-1.74448e-05,-1.03451e-05,0.00566958,0.005568858765851559,0.010076226714646586,-1.744464784037003e-05,-0.0004886665635834841,-1.0345046489668164e-05,-0.003934340123879609
31,29.09,443.788,149.845,-9.65409e-06,257.879,-0.560785,-0.322802,0.00620998,-0.000582112,-0.00448487,0.0112523,-2.08678e-05,-1.23918e-05,0.00663418,0.006229301901300666,0.011315845247380718,-2.086758226893526e-05,-0.0005819426056801191,-1.2391723221982787e-05,-0.004474827988522612
32,31.93,451.008,152.398,-1.39227e-05,262.175,-0.601921,-0.346425,0.00686568,-0.00067574,-0.00502813,0.0124781,-2.43918e-05,-1.45009e-05,0.00760198,0.006889302812209008,0.012556276315365045,-2.4391502522425057e-05,-0.0006755117391441523,-1.4500794862426503e-05,-0.005015510114686039
33,34.77,457.697,154.759,-1.81491e-05,266.151,-0.638561,-0.36746,0.00752055,-0.000769599,-0.00557171,0.0137032,-2.80038e-05,-1.66642e-05,0.00857229,0.007548900361692645,0.013797519177549233,-2.800340789721467e-05,-0.0007693029346449443,-1.6664061152971144e-05,-0.00555621681171059
34,37.61,463.932,156.958,-2.24948e-05,269.854,-0.671413,-0.386317,0.00817462,-0.000863637,-0.0061155,0.0149275,-3.16923e-05,-1.88747e-05,0.00954462,0.008208123436468817,0.015039471586313802,-3.1691797804378474e-05,-0.0008632641729029444,-1.8874521873990524e-05,-0.006096838390944104
35,40.45,469.774,159.015,-2.70262e-05,273.322,-0.701035,-0.403315,0.00882789,-0.000957811,-0.00665939,0.016151,-3.54475e-05,-2.11263e-05,0.0105186,0.008866970736423063,0.0162821324225495,-3.5446871744837516e-05,-0.0009573524454586924,-2.112607684134904e-05,-0.006637265401766013
36,43.29,475.274,160.949,-3.17657e-05,276.585,-0.727872,-0.418713,0.00948039,-0.00105209,-0.00720329,0.0173736,-3.92609e-05,-2.34137e-05,0.0114938,0.009525471247256778,0.01752539881152826,-3.926012930099976e-05,-0.0010515367473568071,-2.341342590150841e-05,-0.00717740848788595
37,46.13,480.471,162.775,-3.67147e-05,279.666,-0.752282,-0.432717,0.0101321,-0.00114645,-0.00774715,0.0185952,-4.3125e-05,-2.57323e-05,0.01247,0.010183603524522633,0.018769167377882923,-4.3124070130518e-05,-0.0011457930772655889,-2.573196892718954e-05,-0.00771721817875104
38,48.97,485.4,164.504,-4.18648e-05,282.587,-0.774562,-0.445497,0.0107831,-0.00124086,-0.00829091,0.0198159,-4.70332e-05,-2.8078e-05,0.013447,0.010841447155286232,0.020013538247741103,-4.703209395640062e-05,-0.0012400904515637023,-2.8077605816689832e-05,-0.00825663519420472
39,51.81,490.088,166.147,-4.7203e-05,285.363,-0.794955,-0.457194,0.0114334,-0.00133532,-0.00883451,0.0210357,-5.09796e-05,-3.04473e-05,0.0144246,0.011499011132125148,0.02125850991554845,-5.097830056222108e-05,-0.0013344288569465679,-3.044683648567581e-05,-0.008795600383302848
40,54.65,494.56,167.713,-5.27145e-05,288.009,-0.813668,-0.467927,0.0120829,-0.0014298,-0.00937793,0.0222544,-5.49592e-05,-3.28369e-05,0.0154026,0.012156193136608762,0.022503876371494647,-5.495768977081816e-05,-0.0014287783229692819,-3.283636087492159e-05,-0.009334094350694877
41,57.49,498.836,169.208,-5.83841e-05,290.538,-0.830872,-0.477794,0.0127317,-0.0015243,-0.00992113,0.0234721,-5.89673e-05,-3.52441e-05,0.0163809,0.01281309315003698,0.02374973773049427,-5.896556146289811e-05,-0.0015231388448128103,-3.524347893402169e-05,-0.009872077941072033
42,60.33,502.933,170.639,-6.41968e-05,292.961,-0.846716,-0.48688,0.0133798,-0.0016188,-0.0104641,0.0246888,-6.29996e-05,-3.76664e-05,0.0173595,0.01346971006943698,0.0249960921023189,-6.299761556682881e-05,-0.0016174904500084741,-3.766569063001768e-05,-0.01040954177233977
43,63.17,506.867,172.012,-7.01382e-05,295.285,-0.861325,-0.495258,0.0140272,-0.0017133,-0.0110068,0.0259045,-6.70526e-05,-4.01013e-05,0.0183381,0.014126042791714255,0.026242937592956928,-6.705035202470011e-05,-0.0017118331393987107,-4.010049595359888e-05,-0.010946446811659905
44,66.01,510.652,173.332,-7.61949e-05,297.52,-0.874809,-0.502991,0.0146739,-0.00180779,-0.0115491,0.0271191,-7.11228e-05,-4.2547e-05,0.0193167,0.014782090213657062,0.027490169555596466,-7.112027083355787e-05,-0.0018061569318875703,-4.254609488918426e-05,-0.011482665144811555
45,68.85,514.299,174.601,-8.23538e-05,299.672,-0.887263,-0.510134,0.0153199,-0.00190226,-0.0120912,0.0283326,-7.52071e-05,-4.50014e-05,0.0202953,0.01543785123193886,0.028737785714354924,-7.520427201690438e-05,-0.001900451850151641,-4.500038745214319e-05,-0.012018395169293594
46,71.69,517.818,175.826,-8.86031e-05,301.748,-0.898769,-0.516734,0.0159652,-0.00199671,-0.012633,0.0295451,-7.93027e-05,-4.7463e-05,0.0212737,0.016093324743121862,0.029985886787900817,-7.929955562402391e-05,-0.0019947179006899463,-4.746187364967902e-05,-0.01255353861933961
47,74.53,521.219,177.007,-9.49314e-05,303.754,-0.909401,-0.522832,0.0166099,-0.00209113,-0.0131744,0.0307565,-8.34071e-05,-4.993e-05,0.0222519,0.01674861131851424,0.03123436774339261,-8.340362172454263e-05,-0.0020889451108891954,-4.992875351828019e-05,-0.01308799744247302
48,77.37,524.51,178.15,-0.000101328,305.693,-0.919223,-0.528466,0.0172539,-0.00218552,-0.0137154,0.0319668,-8.7518e-05,-5.24012e-05,0.0232298,0.017403608310597507,0.03248322629297706,-8.751417041152898e-05,-0.002183133490069711,-5.2399827081051065e-05,-0.013621772436701707
49,80.21,527.698,179.256,-0.000107783,307.571,-0.928291,-0.533669,0.0178972,-0.00227988,-0.0142561,0.033176,-9.1633e-05,-5.48751e-05,0.0242075,0.018058314615528204,0.03373246014478193,-9.162880182489452e-05,-0.002277283047547596,-5.487359438927086e-05,-0.014154962983290775
50,83.05,530.791,180.327,-0.000114287,309.391,-0.936657,-0.538469,0.0185398,-0.0023742,-0.0147964,0.0343841,-9.57503e-05,-5.73506e-05,0.0251848,0.01871272912936428,0.03498206700292128,-9.57457160862818e-05,-0.0023713838163487155,-5.73489554858142e-05,-0.014687471186745404
51,85.89,533.793,181.366,-0.000120831,311.157,-0.944365,-0.542893,0.0191818,-0.00246849,-0.0153363,0.0355911,-9.9868e-05,-5.98265e-05,0.0261618,0.01936695268475619,0.03623204456750173,-9.986301335729308e-05,-0.002465445783947362,-5.9824710430644856e-05,-0.015219297841527646
52,88.73,536.711,182.375,-0.000127407,312.873,-0.951456,-0.546963,0.0198231,-0.00256273,-0.0158758,0.036797,-0.000103984,-6.23019e-05,0.0271383,0.020020882371655224,0.03748239053462621,-0.00010397859385125052,-0.0025594490108351575,-6.229995927686804e-05,-0.015750443740852993
53,91.57,539.549,183.355,-0.000134007,314.541,-0.957967,-0.550701,0.0204638,-0.00265692,-0.016415,0.0380018,-0.000108098,-6.47756e-05,0.0281144,0.020674619153205898,0.03873310259639973,-0.00010809215762164204,-0.002653393511947044,-6.477350210609689e-05,-0.01628100804859578
54,94.41,542.312,184.309,-0.000140623,316.165,-0.96393,-0.554126,0.0211038,-0.00275108,-0.0169537,0.0392055,-0.000112207,-6.72469e-05,0.02909,0.021328059988226844,0.0399841784409356,-0.00011220070503004109,-0.00274729924726258,-6.724463897789246e-05,-0.016810794758697845
55,97.25,545.005,185.237,-0.000147248,317.745,-0.969376,-0.557254,0.0217432,-0.00284518,-0.017492,0.040408,-0.00011631,-6.97148e-05,0.0300651,0.02198130597026804,0.0412355116288039,-0.00011630323625411165,-0.0028411363113003407,-6.97123699797686e-05,-0.01733990308559652
56,100.1,547.63,186.141,-0.000153875,319.286,-0.974331,-0.560101,0.0223819,-0.00293924,-0.0180299,0.0416095,-0.000120406,-7.21785e-05,0.0310397,0.02263425392712448,0.04248730796208178,-0.0001203987514885041,-0.002934924663083427,-7.21758951947038e-05,-0.01786833381754016
57,102.9,550.192,187.022,-0.000160498,320.789,-0.97882,-0.562682,0.02302,-0.00303324,-0.0185673,0.0428098,-0.000124493,-7.46374e-05,0.0320137,0.023287005082663015,0.04373935674458451,-0.00012448525106800723,-0.00302864437526984,-7.463461469858768e-05,-0.01839598958114419
58,105.8,552.693,187.882,-0.00016711,322.255,-0.982865,-0.565008,0.0236575,-0.0031272,-0.0191044,0.0440091,-0.000128571,-7.70907e-05,0.0329872,0.023939558527713567,0.04499186427114088,-0.00012856273510319927,-0.003122315403110476,-7.70877285882765e-05,-0.018923067535684734
59,108.6,555.137,188.721,-0.000173706,323.687,-0.986487,-0.567092,0.0242943,-0.0032211,-0.019641,0.0452072,-0.000132639,-7.95376e-05,0.0339601,0.024591810893695998,0.04624461933679136,-0.00013263020383669222,-0.0032159178229916874,-7.953443696895324e-05,-0.019449372197475667
60,111.5,557.527,189.54,-0.00018028,325.086,-0.989704,-0.568945,0.0249305,-0.00331495,-0.0201772,0.0464041,-0.000136694,-8.19777e-05,0.0349324,0.025243863599759164,0.0474976192298775,-0.00013668465780081185,-0.0033094616194927484,-8.197433992018777e-05,-0.01997500251002271
61,114.3,559.864,190.341,-0.000186823,326.455,-0.992533,-0.570576,0.0255661,-0.00340875,-0.0207129,0.0476,-0.000140737,-8.44103e-05,0.0359041,0.025895715736127256,0.048751070984803135,-0.00014072709701296038,-0.0034029468074688873,-8.440673755083505e-05,-0.020499861305198097
62,117.1,562.152,191.124,-0.000193301,327.793,-0.994991,-0.571996,0.0262011,-0.0035025,-0.0212482,0.0487947,-0.000144766,-8.68348e-05,0.0368752,0.026547366392806415,0.05000476263289766,-0.00014475552190817975,-0.0034963734017656733,-8.683102996787095e-05,-0.02102404741851127
63,120.0,564.393,191.89,-0.000151743,329.103,-0.997064,-0.573313,0.0268354,-0.00359619,-0.021783,0.0499883,-0.000148781,-8.92509e-05,0.0378456,0.02719871193971124,0.05125879657615062,-0.00014876993265589,-0.0035897314531153635,-8.924691725686884e-05,-0.021547463783940568
64,122.8,566.587,192.64,-3.72997e-05,330.386,-0.999224,-0.574669,0.0274691,-0.00368982,-0.0223175,0.0511808,-0.00015279,-9.16597e-05,0.0388154,0.027849854056056778,0.05251317046284831,-0.00015277832820237425,-0.003683020979142193,-9.165549937806272e-05,-0.022070306922271743
65,125.7,568.737,193.376,-0.000213325,331.644,-1.0016,-0.57581,0.0281022,-0.00378338,-0.0228514,0.0523721,-0.000156794,-9.40598e-05,0.0397845,0.028500791831270078,0.053767776560565306,-0.00015678170846311623,-0.0037762320352182632,-9.405537651563378e-05,-0.022592284231164106
66,128.5,570.844,194.098,-0.000220171,332.877,-1.00386,-0.577119,0.0287347,-0.00387688,-0.0233849,0.0535624,-0.000160787,-9.6457e-05,0.0407529,0.02915152435456969,0.05502282313779494,-0.0001607740744630215,-0.0038693746030400433,-9.645234817312609e-05,-0.02311359217626785
67,131.3,572.911,194.806,-0.000227091,334.087,-1.00615,-0.57844,0.0293665,-0.00397032,-0.023918,0.0547515,-0.000164773,-9.88494e-05,0.0417207,0.029801947734766854,0.05627809695192565,-0.000164759425674732,-0.003962448700187582,-9.884451455899335e-05,-0.023634231531528105
68,134.2,574.939,195.501,-0.000234048,335.274,-1.00846,-0.579775,0.0299977,-0.00406368,-0.0244506,0.0559396,-0.000168751,-0.000101237,0.0426877,0.0304521639108144,0.05753380676561748,-0.00016873676235085178,-0.0040554344253357355,-0.00010123187570776349,-0.02415410548509167
69,137.0,576.929,196.184,-0.000241051,336.44,-1.01079,-0.581121,0.0306283,-0.00415697,-0.0249827,0.0571265,-0.000172722,-0.000103621,0.0436541,0.03110217197137799,0.05878973882630989,-0.000172707084414081,-0.004148341760128238,-0.00010361563152960773,-0.024673214964238133
70,139.9,578.883,196.855,-0.0002481,337.585,-1.01315,-0.58248,0.0312583,-0.0042502,-0.0255144,0.0583123,-0.000176687,-0.000106,0.0446198,0.03175197100492344,0.0600459963865132,-0.0001766713917712437,-0.0042411806824722564,-0.00010599438219849322,-0.02519165837544679
71,142.7,580.802,197.514,-0.000255198,338.709,-1.01552,-0.583851,0.0318876,-0.00434335,-0.0260457,0.059497,-0.000180645,-0.000108376,0.0455847,0.03240145685956697,0.06130257706702946,-0.00018062868467438875,-0.004333931296564786,-0.00010837012753339703,-0.025709436487416748
72,145.5,582.687,198.162,-0.000262344,339.815,-1.01792,-0.585234,0.0325163,-0.00443642,-0.0265765,0.0606806,-0.000184597,-0.000110748,0.0465489,0.03305073173366502,0.06255947848477117,-0.00018457996302201352,-0.004426593625470598,-0.00011074186766657501,-0.026226452690289892
73,148.4,584.54,198.799,-0.00026954,340.901,-1.02033,-0.58663,0.0331445,-0.00452942,-0.0271068,0.0618631,-0.000188542,-0.000113116,0.0475124,0.03369989808514262,0.06381669825276903,-0.00018852422707404948,-0.004519177647039685,-0.00011310960262644887,-0.026742707905259788
74,151.2,586.362,199.426,-0.000276786,341.97,-1.02277,-0.588037,0.033772,-0.00462235,-0.0276366,0.0630445,-0.000192483,-0.000115482,0.0484752,0.03434874832666335,0.06507423398017664,-0.00019246447633580743,-0.004611683381515408,-0.00011547533221045736,-0.027258203051889307
75,154.1,588.154,200.043,-0.000284084,343.022,-1.02523,-0.589456,0.0343989,-0.0047152,-0.028166,0.0642248,-0.000196418,-0.000117843,0.0494372,0.03499738485086468,0.06633208327227647,-0.00019639871124743635,-0.004704100896164021,-0.0001178360567863912,-0.02777303627081651
76,156.9,589.917,200.651,-0.000291433,344.057,-1.02771,-0.590887,0.0350251,-0.00480797,-0.028695,0.065404,-0.000200348,-0.000120202,0.0503985,0.03564570318054239,0.06759024373048672,-0.00020032793167956697,-0.004796430213962255,-0.00012019477602898121,-0.028287208324130564
77,159.7,591.652,201.249,-0.000298836,345.075,-1.03021,-0.592329,0.0356508,-0.00490066,-0.0292234,0.0665821,-0.000204274,-0.000122558,0.051359,0.03629390946721145,0.06884871295236628,-0.00020425313748695384,-0.004888671357863861,-0.00012255049007503516,-0.02880052573284919
78,162.6,593.359,201.838,-0.000306292,346.078,-1.03272,-0.593783,0.0362758,-0.00499328,-0.0297515,0.0677591,-0.000208194,-0.000124911,0.0523188,0.03694179560395616,0.07010748853162152,-0.0002081723291330606,-0.004980834300990944,-0.0001249031989457583,-0.029313280770325245
79,165.4,595.041,202.418,-0.000313802,347.066,-1.03526,-0.595248,0.0369003,-0.00508581,-0.030279,0.068935,-0.000212111,-0.000127262,0.0532779,0.037589568001189066,0.0713665680581117,-0.0002120885060521438,-0.005072899164946354,-0.00012725390253509605,-0.029825182988638677
80,168.3,596.696,202.99,-0.000321368,348.039,-1.03782,-0.596725,0.0375241,-0.00517827,-0.0308061,0.0701098,-0.000216024,-0.00012961,0.0542361,0.03823701829245918,0.07262594911785558,-0.0002160006684956972,-0.0051648858720785285,-0.00012960160098673956,-0.030336427384388465
81,171.1,598.327,203.554,-0.00032899,348.998,-1.0404,-0.598213,0.0381473,-0.00527064,-0.0313327,0.0712836,-0.000219932,-0.000131956,0.0551937,0.03888424925848044,0.07388573668160614,-0.00021990781673053572,-0.005256774547626741,-0.0001319472941898603,-0.030846917797804907
82,173.9,599.934,204.109,-0.00033667,349.943,-1.043,-0.599713,0.0387699,-0.00536293,-0.0318589,0.0724562,-0.000223838,-0.0001343,0.0561504,0.039531259985607914,0.07514571367657963,-0.0002238129501438424,-0.005348575163699132,-0.00013429098215866908,-0.03135675200051724
83,176.8,601.518,204.657,-0.000344406,350.874,-1.04561,-0.601224,0.0393919,-0.00545514,-0.0323846,0.0736278,-0.000227739,-0.000136642,0.0571064,0.04017804956002413,0.0764060925805139,-0.00022771306944235903,-0.005440287743109895,-0.00013663266490704373,-0.031865833932080534
84,179.6,603.079,205.198,-0.000352202,351.793,-1.04825,-0.602746,0.0400133,-0.00554726,-0.0329098,0.0747983,-0.000231638,-0.000138981,0.0580616,0.04082461706773999,0.07766676357564517,-0.00023161117398973197,-0.0055319023639687215,-0.0001389713425882233,-0.03237416449680841
85,182.5,604.619,205.731,-0.000360056,352.699,-1.05091,-0.604279,0.0406341,-0.00563931,-0.0334345,0.0759677,-0.000235534,-0.000141319,0.0590161,0.04147096159459873,0.0789277242289681,-0.00023550626404500452,-0.005623438939320602,-0.00014130901494047166,-0.03288174459741244
86,185.3,606.137,206.257,-0.000367971,353.593,-1.05358,-0.605823,0.0412543,-0.00573127,-0.0339588,0.077136,-0.000239427,-0.000143655,0.0599697,0.04211708222627686,0.08018897210367171,-0.00023939833964314872,-0.005714877603461566,-0.00014364468211447434,-0.033388671796142466
87,188.1,607.635,206.777,-0.000375947,354.475,-1.05628,-0.607378,0.0418739,-0.00582314,-0.0344827,0.0783032,-0.000243317,-0.00014599,0.0609226,0.042762978048286104,0.08145050475914739,-0.00024328740081935862,-0.005806218381853134,-0.0001459793439784196,-0.033894946840660745
88,191.0,609.112,207.29,-0.000383984,355.345,-1.05899,-0.608943,0.0424929,-0.00591493,-0.035006,0.0794694,-0.000247205,-0.000148323,0.0618747,0.043408648145977224,0.082712428022232,-0.00024717444736155336,-0.0058974712409538554,-0.00014831200068765593,-0.034400377357550194
89,193.8,610.57,207.796,-0.000392083,356.204,-1.06172,-0.61052,0.0431113,-0.00600663,-0.0355289,0.0806345,-0.000251091,-0.000150655,0.062826,0.04405409160453888,0.08397463142593109,-0.0002510594792930476,-0.00598862626331953,-0.00015064365210526454,-0.0349051574139827
90,196.7,612.009,208.296,-0.000400246,357.053,-1.06447,-0.612108,0.0437291,-0.00609825,-0.0360514,0.0817985,-0.000254974,-0.000152986,0.0637766,0.04469930750900297,0.08523711251836241,-0.00025494149689209156,-0.0060796934135314284,-0.0001529742982385729,-0.035409287753713214
91,199.5,613.429,208.79,-0.000408473,357.89,-1.06724,-0.613706,0.0443462,-0.00618978,-0.0365733,0.0829615,-0.000258856,-0.000155315,0.0647263,0.04534419040982085,0.08649997749386196,-0.0002588224996762367,-0.006170662775916935,-0.00015530293924970184,-0.035912576301864285
92,202.3,614.832,209.278,-0.000416764,358.717,-1.07003,-0.615315,0.0449628,-0.00628123,-0.0370948,0.0841234,-0.000262736,-0.000157644,0.0656753,0.045988948396086915,0.08776311549562998,-0.00026270148791973646,-0.006261544313184375,-0.00015763157483750234,-0.03641521681841653
93,205.2,616.216,209.76,-0.000425121,359.534,-1.07284,-0.616935,0.0455788,-0.00637259,-0.0376159,0.0852842,-0.000266615,-0.000159971,0.0666235,0.04663347608244539,0.08902652406056255,-0.00026657946137931265,-0.006352328111428829,-0.00015995820532177518,-0.03691721004323811
94,208.0,617.584,210.236,-0.000433544,360.342,-1.07566,-0.618565,0.0461942,-0.00646387,-0.0381365,0.086444,-0.000270492,-0.000162298,0.0675709,0.04727777255331689,0.0902903097508263,-0.00027045542033721226,-0.006443024131489672,-0.00016228483039204544,-0.037418460456885905
95,210.9,618.935,210.707,-0.000442034,361.139,-1.0785,-0.620205,0.046809,-0.00655505,-0.0386566,0.0876026,-0.000274368,-0.000164624,0.0685175,0.04792183689297391,0.09155425216415547,-0.00027433036454227455,-0.006533612526561483,-0.00016461045021276544,-0.03791896894708713
96,213.7,620.27,211.172,-0.000450592,361.928,-1.08137,-0.621857,0.0474232,-0.00664615,-0.0391762,0.0887603,-0.000278243,-0.000166949,0.0694633,0.04856566818554353,0.09281867629257023,-0.0002782042940063789,-0.006624113192092551,-0.0001669350647911516,-0.038418736399993825
97,216.5,621.589,211.633,-0.000459218,362.707,-1.08425,-0.623518,0.0480369,-0.00673716,-0.0396954,0.0899168,-0.000282116,-0.000169274,0.0704084,0.049209370435941535,0.0940832521917696,-0.0002820762090232076,-0.006714516217698918,-0.00016925967396475006,-0.038917859808405675
98,219.4,622.893,212.088,-0.000467914,363.477,-1.08714,-0.62519,0.0486499,-0.00682809,-0.0402141,0.0910724,-0.00028599,-0.000171598,0.0713526,0.04985273295048298,0.09534830560508412,-0.0002859491087582322,-0.006804831560489832,-0.00017158327790522954,-0.03941624384744846
99,222.2,624.181,212.538,-0.000476679,364.239,-1.09006,-0.626873,0.0492623,-0.00691892,-0.0407324,0.0922268,-0.000289862,-0.000173921,0.072296,0.05049585966944381,0.09661350582213535,-0.0002898199940691848,-0.006895039380788948,-0.00017390587661958445,-0.03991398540739455
100,225.1,625.455,212.983,-0.000485516,364.992,-1.09299,-0.628566,0.0498742,-0.00700967,-0.0412502,0.0933802,-0.000293734,-0.000176245,0.0732387,0.05113885479027025,0.09787906955005066,-0.00029369086439223757,-0.006985159566699872,-0.00017622946976225684,-0.04041098926034847
101,227.9,626.714,213.423,-0.000494423,365.736,-1.09595,-0.630269,0.0504855,-0.00710033,-0.0417675,0.0945326,-0.000297606,-0.000178568,0.0741805,0.05178161241105417,0.09914499467575921,-0.0002975617197271685,-0.007075182211345621,-0.00017855205768357862,-0.040907256285071414
102,230.7,627.959,213.859,-0.000503403,366.473,-1.09892,-0.631982,0.0510961,-0.0071909,-0.0422844,0.0956839,-0.000301477,-0.000180891,0.0751216,0.05242402637261523,0.10041116904154457,-0.00030143156037565344,-0.007165107339771604,-0.00018087464020943855,-0.04140288321848151
103,233.6,629.191,214.29,-0.000512456,367.202,-1.1019,-0.633706,0.0517062,-0.00728138,-0.0428008,0.0968342,-0.000305348,-0.000183214,0.0760618,0.053066306178637834,0.10167770031509993,-0.00030530138604412116,-0.007254934976995919,-0.00018319721733994765,-0.04189777497753744
104,236.4,630.409,214.717,-0.000521583,367.923,-1.10491,-0.63544,0.0523157,-0.00737178,-0.0433167,0.0979834,-0.000309219,-0.000185537,0.0770013,0.05370834573393224,0.10294447607824031,-0.00030917119673246063,-0.007344675074560492,-0.00018551978907521693,-0.042391932436549706
105,239.3,631.614,215.139,-0.000530784,368.636,-1.10793,-0.637183,0.0529246,-0.00746208,-0.0438322,0.0991315,-0.000313091,-0.000187859,0.07794,0.054350144121339206,0.10421149382358763,-0.0003130419921276717,-0.007434307803422691,-0.00018784135560290238,-0.04288545217973594
106,242.1,632.806,215.557,-0.000540061,369.342,-1.11097,-0.638937,0.053533,-0.0075523,-0.0443472,0.100279,-0.000316962,-0.000190182,0.0788779,0.05499180592274988,0.10547930377959602,-0.00031691177285220196,-0.007523853040726225,-0.00019016391654980147,-0.04337823926829665
107,244.9,633.985,215.971,-0.000549414,370.041,-1.11403,-0.640702,0.0541407,-0.00764242,-0.0448618,0.101425,-0.000320834,-0.000192506,0.0798149,0.05563311928653847,0.10674690926093766,-0.0003207825382760543,-0.007613290960956864,-0.00019248747190880877,-0.043870390185077546
108,247.8,635.152,216.381,-0.000558843,370.733,-1.11711,-0.642476,0.0547479,-0.00773246,-0.0453759,0.10257,-0.000324707,-0.000194829,0.0807512,0.0562742943576211,0.10801486023544804,-0.0003246542883875714,-0.007702641437620006,-0.00019481002206278575,-0.0443618100871741
109,250.6,636.307,216.787,-0.00056835,371.417,-1.1202,-0.64426,0.0553545,-0.00782241,-0.0458895,0.103714,-0.00032858,-0.000197153,0.0816867,0.05691522471910382,0.10928315456159021,-0.0003285260235039722,-0.007791894570802982,-0.00019713356662431902,-0.044852499841598004
110,253.5,637.45,217.189,-0.000577935,372.095,-1.12331,-0.646054,0.0559605,-0.00791226,-0.0464027,0.104857,-0.000332453,-0.000199477,0.0826214,0.057555909453151255,0.11055179009434357,-0.0003323977436250347,-0.007881040464136402,-0.00019945710578594955,-0.045342555779569915
111,256.3,638.582,217.587,-0.000587599,372.766,-1.12644,-0.647858,0.056566,-0.00800203,-0.0469155,0.105999,-0.000336328,-0.000201802,0.0835553,0.05819645346145341,0.1118207646852103,-0.0003362714480784623,-0.007970098985682461,-0.00020178163934592153,-0.04583197861822519
112,259.1,639.702,217.981,-0.000597344,373.431,-1.12958,-0.649672,0.0571708,-0.00809171,-0.0474277,0.10714,-0.000340203,-0.000204127,0.0844884,0.05883664425068735,0.11309007618221756,-0.0003401451375214526,-0.008059060238123306,-0.00020410616750132782,-0.04632057833770675
113,262.0,640.812,218.372,-0.000607168,374.09,-1.13274,-0.651496,0.0577751,-0.0081813,-0.0479395,0.10828,-0.00034408,-0.000206453,0.0854207,0.059476692605940906,0.11435972242992354,-0.0003440208112656107,-0.008147924246193816,-0.0002064316900458607,-0.04680854658398781
114,264.8,641.91,218.759,-0.000617074,374.742,-1.13592,-0.65333,0.0583789,-0.0082708,-0.0484509,0.109418,-0.000347957,-0.000208779,0.0863522,0.06011659780087375,0.11562858564027967,-0.00034789646998401036,-0.008236691034600785,-0.00020875720718116497,-0.04729588407044838
115,267.7,642.998,219.142,-0.000627062,375.388,-1.13912,-0.655173,0.058982,-0.00836021,-0.0489618,0.110556,-0.000351836,-0.000211107,0.0872829,0.06075614695767029,0.11689889363889727,-0.0003517741129728247,-0.008325360628022027,-0.00021108471848518828,-0.04778249628760134
116,270.5,644.075,219.522,-0.000637133,376.028,-1.14233,-0.657027,0.0595846,-0.00844953,-0.0494722,0.111693,-0.000355717,-0.000213434,0.0882128,0.061395551244989965,0.11816952990079299,-0.00035565374020907203,-0.008413933051107603,-0.00021341122458407025,-0.04826838409238021
117,273.3,645.142,219.899,-0.000647288,376.662,-1.14556,-0.65889,0.0601866,-0.00853876,-0.0499822,0.112829,-0.000359598,-0.000215763,0.0891419,0.06203470373243558,0.1194404922566974,-0.00035953335238858575,-0.00850240832847804,-0.00021573972483779347,-0.04875364346483524
118,276.2,646.199,220.272,-0.000657527,377.29,-1.14881,-0.660763,0.060788,-0.0086279,-0.0504918,0.113964,-0.000363481,-0.000218093,0.0900702,0.06267360350116413,0.12071177853389603,-0.0003634149487843352,-0.008590786484726776,-0.00021806921945044522,-0.049238275113493546
119,279.0,647.247,220.642,-0.000667851,377.912,-1.15208,-0.662646,0.0613889,-0.00871695,-0.0510008,0.115097,-0.000367366,-0.000220424,0.0909977,0.06331235596346518,0.121982264573407,-0.00036729852937344987,-0.00867906754441794,-0.00022039970841492007,-0.04972208969020542
120,281.9,648.284,221.009,-0.000678262,378.529,-1.15536,-0.664538,0.0619891,-0.00880591,-0.0515095,0.11623,-0.000371252,-0.000222755,0.0919245,0.06395074760168051,0.12325419088936362,-0.00037118309450379083,-0.008767251532087239,-0.00022273019194696264,-0.05020537312961526
121,284.0,649.062,221.284,-0.000689473,378.992,-1.15785,-0.665974,0.0624423,-0.00887306,-0.0518935,0.117085,-0.000374188,-0.000224518,0.0926241,0.06443303935955136,0.12421498390305707,-0.00037411800040176857,-0.008833810576401868,-0.00022449279771996622,-0.05057002424883772
