,Time,S11,S22,S33,S12,S13,S23,LE11,LE22,LE33,LE12,LE13,LE23,SDV_EPBAR,E11,E12,E13,E22,E23,E33
0,0.000284,0.0015581,0.000519365,0.0,0.000899567,1.32028e-20,2.67023e-20,6.7501e-09,2.50301e-10,-3.0004e-09,1.1258e-08,6.18106e-26,5.13348e-25,0.0,6.750100034480511e-09,1.1258000087721598e-08,0.0,2.5030089112476617e-10,0.0,-3.0004000395322805e-09
1,0.000568,0.00311619,0.00103873,2.1684e-19,0.00179913,-2.79039e-28,-1.61103e-28,1.35001e-08,5.00425e-10,-6.00057e-09,2.25162e-08,2.06826e-25,-3.58238e-25,0.0,1.3500100148888805e-08,2.2516200237632233e-08,0.0,5.00425034744012e-10,0.0,-6.000569929831556e-09
2,0.000994,0.00545333,0.00181778,2.1684e-19,0.00314848,-6.04799e-21,-2.25714e-20,2.36252e-08,8.75688e-10,-1.05009e-08,3.94034e-08,-4.13622e-25,7.16424e-25,0.0,2.3625200240573463e-08,3.9403400764470575e-08,0.0,8.756879665838824e-10,0.0,-1.0500899927379237e-08
3,0.001633,0.00895905,0.00298635,4.33681e-19,0.00517251,-5.11908e-20,-1.04754e-20,3.88125e-08,1.4375e-09,-1.725e-08,6.47354e-08,3.9316e-32,2.26991e-32,0.0,3.8812500768869995e-08,6.473540214990692e-08,0.0,1.4374998968946784e-09,0.0,-1.7249999872959165e-08
4,0.0025915,0.0142176,0.00473921,-1.30104e-18,0.00820854,3.90948e-20,-3.46674e-20,6.15937e-08,2.28125e-09,-2.7375e-08,1.02732e-07,2.86544e-24,1.65436e-24,0.0,6.159370191660685e-08,1.027320053470504e-07,0.0,2.281250077729169e-09,0.0,-2.7374999600482397e-08
5,0.0040292,0.0221055,0.00736849,-1.30104e-18,0.0127626,-7.53827e-20,-1.00761e-19,9.57656e-08,3.54688e-09,-4.25625e-08,1.59728e-07,2.30786e-31,1.33244e-31,0.0,9.576560455748506e-08,1.597280128162737e-07,0.0,3.5468799008953056e-09,0.0,-4.256249908074494e-08
6,0.0061859,0.0339373,0.0113124,-4.77049e-18,0.0195937,1.20526e-19,8.8665e-20,1.47024e-07,5.44671e-09,-6.53456e-08,2.45219e-07,-6.61761e-24,1.14621e-23,0.0,1.4702401074373483e-07,2.452190299706558e-07,0.0,5.446709971934638e-09,0.0,-6.534559782167548e-08
7,0.0094208,0.0516849,0.0172283,7.37257e-18,0.0298403,1.86619e-19,-2.58125e-20,2.2391e-07,8.29297e-09,-9.95156e-08,3.7346e-07,-6.95067e-31,-4.01297e-31,0.0,2.2391002496569e-07,3.734600697580248e-07,0.0,8.292970088419338e-09,0.0,-9.951559509779884e-08
8,0.014273,0.0783064,0.0261021,-1.30104e-18,0.0452102,1.86619e-19,-2.58125e-20,3.39241e-07,1.25671e-08,-1.50777e-07,5.65816e-07,2.64704e-23,-4.58482e-23,0.0,3.392410574676319e-07,5.658161601473921e-07,0.0,1.2567100027283118e-08,0.0,-1.5077698867216327e-07
9,0.021552,0.118239,0.0394129,1.25767e-17,0.0682651,-8.0004e-19,6.25633e-19,5.12236e-07,1.89735e-08,-2.27663e-07,8.54355e-07,-6.61759e-24,1.1462e-23,0.0,5.122361312892565e-07,8.543553648987512e-07,0.0,1.8973500104380037e-08,0.0,-2.276629741393421e-07
10,0.03247,0.178137,0.059379,-1.30104e-18,0.102847,-4.23358e-20,-1.58e-19,7.71729e-07,2.8587e-08,-3.42996e-07,1.28716e-06,1.86326e-30,1.07575e-30,0.0,7.717292977993395e-07,1.2871608283671065e-06,0.0,2.858700032248862e-08,0.0,-3.429959412049044e-07
11,0.048847,0.267985,0.0893282,-4.29344e-17,0.154721,2.05368e-18,4.41588e-19,1.16097e-06,4.30043e-08,-5.15992e-07,1.93637e-06,4.58471e-23,2.64698e-23,0.0,1.1609706738191505e-06,1.9363718748444114e-06,0.0,4.300430100911967e-08,0.0,-5.159918669006558e-07
12,0.073412,0.402756,0.134252,-1.51788e-17,0.232531,2.58243e-18,-4.74234e-19,1.74483e-06,6.46307e-08,-7.75487e-07,2.91018e-06,4.93934e-23,-3.26124e-23,0.0,1.744831522154655e-06,2.910184234483637e-06,0.0,6.463070212348043e-08,0.0,-7.754866993003873e-07
13,0.1103,0.604912,0.201637,-1.51788e-17,0.349246,1.27953e-18,-2.44755e-18,2.62061e-06,9.70596e-08,-1.16471e-06,4.37091e-06,6.3275e-30,3.65319e-30,0.0,2.62061343381248e-06,4.370919552521002e-06,0.0,9.705960479777787e-08,0.0,-1.1647093217659332e-06
14,0.1655,0.908146,0.302715,4.03323e-17,0.524319,-4.21537e-18,-5.62004e-18,3.93429e-06,1.45719e-07,-1.74858e-06,6.56199e-06,-9.87872e-23,6.52263e-23,0.0,3.934297739371928e-06,6.562011529931411e-06,0.0,1.4571901063575865e-07,0.0,-1.748578471238993e-06
15,0.2484,1.363,0.454332,-2.09468e-16,0.786926,1.22694e-17,3.89742e-18,5.90479e-06,2.18705e-07,-2.62436e-06,9.8486e-06,7.75059e-23,2.8927e-22,0.0,5.904807433232406e-06,9.848648497623458e-06,0.0,2.1870502386889257e-07,0.0,-2.624356556402141e-06
16,0.3728,2.04527,0.681756,2.34621e-16,1.18084,-2.38375e-18,-4.56255e-18,8.86055e-06,3.28182e-07,-3.93804e-06,1.47785e-05,-2.4013e-22,8.39438e-22,0.0,8.860589254755524e-06,1.4778609202625859e-05,0.0,3.281820537548441e-07,0.0,-3.938032245964784e-06
17,0.5593,3.06867,1.02289,4.56666e-16,1.7717,1.53658e-17,1.54539e-17,1.32942e-05,4.92389e-07,-5.90853e-06,2.21733e-05,1.55012e-22,5.78537e-22,0.0,1.3294288368159712e-05,2.2173545829451413e-05,0.0,4.923891212538223e-07,0.0,-5.908512544672284e-06
18,0.8392,4.60377,1.53459,2.34621e-16,2.65799,5.31314e-17,1.77204e-17,1.99445e-05,7.38697e-07,-8.86424e-06,3.32654e-05,1.58058e-21,-1.04362e-21,0.0,1.9944698892881974e-05,3.326595329955495e-05,0.0,7.38697272906208e-07,0.0,-8.864200712777048e-06
19,1.259,6.90638,2.30213,-1.31969e-15,3.9874,2.38248e-17,8.00221e-19,2.99199e-05,1.10814e-06,-1.32977e-05,4.99034e-05,-1.31371e-26,-7.5847e-27,0.0,2.992034760462836e-05,4.990464519538662e-05,0.0,1.1081406139368255e-06,0.0,-1.3297611585971758e-05
20,1.888,10.3602,3.45341,-4.65036e-15,5.98148,-2.24011e-17,1.31867e-17,4.48827e-05,1.66234e-06,-1.99479e-05,7.48599e-05,-3.16123e-21,2.08725e-21,0.0,4.4883707243537074e-05,7.486270207235357e-05,0.0,1.6623413816585497e-06,0.0,-1.994770104196686e-05
21,2.833,15.5409,5.18029,-2.86312e-14,8.97252,5.76643e-17,-5.78126e-17,6.73263e-05,2.49357e-06,-2.99228e-05,0.000112294,-7.33604e-22,-4.23546e-22,0.0,6.732856646629592e-05,0.00011230030520725798,0.0,2.4935731088859825e-06,0.0,-2.9922352317468537e-05
22,4.249,93.5787,31.1929,-1.03265e-09,54.0277,3.28372e-16,-5.26719e-16,0.000405403,1.5015e-05,-0.000180179,0.000676171,6.77731e-21,-1.17391e-20,0.0,0.00040548518690219915,0.0006763996551444329,0.0,1.5015112725613733e-05,0.0,-0.00018016276873877857
23,6.374,211.097,70.3658,-9.04826e-07,121.877,5.76346e-17,-5.78297e-17,0.000914519,3.38711e-05,-0.000406453,0.00152533,-4.01543e-25,-2.31831e-25,0.0,0.0009149373000056915,0.0015264939075101402,0.0,3.3871673632113186e-05,0.0,-0.00040637040916957634
24,9.214,362.764,120.992,0.000489292,209.504,-0.00845794,-0.00488161,0.00159354,5.50523e-05,-0.000717156,0.00266306,-1.07778e-07,-6.22559e-08,3.40276e-05,0.0015948103595657681,0.002666609094065908,-1.077779941960344e-07,5.50538154056035e-05,-6.22558981033805e-08,-0.0007168989050986285
25,12.05,380.391,127.287,8.79314e-05,220.043,-0.137444,-0.0792547,0.00225631,-3.23896e-05,-0.00124643,0.00388932,-2.48816e-06,-1.45554e-06,0.00094016,0.002258857382942958,0.003896893220073583,-2.4881569045120955e-06,-3.238907546254666e-05,-1.4555389407089336e-06,-0.0012456535287667103
26,14.89,394.871,132.46,7.97236e-05,228.703,-0.243173,-0.140157,0.00291778,-0.000122086,-0.00178036,0.00511681,-5.14377e-06,-3.02181e-06,0.00186616,0.0029220408631436268,0.005129923228714306,-5.143756770853436e-06,-0.000122078547807547,-3.021805434322289e-06,-0.0017787760992458157
27,17.73,407.199,136.857,3.09146e-05,236.07,-0.329835,-0.190039,0.00357812,-0.000213275,-0.0023173,0.00634478,-8.0047e-06,-4.71771e-06,0.00280547,0.0035845291132794443,0.00636495075372423,-8.004667962469014e-06,-0.00021325225850388208,-4.717698871670173e-06,-0.0023146171330908905
28,20.57,417.959,140.688,1.09586e-05,242.494,-0.402454,-0.231812,0.00423742,-0.000305482,-0.0028563,0.00757281,-1.10453e-05,-6.52617e-06,0.00375421,0.004246410558566893,0.007601556243111984,-1.1045239000861962e-05,-0.00030543534512472714,-6.526148704555368e-06,-0.0028522246562131537
29,23.41,427.524,144.087,1.1583e-06,248.199,-0.4644,-0.267425,0.00489574,-0.000398414,-0.00339673,0.00880064,-1.4242e-05,-8.43195e-06,0.00470989,0.004907743716103807,0.008839479486040469,-1.424189858323377e-05,-0.00039833464368144167,-8.431914451212386e-06,-0.003390967638894904
30,26.25,436.145,147.146,-4.97827e-06,253.336,-0.517998,-0.298226,0.00555313,-0.000491876,-0.00393817,0.0100281,-1.75742e-05,-1.04218e-05,0.00567083,0.005568577206610303,0.010078549892639899,-1.7574045574675345e-05,-0.0004917550488320321,-1.0421745693212081e-05,-0.003930425578144381
31,29.09,444.002,149.93,-9.76319e-06,258.015,-0.564915,-0.325177,0.00620963,-0.000585735,-0.00448032,0.011255,-2.10238e-05,-1.24844e-05,0.00663585,0.006228949721106547,0.011318575803848985,-2.1023579001466786e-05,-0.0005855634907429019,-1.248432207023864e-05,-0.004470298338684953
32,31.93,451.227,152.485,-1.41131e-05,262.314,-0.606379,-0.348988,0.00686527,-0.000679895,-0.00502297,0.0124812,-2.45755e-05,-1.461e-05,0.00760407,0.006888889987679558,0.012559415244687067,-2.4575198024900935e-05,-0.0006796639237666158,-1.4609893274508678e-05,-0.005010375981472137
33,34.77,457.92,154.849,-1.84144e-05,266.293,-0.643315,-0.370192,0.00752008,-0.000774285,-0.00556595,0.0137067,-2.82158e-05,-1.67903e-05,0.00857481,0.007548426813820841,0.013801067475075701,-2.8215401938092022e-05,-0.000773985318720527,-1.6790159043655883e-05,-0.005550488799022757
34,37.61,464.158,157.05,-2.28335e-05,270.0,-0.676437,-0.389204,0.00817407,-0.000868852,-0.00610913,0.0149315,-3.19336e-05,-1.90183e-05,0.00954757,0.008207568922153463,0.015043531752320538,-3.1933090128055674e-05,-0.000868474657393925,-1.901811915328011e-05,-0.006090507207639928
35,40.45,470.004,159.11,-2.74393e-05,273.471,-0.706308,-0.406345,0.00882727,-0.000963555,-0.00665241,0.0161554,-3.57187e-05,-2.12878e-05,0.0105219,0.00886634523909513,0.016286604073769695,-3.571806209479167e-05,-0.0009630909299452872,-2.1287573416350902e-05,-0.006630331705679837
36,43.29,475.507,161.046,-3.22554e-05,276.736,-0.733375,-0.421875,0.0094797,-0.00105836,-0.0071957,0.0173784,-3.95627e-05,-2.35935e-05,0.0114976,0.009524774674922076,0.017530282945164455,-3.956191740672743e-05,-0.0010578001345856736,-2.359322167555522e-05,-0.007169872935818944
37,46.13,480.707,162.874,-3.72839e-05,279.82,-0.758001,-0.436002,0.0101314,-0.00115324,-0.00773895,0.0186005,-4.3458e-05,-2.59308e-05,0.0124742,0.01018289639624781,0.018774566868778653,-4.345705571473513e-05,-0.0011525752743051232,-2.5930463799728187e-05,-0.007709081426579334
38,48.97,485.639,164.605,-4.25166e-05,282.742,-0.780483,-0.448898,0.0107823,-0.00124818,-0.0082821,0.0198216,-4.73979e-05,-2.82955e-05,0.0134517,0.010840638482451759,0.020019352341479335,-4.739677673726295e-05,-0.0012474013473436907,-2.829509968615973e-05,-0.008247897896673129
39,51.81,490.33,166.249,-4.79407e-05,285.521,-0.801068,-0.460704,0.0114325,-0.00134316,-0.0088251,0.0210418,-5.13767e-05,-3.06841e-05,0.0144297,0.011498100783424725,0.021264739611459582,-5.137538023991528e-05,-0.0013422583643326602,-3.068362924785184e-05,-0.008786273106017761
40,54.65,494.804,167.816,-5.35414e-05,288.169,-0.819961,-0.47154,0.0120819,-0.00143817,-0.00936791,0.0222609,-5.5389e-05,-3.30934e-05,0.0154082,0.012155180980921498,0.022510522668291566,-5.5387466057599255e-05,-0.0014371363291163508,-3.309285241948068e-05,-0.00932416782858847
41,57.49,499.082,169.313,-5.93033e-05,290.701,-0.837338,-0.481505,0.0127306,-0.00153319,-0.0099105,0.0234791,-5.94303e-05,-3.55205e-05,0.0163869,0.012811979056247313,0.02375690400374042,-5.9428534054717375e-05,-0.0015320152646527418,-3.551986915451e-05,-0.009861552825319642
42,60.33,503.182,170.746,-6.52115e-05,293.125,-0.853346,-0.490685,0.0133787,-0.00162821,-0.0104528,0.0246962,-6.34963e-05,-3.79629e-05,0.0173659,0.013468595253369076,0.025003677101464783,-6.349428415264313e-05,-0.0016268851852210275,-3.796217941820501e-05,-0.010398359336981189
43,63.17,507.118,172.12,-7.12515e-05,295.451,-0.868113,-0.499154,0.014026,-0.00172323,-0.0109949,0.0259123,-6.75833e-05,-4.04183e-05,0.018345,0.014124825841193234,0.026250942319088644,-6.758101630022217e-05,-0.001721746091677745,-4.0417483191501624e-05,-0.010934677004346693
44,66.01,510.905,173.441,-7.74094e-05,297.688,-0.881749,-0.506974,0.0146726,-0.00181823,-0.0115367,0.0271274,-7.16879e-05,-4.28846e-05,0.0193241,0.014780770997797177,0.02749869775939584,-7.16853304838505e-05,-0.001816578021211046,-4.288368046867497e-05,-0.011470407453861853
45,68.85,514.554,174.712,-8.36725e-05,299.842,-0.89435,-0.514201,0.0153185,-0.00191322,-0.0120782,0.0283413,-7.5807e-05,-4.53598e-05,0.0203031,0.015436429619942293,0.02874673577202347,-7.580412672192338e-05,-0.0019113909612528124,-4.535877125977361e-05,-0.012005551324946073
46,71.69,518.075,175.937,-9.00285e-05,301.919,-0.905999,-0.520881,0.0159638,-0.00200818,-0.0126193,0.0295542,-7.99378e-05,-4.78424e-05,0.0212819,0.016091902213462905,0.02999525970211736,-7.993460505917316e-05,-0.002006164955626777,-4.784125557066865e-05,-0.0125400105101513
47,74.53,521.478,177.12,-9.64661e-05,303.926,-0.916768,-0.527059,0.0166083,-0.00210312,-0.0131601,0.0307661,-8.40777e-05,-5.03308e-05,0.0222606,0.0167469845220376,0.031244267640842205,-8.407416556921454e-05,-0.0021009099927077335,-5.0329533426540785e-05,-0.013073884499929078
48,77.37,524.77,178.264,-0.000102974,305.867,-0.926724,-0.53277,0.0172522,-0.00219803,-0.0137006,0.0319768,-8.82244e-05,-5.28234e-05,0.023239,0.01740187872593335,0.03249355117686448,-8.822050834200734e-05,-0.002195616100990838,-5.282200486877997e-05,-0.013607173930905159
49,80.21,527.96,179.371,-0.000109544,307.746,-0.935923,-0.538047,0.0178954,-0.0022929,-0.0142406,0.0331865,-9.23756e-05,-5.5319e-05,0.0242171,0.018056482112211336,0.033743314392598256,-9.237133350559201e-05,-0.002290273312755553,-5.531746993236997e-05,-0.014139682266791853
50,83.05,531.054,180.443,-0.000116164,309.567,-0.944417,-0.54292,0.018538,-0.00238773,-0.0147803,0.034395,-9.65294e-05,-5.78164e-05,0.0251949,0.018710895448102338,0.034993348368935084,-9.652474118737597e-05,-0.002384881640212666,-5.781472866417392e-05,-0.014671607527329544
51,85.89,534.058,181.483,-0.000122826,311.335,-0.95225,-0.547415,0.0191799,-0.00248252,-0.0153196,0.0356025,-0.000100684,-6.03143e-05,0.0261723,0.019365015889385884,0.03624385768014449,-0.0001006789315360912,-0.0024794410955656376,-6.0312481129143336e-05,-0.015202851866478073
52,88.73,536.977,182.493,-0.000129523,313.052,-0.959464,-0.551556,0.0198211,-0.00257727,-0.0158586,0.0368088,-0.000104837,-6.28119e-05,0.0271492,0.02001884233193052,0.037494632899064184,-0.00010483150479367875,-0.002573951691011822,-6.280992737395241e-05,-0.015733514502894175
53,91.57,539.817,183.474,-0.000136245,314.722,-0.966096,-0.555363,0.0204617,-0.00267198,-0.0163971,0.0380141,-0.000108988,-6.5308e-05,0.0281258,0.02067247573875619,0.03874587909213689,-0.0001089820610236103,-0.002668413438740358,-6.530586747899303e-05,-0.01626339932104226
54,94.41,542.582,184.429,-0.000142985,316.346,-0.972178,-0.558856,0.0211017,-0.00276664,-0.0169352,0.0392182,-0.000113135,-6.78018e-05,0.0291018,0.021325915201552803,0.03999738632387162,-0.00011312860047718587,-0.0027628163785626825,-6.77995015099242e-05,-0.0167926055901515
55,97.25,545.275,185.358,-0.000149737,317.928,-0.977741,-0.562051,0.021741,-0.00286125,-0.0174729,0.0404212,-0.000117276,-7.02925e-05,0.0300774,0.02197905761386809,0.04124925602827023,-0.00011726912343867912,-0.002857160525484792,-7.029002954006547e-05,-0.017321134098502222
56,100.1,547.902,186.263,-0.000156492,319.47,-0.982811,-0.564964,0.0223796,-0.00295581,-0.0180102,0.0416231,-0.00012141,-7.27791e-05,0.0310524,0.022631901871045246,0.04250148588587965,-0.00012140263010418373,-0.002951445894503024,-7.277645166547941e-05,-0.017848985633137415
57,102.9,550.465,187.145,-0.000163245,320.974,-0.987414,-0.56761,0.0230176,-0.00305032,-0.0185471,0.0428239,-0.000125536,-7.5261e-05,0.0320269,0.0232845491967979,0.043754073573268215,-0.0001255281206860026,-0.0030456725006032803,-7.525816796194462e-05,-0.018376160979865497
58,105.8,552.968,188.005,-0.000169989,322.441,-0.991572,-0.570001,0.023655,-0.00314478,-0.0190835,0.0440236,-0.000129652,-7.77375e-05,0.0330009,0.02393699868201704,0.045007016763028096,-0.00012964359554257232,-0.0031398403587606927,-7.773447851877613e-05,-0.01890256281352254
59,108.6,555.413,188.845,-0.000176718,323.875,-0.995305,-0.572149,0.0242917,-0.00323919,-0.0196195,0.0452221,-0.000133759,-8.02079e-05,0.0339742,0.024589146958450936,0.04626020849775836,-0.00013375005466376155,-0.0032339494839412897,-8.02046834323944e-05,-0.019428290132346482
60,111.5,557.804,189.666,-0.000183426,325.275,-0.998633,-0.574065,0.0249279,-0.00333355,-0.0201551,0.0464195,-0.000137853,-8.26715e-05,0.034947,0.02524119796917912,0.04751375081742659,-0.00013784349871170942,-0.0033279998911002195,-8.266808280565918e-05,-0.019953343718249417
61,114.3,560.142,190.467,-0.000190107,326.644,-1.00157,-0.575759,0.0255633,-0.00342785,-0.0206902,0.0476158,-0.000141936,-8.51277e-05,0.0359191,0.025892843232144802,0.04876764138263057,-0.00014192592756245848,-0.0034219816294017713,-8.512407674010625e-05,-0.020477626399684756
62,117.1,562.431,191.251,-0.000196742,327.984,-1.00414,-0.577241,0.0261982,-0.00352209,-0.0212249,0.048811,-0.000146005,-8.7576e-05,0.0368906,0.02654438940976056,0.050021877850017216,-0.00014599434178863557,-0.003515894716598744,-8.757216533405998e-05,-0.02100123701307599
63,120.0,564.672,192.018,-0.00020246,329.295,-1.00635,-0.578529,0.0268324,-0.00361628,-0.0217592,0.050005,-0.000150059,-9.00159e-05,0.0378615,0.02719563034819772,0.051276352744646925,-0.0001500477417113455,-0.0036097491343322075,-9.001184869039669e-05,-0.02152417633645909
64,122.8,566.868,192.769,0.000165639,330.579,-1.00839,-0.580034,0.0274661,-0.00371041,-0.022293,0.051198,-0.000154105,-9.24498e-05,0.0388317,0.027846770511119834,0.05253127384506895,-0.00015409312643432926,-0.003703534934548447,-9.244552664888772e-05,-0.022046347351287854
65,125.7,569.019,193.505,-0.000217063,331.837,-1.01083,-0.581104,0.0280991,-0.00380448,-0.0228264,0.0523898,-0.000158147,-9.4872e-05,0.0398013,0.028497603483757183,0.0537864284152787,-0.00015813449542234626,-0.0037972521349594057,-9.486749979414899e-05,-0.022567848732827578
66,128.5,571.128,194.227,-0.000224019,333.071,-1.01311,-0.582417,0.0287314,-0.00389848,-0.0233593,0.0535805,-0.000162179,-9.7292e-05,0.0407702,0.029148128160143116,0.0550419192237126,-0.00016216584969686032,-0.003890890792172863,-9.728726728686077e-05,-0.023088583564118803
67,131.3,573.196,194.936,-0.000231072,334.282,-1.0154,-0.583742,0.0293632,-0.00399241,-0.0238918,0.05477,-0.000166203,-9.97072e-05,0.0417384,0.02979854939394655,0.0562976382774758,-0.00016618918904642843,-0.003984450926680316,-9.970222940225426e-05,-0.023608650413283083
68,134.2,575.225,195.632,-0.000238158,335.47,-1.01772,-0.58508,0.0299943,-0.00408628,-0.0244238,0.0559585,-0.000170219,-0.000102118,0.0427059,0.030448660379412962,0.05755379434344743,-0.00017020451356797306,-0.0040779425181752815,-0.00010211278613447838,-0.0241279524646697
69,137.0,577.216,196.315,-0.000245291,336.636,-1.02005,-0.58643,0.0306248,-0.00418007,-0.0249553,0.0571459,-0.000174228,-0.000104524,0.0436727,0.031098563120091738,0.05881027954648732,-0.00017421282318330622,-0.004171345667737358,-0.0001045185375569968,-0.024646490644206764
70,139.9,579.171,196.986,-0.000252471,337.781,-1.02241,-0.587792,0.0312547,-0.00427379,-0.0254864,0.0583321,-0.00017823,-0.000106926,0.0446388,0.031748256704513755,0.06006698550503331,-0.0001782141179770269,-0.004264670355958233,-0.00010692028361891648,-0.025164363359753028
71,142.7,581.091,197.646,-0.000259699,338.907,-1.02479,-0.589167,0.0318839,-0.00436744,-0.0260171,0.0595173,-0.000182225,-0.000109324,0.0456042,0.032397636981243316,0.061324121728021375,-0.00018220839803306799,-0.004357916603255796,-0.00010931802434921423,-0.025681571378831092
72,145.5,582.977,198.294,-0.000266977,340.013,-1.0272,-0.590554,0.0325126,-0.00446102,-0.0265473,0.0607013,-0.000186215,-0.000111719,0.0465689,0.033046909453028794,0.06258147369362543,-0.00018619766306293695,-0.004451084430029395,-0.00011171275966481709,-0.026198018087565278
73,148.4,584.832,198.932,-0.000274305,341.101,-1.02962,-0.591953,0.0331406,-0.00455452,-0.027077,0.0618843,-0.000190198,-0.00011411,0.0475328,0.0336958666634013,0.06383925140583457,-0.0001901799135070048,-0.004544163902101994,-0.00011410348970153361,-0.02671370440580534
74,151.2,586.655,199.56,-0.000281684,342.17,-1.03206,-0.593364,0.033768,-0.00464794,-0.0276063,0.0630661,-0.000194176,-0.000116497,0.048496,0.034344610939944786,0.06509723983209281,-0.0001941571490605698,-0.004637155042626517,-0.00011649021448800756,-0.0272287285289049
75,154.1,588.448,200.177,-0.000289115,343.222,-1.03453,-0.594787,0.0343948,-0.00474129,-0.0281351,0.0642468,-0.000198148,-0.000118881,0.0494585,0.034993141370285974,0.06635554283616285,-0.00019812836998156502,-0.004730067827431461,-0.0001188739339338385,-0.027742993993486453
76,156.9,590.212,200.785,-0.000296598,344.258,-1.03701,-0.596221,0.035021,-0.00483455,-0.0286634,0.0654265,-0.000202115,-0.000121262,0.0504202,0.035641457041863944,0.06761426478120658,-0.00020209457613928894,-0.004822882373296422,-0.00012125464806078678,-0.02825650171475169
77,159.7,591.947,201.383,-0.000304135,345.277,-1.03952,-0.597668,0.0356466,-0.00492774,-0.0291913,0.066605,-0.000206077,-0.00012364,0.0513812,0.03628955704193171,0.0688731898681525,-0.00020605576759347155,-0.004915618607776007,-0.00012363235689016872,-0.028769349729353078
78,162.6,593.656,201.973,-0.000311727,346.28,-1.04204,-0.599126,0.0362715,-0.00502085,-0.0297188,0.0677825,-0.000210035,-0.000126015,0.0523415,0.03693733676382149,0.07013252933982939,-0.00021001294419353833,-0.005008266601233213,-0.00012600706044330057,-0.029281538795628004
79,165.4,595.338,202.553,-0.000319374,347.269,-1.04459,-0.600595,0.0368959,-0.00511388,-0.0302457,0.0689588,-0.000213988,-0.000128388,0.0533009,0.0375850026171336,0.0713920668858663,-0.00021396510620086406,-0.005100826376706502,-0.0001283797586133506,-0.02979287562931765
80,168.3,596.995,203.126,-0.000327077,348.242,-1.04715,-0.602076,0.0375196,-0.00520683,-0.0307722,0.0701341,-0.000217937,-0.000130758,0.0542597,0.03823234623638894,0.07265201424510925,-0.00021791325345710266,-0.005193297957211573,-0.0001307494515452312,-0.030303555232096713
81,171.1,598.626,203.69,-0.000334837,349.202,-1.04974,-0.603569,0.0381427,-0.0052997,-0.0312982,0.0713083,-0.000221882,-0.000133126,0.0552176,0.038879470401925076,0.07391226198688838,-0.0002218573860094386,-0.005285681365740147,-0.00013311713912722567,-0.03081348143969509
82,173.9,600.234,204.246,-0.000342654,350.147,-1.05234,-0.605072,0.0387653,-0.00539248,-0.0318238,0.0724814,-0.000225824,-0.000135491,0.0561748,0.03952647815281041,0.07517280768994739,-0.00022579850367965282,-0.005377966679041335,-0.0001354818215089093,-0.03132275202581636
83,176.8,601.819,204.794,-0.000350531,351.08,-1.05497,-0.606587,0.0393872,-0.00548518,-0.0323489,0.0736534,-0.000229762,-0.000137855,0.0571313,0.0401731607346798,0.07643364892920368,-0.00022973560673300586,-0.005470163868124378,-0.0001378454984360955,-0.03183127092540594
84,179.6,603.381,205.335,-0.000358466,351.999,-1.05761,-0.608114,0.0400085,-0.0055778,-0.0328736,0.0748243,-0.000233697,-0.000140216,0.0580869,0.04081962112156834,0.07769478327575263,-0.000233669694983063,-0.005562272955909164,-0.00014020617019605552,-0.03233913580754777
85,182.5,604.922,205.869,-0.000366461,352.906,-1.06028,-0.609651,0.0406292,-0.00567034,-0.0333977,0.0759941,-0.000237628,-0.000142576,0.0590418,0.041465858399389655,0.07895620829687577,-0.0002375997687029674,-0.0056542939652921564,-0.00014256583652505483,-0.032846153990750415
86,185.3,606.441,206.396,-0.000374518,353.8,-1.06296,-0.611199,0.0412493,-0.00576279,-0.0339215,0.0771629,-0.000241557,-0.000144934,0.0599959,0.042111871653892186,0.08021802957784252,-0.0002415278274567889,-0.005746216976608598,-0.00014492349757511125,-0.03335261652117383
87,188.1,607.939,206.915,-0.000382636,354.683,-1.06566,-0.612759,0.0418688,-0.00585515,-0.0344447,0.0783306,-0.000245483,-0.00014729,0.0609493,0.04275765997065917,0.08148013690893663,-0.0002454528715136739,-0.0058380420154628965,-0.00014727915336043562,-0.033858234151103894
88,191.0,609.417,207.428,-0.000390817,355.554,-1.06838,-0.614329,0.0424877,-0.00594743,-0.0349675,0.0794972,-0.000249407,-0.000149645,0.0619018,0.04340322243511374,0.08274252784611669,-0.0002493759006596541,-0.005929779048133854,-0.00014963380374544144,-0.03436320105643931
89,193.8,610.876,207.935,-0.00039906,356.413,-1.07112,-0.61591,0.043106,-0.00603963,-0.0354898,0.0806627,-0.000253329,-0.000151998,0.0628536,0.04404855813251718,0.08400519994155142,-0.0002532969149182662,-0.006021428097419679,-0.00015198644888914092,-0.03486742146790456
90,196.7,612.316,208.435,-0.000407368,357.262,-1.07388,-0.617503,0.0437237,-0.00613174,-0.0360117,0.0818272,-0.000257248,-0.00015435,0.0638046,0.04469366614797421,0.08526825927044546,-0.000257214914570314,-0.006112979247224537,-0.00015433808865150667,-0.03537099274228617
91,199.5,613.737,208.93,-0.000415741,358.1,-1.07666,-0.619105,0.0443408,-0.00622376,-0.036533,0.0829906,-0.000261165,-0.000156701,0.0647548,0.045338545566433686,0.08653159510324104,-0.00026113089939006073,-0.0062044325230444786,-0.00015668872303953307,-0.03587372279579626
92,202.3,615.14,209.418,-0.000424179,358.928,-1.07945,-0.620719,0.0449573,-0.00631569,-0.037054,0.0841529,-0.000265081,-0.00015905,0.0657042,0.04598319547269125,0.08779520498085458,-0.0002650458691358937,-0.006295787950346021,-0.00015903735221922677,-0.036375901757240925
93,205.2,616.526,209.9,-0.000432684,359.745,-1.08227,-0.622343,0.0455732,-0.00640754,-0.0375744,0.0853142,-0.000268995,-0.000161399,0.0666528,0.04662761495139045,0.08905919534635132,-0.0002689588240887275,-0.006387055490696958,-0.0001613859758820002,-0.036877241278108874
94,208.0,617.894,210.377,-0.000441255,360.553,-1.0851,-0.623978,0.0461885,-0.0064993,-0.0380944,0.0864743,-0.000272907,-0.000163747,0.0676007,0.0472718030870265,0.09032334604770909,-0.00027286976427198795,-0.006478225231553281,-0.00016373359419163958,-0.03737793492101471
95,210.9,619.246,210.848,-0.000449895,361.351,-1.08795,-0.625624,0.0468032,-0.00659097,-0.038614,0.0876335,-0.000276819,-0.000166094,0.0685477,0.04791575896394584,0.09158798171166627,-0.00027678068915570897,-0.006569297198298907,-0.00016608020715513927,-0.03787798342217874
96,213.7,620.581,211.314,-0.000458603,362.14,-1.09082,-0.62728,0.0474174,-0.00668256,-0.039133,0.0887915,-0.000280729,-0.00016844,0.069494,0.04855958652230474,0.09285277276717263,-0.0002806895993012759,-0.0066602813496858815,-0.00016842581477960472,-0.03837719519212268
97,216.5,621.901,211.775,-0.000467381,362.92,-1.09371,-0.628946,0.0480309,-0.00677406,-0.0396516,0.0899485,-0.000284638,-0.000170786,0.0704394,0.04920307519860456,0.09411793518058653,-0.00028459749444764704,-0.006751167775824962,-0.00017077141690124975,-0.03887576348876265
98,219.4,623.205,212.23,-0.000476229,363.69,-1.09662,-0.630623,0.0486438,-0.00686547,-0.0401698,0.0911045,-0.000288546,-0.000173131,0.0713841,0.04984632886834439,0.09538346685002885,-0.00028850437460659073,-0.006841956502016577,-0.0001731160136931864,-0.03937368904446903
99,222.2,624.495,212.68,-0.000485148,364.452,-1.09954,-0.632311,0.0492562,-0.00695679,-0.0406875,0.0922594,-0.000292453,-0.000175476,0.072328,0.050489451664244234,0.09664925600514995,-0.00029241023978998637,-0.0069326475535322896,-0.00017546060498718763,-0.039870876577553394
100,225.1,625.769,213.126,-0.000494138,365.206,-1.10249,-0.634009,0.0498679,-0.00704802,-0.0412047,0.0934132,-0.00029636,-0.00017782,0.0732711,0.05113223263634481,0.09791530015714756,-0.00029631608971303347,-0.00702324095561524,-0.00017780419096080635,-0.04036732696705014
101,227.9,627.029,213.567,-0.000503201,365.951,-1.10545,-0.635717,0.0504791,-0.00713916,-0.0417214,0.094566,-0.000300267,-0.000180164,0.0742134,0.051774881030275166,0.09918170673166937,-0.0003002219243760651,-0.007113736733479259,-0.00018014777144104155,-0.040863041090433705
102,230.7,628.275,214.003,-0.000512337,366.688,-1.10843,-0.637435,0.0510897,-0.00723021,-0.0422377,0.0957178,-0.000304173,-0.000182508,0.0751549,0.05241729088040015,0.10044847361248377,-0.0003041267440830886,-0.0072041349123102005,-0.00018249134642800424,-0.04135811568781389
103,233.6,629.507,214.434,-0.000521548,367.417,-1.11142,-0.639164,0.0516997,-0.00732118,-0.0427536,0.0968684,-0.000308079,-0.000184852,0.0760956,0.053059461269893804,0.10171537833674105,-0.0003080315485379792,-0.007294445444320452,-0.00018483491592169443,-0.041852551485250356
104,236.4,630.725,214.861,-0.000530833,368.139,-1.11444,-0.640903,0.0523091,-0.00741205,-0.0432689,0.0980181,-0.000311985,-0.000187195,0.0770355,0.05370139128180007,0.10298274891559034,-0.0003119363377407369,-0.007384648499625057,-0.00018717748010910196,-0.0423461576769123
105,239.3,631.931,215.284,-0.000540193,368.853,-1.11747,-0.642652,0.052918,-0.00750284,-0.0437839,0.0991667,-0.000315891,-0.000189539,0.0779746,0.05434318543335159,0.1042503627522593,-0.00031584111169136175,-0.007474763956534569,-0.00018952103861846759,-0.04283922243063676
106,242.1,633.124,215.702,-0.00054963,369.559,-1.12052,-0.644411,0.0535262,-0.00759353,-0.0442983,0.100314,-0.000319797,-0.000191883,0.0789129,0.05498463200286108,0.10551799623234226,-0.0003197458703899647,-0.007564771988715413,-0.0001918645916345607,-0.04333145932043636
107,244.9,634.304,216.116,-0.000559144,370.258,-1.12359,-0.646181,0.0541339,-0.00768414,-0.0448123,0.101461,-0.000323703,-0.000194227,0.0798504,0.05562594100573359,0.10678675286685158,-0.00032365061383665683,-0.007654692470816515,-0.0001942081391572703,-0.04382306059799412
108,247.8,635.471,216.527,-0.000568736,370.951,-1.12667,-0.64796,0.054741,-0.00777465,-0.0453258,0.102606,-0.00032761,-0.000196571,0.0807871,0.056267006090134686,0.10805474948841898,-0.00032755634170389403,-0.007744505580047689,-0.00019655168118681843,-0.04431393141450879
109,250.6,636.627,216.933,-0.000578407,371.636,-1.12977,-0.649749,0.0553475,-0.00786508,-0.0458389,0.103751,-0.000331518,-0.000198915,0.0817231,0.05690782633842528,0.10932419879762256,-0.00033146305398001896,-0.007834231187403451,-0.00019889521772298302,-0.04480416815530863
110,253.5,637.771,217.335,-0.000588156,372.314,-1.13289,-0.651549,0.0559534,-0.00795542,-0.0463515,0.104894,-0.000335426,-0.00020126,0.0826582,0.05754840083284973,0.11059288127075928,-0.00033536975098868993,-0.007923859394390886,-0.00020123974856478544,-0.045293676067115984
111,256.3,638.903,217.733,-0.000597986,372.986,-1.13603,-0.653358,0.0565588,-0.00804566,-0.0468637,0.106036,-0.000339335,-0.000203605,0.0835925,0.058188834474416806,0.11186190281455444,-0.00033927743239081654,-0.00801338030607468,-0.0002035842739085414,-0.04578255143456467
112,259.1,640.024,218.128,-0.000607897,373.651,-1.13918,-0.655178,0.0571635,-0.00813582,-0.0473754,0.107178,-0.000343244,-0.000205951,0.084526,0.058828914771396956,0.11313237440877377,-0.00034318509851782864,-0.008102813787984497,-0.0002059297935486093,-0.04627069959963637
113,262.0,641.134,218.519,-0.00061789,374.31,-1.14236,-0.657007,0.0577677,-0.00822588,-0.0478866,0.108318,-0.000347155,-0.000208298,0.0854588,0.059468852507424064,0.11440206890395377,-0.0003470947486754472,-0.008192140026153871,-0.00020827630747766168,-0.04675812142236835
114,264.8,642.233,218.906,-0.000627965,374.962,-1.14554,-0.658847,0.0583714,-0.00831586,-0.0483974,0.109457,-0.000351067,-0.000210644,0.0863907,0.06010864695620599,0.1156720960035662,-0.0003510053831916604,-0.00828137888247793,-0.00021062181611020137,-0.047244913036783354
115,267.7,643.321,219.29,-0.000638123,375.609,-1.14875,-0.660696,0.0589744,-0.00840574,-0.0489078,0.110596,-0.00035498,-0.000212992,0.0873219,0.060748085241588035,0.11694357048817383,-0.0003549170020543668,-0.008370510546506948,-0.00021296931881420456,-0.047731075154042846
116,270.5,644.399,219.67,-0.000648366,376.249,-1.15197,-0.662555,0.0595769,-0.00849553,-0.0494177,0.111733,-0.000358894,-0.00021534,0.0882522,0.06138737853071041,0.11821425757653659,-0.0003588296052523532,-0.008459544961105236,-0.0002153168160062835,-0.04821651330584731
117,273.3,645.467,220.047,-0.000658693,376.883,-1.15521,-0.664424,0.0601788,-0.00858524,-0.0499271,0.112869,-0.00036281,-0.00021769,0.0891818,0.06202641989405344,0.11948527077195203,-0.0003627441924106689,-0.008548492065544533,-0.0002176663072511742,-0.04870122834656687
118,276.2,646.524,220.421,-0.000669106,377.512,-1.15847,-0.666302,0.0607801,-0.00867485,-0.050436,0.114004,-0.000366727,-0.00022004,0.0901105,0.06266520841285717,0.12075660790161846,-0.0003666597638730673,-0.008637332054635682,-0.00022001579297470375,-0.04918522112905266
119,279.0,647.572,220.791,-0.000679605,378.135,-1.16175,-0.668191,0.0613809,-0.00876437,-0.0509446,0.115139,-0.000370645,-0.000222391,0.0910385,0.06330384949864354,0.1220293888181212,-0.000370576319627669,-0.008726074868482536,-0.00022236627295457723,-0.04966868257092005
120,281.9,648.61,221.158,-0.000690191,378.752,-1.16504,-0.670089,0.0619811,-0.00885381,-0.0514526,0.116272,-0.000374566,-0.000224743,0.0919656,0.06394223602974591,0.12330136855610507,-0.00037449585891369264,-0.008814730443609808,-0.0002247177471836892,-0.05015132827778501
121,284.0,649.388,221.433,-0.000701597,379.215,-1.16754,-0.671529,0.0624342,-0.00892131,-0.0518362,0.117127,-0.000377527,-0.000226521,0.0926656,0.0644244174868509,0.12426220192395232,-0.00037745574564918005,-0.008881633191311633,-0.00022649534605534427,-0.05051562035257062
