,Time,S11,S22,S33,S12,S13,S23,LE11,LE22,LE33,LE12,LE13,LE23,SDV_EPBAR,E11,E12,E13,E22,E23,E33
0,0.000284,0.0015581,0.000519365,0.0,0.000899567,1.32028e-20,2.67023e-20,6.7501e-09,2.50301e-10,-3.0004e-09,1.1258e-08,6.18106e-26,5.13348e-25,0.0,6.750100034480511e-09,1.1258000087721598e-08,0.0,2.5030089112476617e-10,0.0,-3.0004000395322805e-09
1,0.000568,0.00311619,0.00103873,2.1684e-19,0.00179913,-2.79039e-28,-1.61103e-28,1.35001e-08,5.00425e-10,-6.00057e-09,2.25162e-08,2.06826e-25,-3.58238e-25,0.0,1.3500100148888805e-08,2.2516200237632233e-08,0.0,5.00425034744012e-10,0.0,-6.000569929831556e-09
2,0.000994,0.00545333,0.00181778,2.1684e-19,0.00314848,-6.04799e-21,-2.25714e-20,2.36252e-08,8.75688e-10,-1.05009e-08,3.94034e-08,-4.13622e-25,7.16424e-25,0.0,2.3625200240573463e-08,3.9403400764470575e-08,0.0,8.756879665838824e-10,0.0,-1.0500899927379237e-08
3,0.001633,0.00895905,0.00298635,4.33681e-19,0.00517251,-5.11908e-20,-1.04754e-20,3.88125e-08,1.4375e-09,-1.725e-08,6.47354e-08,3.9316e-32,2.26991e-32,0.0,3.8812500768869995e-08,6.473540214990692e-08,0.0,1.4374998968946784e-09,0.0,-1.7249999872959165e-08
4,0.0025915,0.0142176,0.00473921,-1.30104e-18,0.00820854,3.90948e-20,-3.46674e-20,6.15937e-08,2.28125e-09,-2.7375e-08,1.02732e-07,2.86544e-24,1.65436e-24,0.0,6.159370191660685e-08,1.027320053470504e-07,0.0,2.281250077729169e-09,0.0,-2.7374999600482397e-08
5,0.0040292,0.0221055,0.00736849,-1.30104e-18,0.0127626,-7.53827e-20,-1.00761e-19,9.57656e-08,3.54688e-09,-4.25625e-08,1.59728e-07,2.30786e-31,1.33244e-31,0.0,9.576560455748506e-08,1.597280128162737e-07,0.0,3.5468799008953056e-09,0.0,-4.256249908074494e-08
6,0.0061859,0.0339373,0.0113124,-4.77049e-18,0.0195937,1.20526e-19,8.8665e-20,1.47024e-07,5.44671e-09,-6.53456e-08,2.45219e-07,-6.61761e-24,1.14621e-23,0.0,1.4702401074373483e-07,2.452190299706558e-07,0.0,5.446709971934638e-09,0.0,-6.534559782167548e-08
7,0.0094208,0.0516849,0.0172283,7.37257e-18,0.0298403,1.86619e-19,-2.58125e-20,2.2391e-07,8.29297e-09,-9.95156e-08,3.7346e-07,-6.95067e-31,-4.01297e-31,0.0,2.2391002496569e-07,3.734600697580248e-07,0.0,8.292970088419338e-09,0.0,-9.951559509779884e-08
8,0.014273,0.0783064,0.0261021,-1.30104e-18,0.0452102,1.86619e-19,-2.58125e-20,3.39241e-07,1.25671e-08,-1.50777e-07,5.65816e-07,2.64704e-23,-4.58482e-23,0.0,3.392410574676319e-07,5.658161601473921e-07,0.0,1.2567100027283118e-08,0.0,-1.5077698867216327e-07
9,0.021552,0.118239,0.0394129,1.25767e-17,0.0682651,-8.0004e-19,6.25633e-19,5.12236e-07,1.89735e-08,-2.27663e-07,8.54355e-07,-6.61759e-24,1.1462e-23,0.0,5.122361312892565e-07,8.543553648987512e-07,0.0,1.8973500104380037e-08,0.0,-2.276629741393421e-07
10,0.03247,0.178137,0.059379,-1.30104e-18,0.102847,-4.23358e-20,-1.58e-19,7.71729e-07,2.8587e-08,-3.42996e-07,1.28716e-06,1.86326e-30,1.07575e-30,0.0,7.717292977993395e-07,1.2871608283671065e-06,0.0,2.858700032248862e-08,0.0,-3.429959412049044e-07
11,0.048847,0.267985,0.0893282,-4.29344e-17,0.154721,2.05368e-18,4.41588e-19,1.16097e-06,4.30043e-08,-5.15992e-07,1.93637e-06,4.58471e-23,2.64698e-23,0.0,1.1609706738191505e-06,1.9363718748444114e-06,0.0,4.300430100911967e-08,0.0,-5.159918669006558e-07
12,0.073412,0.402756,0.134252,-1.51788e-17,0.232531,2.58243e-18,-4.74234e-19,1.74483e-06,6.46307e-08,-7.75487e-07,2.91018e-06,4.93934e-23,-3.26124e-23,0.0,1.744831522154655e-06,2.910184234483637e-06,0.0,6.463070212348043e-08,0.0,-7.754866993003873e-07
13,0.1103,0.604912,0.201637,-1.51788e-17,0.349246,1.27953e-18,-2.44755e-18,2.62061e-06,9.70596e-08,-1.16471e-06,4.37091e-06,6.3275e-30,3.65319e-30,0.0,2.62061343381248e-06,4.370919552521002e-06,0.0,9.705960479777787e-08,0.0,-1.1647093217659332e-06
14,0.1655,0.908146,0.302715,4.03323e-17,0.524319,-4.21537e-18,-5.62004e-18,3.93429e-06,1.45719e-07,-1.74858e-06,6.56199e-06,-9.87872e-23,6.52263e-23,0.0,3.934297739371928e-06,6.562011529931411e-06,0.0,1.4571901063575865e-07,0.0,-1.748578471238993e-06
15,0.2484,1.363,0.454332,-2.09468e-16,0.786926,1.22694e-17,3.89742e-18,5.90479e-06,2.18705e-07,-2.62436e-06,9.8486e-06,7.75059e-23,2.8927e-22,0.0,5.904807433232406e-06,9.848648497623458e-06,0.0,2.1870502386889257e-07,0.0,-2.624356556402141e-06
16,0.3728,2.04527,0.681756,2.34621e-16,1.18084,-2.38375e-18,-4.56255e-18,8.86055e-06,3.28182e-07,-3.93804e-06,1.47785e-05,-2.4013e-22,8.39438e-22,0.0,8.860589254755524e-06,1.4778609202625859e-05,0.0,3.281820537548441e-07,0.0,-3.938032245964784e-06
17,0.5593,3.06867,1.02289,4.56666e-16,1.7717,1.53658e-17,1.54539e-17,1.32942e-05,4.92389e-07,-5.90853e-06,2.21733e-05,1.55012e-22,5.78537e-22,0.0,1.3294288368159712e-05,2.2173545829451413e-05,0.0,4.923891212538223e-07,0.0,-5.908512544672284e-06
18,0.8392,4.60377,1.53459,2.34621e-16,2.65799,5.31314e-17,1.77204e-17,1.99445e-05,7.38697e-07,-8.86424e-06,3.32654e-05,1.58058e-21,-1.04362e-21,0.0,1.9944698892881974e-05,3.326595329955495e-05,0.0,7.38697272906208e-07,0.0,-8.864200712777048e-06
19,1.259,6.90638,2.30213,-1.31969e-15,3.9874,2.38248e-17,8.00221e-19,2.99199e-05,1.10814e-06,-1.32977e-05,4.99034e-05,-1.31371e-26,-7.5847e-27,0.0,2.992034760462836e-05,4.990464519538662e-05,0.0,1.1081406139368255e-06,0.0,-1.3297611585971758e-05
20,1.888,10.3602,3.45341,-4.65036e-15,5.98148,-2.24011e-17,1.31867e-17,4.48827e-05,1.66234e-06,-1.99479e-05,7.48599e-05,-3.16123e-21,2.08725e-21,0.0,4.4883707243537074e-05,7.486270207235357e-05,0.0,1.6623413816585497e-06,0.0,-1.994770104196686e-05
21,2.833,15.5409,5.18029,-2.86312e-14,8.97252,5.76643e-17,-5.78126e-17,6.73263e-05,2.49357e-06,-2.99228e-05,0.000112294,-7.33604e-22,-4.23546e-22,0.0,6.732856646629592e-05,0.00011230030520725798,0.0,2.4935731088859825e-06,0.0,-2.9922352317468537e-05
22,4.249,93.5787,31.1929,-1.03265e-09,54.0277,3.28372e-16,-5.26719e-16,0.000405403,1.5015e-05,-0.000180179,0.000676171,6.77731e-21,-1.17391e-20,0.0,0.00040548518690219915,0.0006763996551444329,0.0,1.5015112725613733e-05,0.0,-0.00018016276873877857
23,6.374,211.097,70.3658,-9.04826e-07,121.877,5.76346e-17,-5.78297e-17,0.000914519,3.38711e-05,-0.000406453,0.00152533,-4.01543e-25,-2.31831e-25,0.0,0.0009149373000056915,0.0015264939075101402,0.0,3.3871673632113186e-05,0.0,-0.00040637040916957634
24,9.214,362.825,121.014,0.000440096,209.54,-0.0086006,-0.00496397,0.00159354,5.50283e-05,-0.000716974,0.00266308,-1.09574e-07,-6.32931e-08,3.36326e-05,0.0015948103595657681,0.0026666291473984582,-1.0957399398936474e-07,5.502981408467278e-05,-6.329309798491778e-08,-0.0007167170355575347
25,12.05,380.451,127.321,7.57664e-05,220.09,-0.141459,-0.0815699,0.00225622,-3.45088e-05,-0.00124403,0.00389071,-2.56092e-06,-1.4981e-06,0.000939887,0.002258767179649901,0.0038982886377250114,-2.56091672079517e-06,-3.450820457817638e-05,-1.498098877839027e-06,-0.0012432565154586461
26,14.89,394.928,132.504,7.29244e-05,228.758,-0.250318,-0.144275,0.00291758,-0.000126346,-0.0017757,0.00511962,-5.29506e-06,-3.11068e-06,0.00186603,0.0029218402787554165,0.005132747647766944,-5.295045981235091e-06,-0.00012633801868022765,-3.110675161788201e-06,-0.001774124377503905
27,17.73,407.256,136.909,2.79711e-05,236.131,-0.339555,-0.195638,0.00357781,-0.000219704,-0.00231035,0.00634904,-8.24085e-06,-4.85687e-06,0.00280549,0.00358421800212394,0.006369237877545952,-8.240816044335908e-06,-0.00021967986684356955,-4.856858205393166e-06,-0.002307683195584609
28,20.57,418.015,140.747,9.47088e-06,242.561,-0.41434,-0.238656,0.00423698,-0.000314102,-0.00284703,0.00757855,-1.13719e-05,-6.71909e-06,0.00375438,0.004245968690243629,0.0076073398926437275,-1.1371835340168168e-05,-0.0003140526751312933,-6.719067426996794e-06,-0.0028429810534917888
29,23.41,427.578,144.152,2.24152e-07,248.27,-0.478141,-0.275336,0.00489517,-0.000409237,-0.00338511,0.00880788,-1.46639e-05,-8.68165e-06,0.00471022,0.0049071709188530654,0.008846783510312317,-1.4663792485491989e-05,-0.0004091532739606274,-8.681612314598297e-06,-0.0033793869746552296
30,26.25,436.198,147.216,-5.74807e-06,253.412,-0.533353,-0.307064,0.00555243,-0.000504912,-0.00392419,0.0100368,-1.80956e-05,-1.07309e-05,0.00567133,0.005567873308852667,0.010087337614250291,-1.809543627562249e-05,-0.0005047845533866502,-1.0730842424089282e-05,-0.003916500428157277
31,29.09,444.054,150.004,-1.05601e-05,258.094,-0.58169,-0.33483,0.00620878,-0.000600991,-0.00446398,0.0112652,-2.16484e-05,-1.28552e-05,0.00663653,0.006228094426862674,0.011328891305931288,-2.1648165675069997e-05,-0.000600810441082178,-1.2855117372256863e-05,-0.004454031250458068
32,31.93,451.278,152.564,-1.50424e-05,262.396,-0.624415,-0.359365,0.00686428,-0.000697376,-0.00500425,0.012493,-2.53066e-05,-1.50445e-05,0.00760491,0.006887893168171733,0.01257136351628163,-2.530627979069333e-05,-0.0006971328898737195,-1.5044386832085976e-05,-0.004991749601368167
33,34.77,457.97,154.932,-1.95401e-05,266.379,-0.662483,-0.381219,0.00751893,-0.000793995,-0.00554484,0.0137201,-2.90564e-05,-1.72903e-05,0.00857583,0.007547268133796248,0.013814652500399482,-2.9055977866843108e-05,-0.0007936798693795044,-1.7290150523652237e-05,-0.005529495748260449
34,37.61,464.208,157.136,-2.41983e-05,270.089,-0.696627,-0.400816,0.00817277,-0.000890793,-0.00608562,0.0149464,-3.2886e-05,-1.95853e-05,0.00954876,0.008206258253165677,0.015058656013618998,-3.2885459261389194e-05,-0.00089039636169852,-1.9585108209208002e-05,-0.006067140120785353
35,40.45,470.053,159.199,-2.90738e-05,273.562,-0.727426,-0.418489,0.00882581,-0.000987729,-0.0066265,0.0161719,-3.67854e-05,-2.19233e-05,0.0105233,0.008864872295306414,0.016303372941079752,-3.67847234254981e-05,-0.0009872413562778126,-2.192305968617969e-05,-0.006604593164132977
36,43.29,475.555,161.138,-3.41834e-05,276.83,-0.75534,-0.434505,0.00947808,-0.00108477,-0.0071674,0.0173964,-4.07455e-05,-2.42986e-05,0.0114991,0.0095231392461117,0.017548598655098502,-4.074466991332848e-05,-0.0010841818497119293,-2.429830479144801e-05,-0.007141775445645315
37,46.13,480.755,162.969,-3.95245e-05,279.916,-0.780743,-0.449077,0.0101296,-0.00118189,-0.00770825,0.0186201,-4.47588e-05,-2.67066e-05,0.012476,0.010181078068670635,0.018794535045976835,-4.475779833990057e-05,-0.00118119184308918,-2.6706243381968697e-05,-0.00767861762776223
38,48.97,485.686,164.702,-4.50859e-05,282.841,-0.803942,-0.462384,0.0107803,-0.00127906,-0.00824899,0.0198428,-4.88183e-05,-2.91431e-05,0.0134536,0.010838616803196643,0.020040976980969294,-4.881710840620723e-05,-0.0012782423514023922,-2.9142675343929447e-05,-0.008215060440951327
39,51.81,490.376,166.349,-5.08526e-05,285.621,-0.825188,-0.474569,0.0114303,-0.00137628,-0.00878957,0.0210646,-5.2918e-05,-3.16042e-05,0.0144318,0.011495875490050933,0.021288024712971865,-5.291659986728092e-05,-0.0013753333610107,-3.16037005925196e-05,-0.00875105465664916
40,54.65,494.85,167.919,-5.6808e-05,288.271,-0.844696,-0.485757,0.0120796,-0.00147352,-0.00932998,0.0222853,-5.70525e-05,-3.40869e-05,0.0154104,0.012152853026682342,0.022535472229427977,-5.705087253704555e-05,-0.0014724349024410888,-3.4086319048221014e-05,-0.009286590781630077
41,57.49,499.128,169.418,-6.29355e-05,290.804,-0.862644,-0.496049,0.0127282,-0.00157077,-0.00987016,0.0235051,-6.12171e-05,-3.6588e-05,0.0163894,0.012809548310414476,0.02378352202927725,-6.12152262715604e-05,-0.0015695369864815456,-3.6587330667248175e-05,-0.009821609834716027
42,60.33,503.227,170.853,-6.92189e-05,293.23,-0.879185,-0.505535,0.013376,-0.00166803,-0.0104101,0.0247238,-6.54075e-05,-3.9105e-05,0.0173686,0.01346585889185592,0.025031967593359683,-6.540536097610072e-05,-0.0016666396111371107,-3.91042354094262e-05,-0.010356102444746496
43,63.17,507.163,172.229,-7.56428e-05,295.558,-0.89445,-0.514289,0.0140231,-0.00176528,-0.0109497,0.0259415,-6.96198e-05,-4.16356e-05,0.0183478,0.014121884883462776,0.026280909284119858,-6.961737659794132e-05,-0.0017637228096877289,-4.1634733250472955e-05,-0.010889970241382163
44,66.01,510.95,173.551,-8.21927e-05,297.796,-0.908552,-0.522376,0.0146696,-0.00186251,-0.0114891,0.0271582,-7.38505e-05,-4.41776e-05,0.0193271,0.014777726660050838,0.02753034520665487,-7.384777311891799e-05,-0.0018607766045724006,-4.41766241842112e-05,-0.011423352325353409
45,68.85,514.598,174.824,-8.88548e-05,299.951,-0.92159,-0.529853,0.0153153,-0.00195973,-0.0120282,0.0283737,-7.80965e-05,-4.6729e-05,0.0203063,0.015433180228566545,0.028780067706236867,-7.809345054765604e-05,-0.001957810982953223,-4.6727908217247816e-05,-0.011956150367498641
46,71.69,518.119,176.051,-9.56164e-05,302.03,-0.93365,-0.536769,0.0159604,-0.00205693,-0.0125669,0.0295883,-8.23547e-05,-4.92881e-05,0.0212853,0.016088447506868553,0.03003038313932449,-8.235130894473919e-05,-0.002054815969207091,-4.9286885361543575e-05,-0.012488266251014402
47,74.53,521.521,177.236,-0.000102465,304.038,-0.944806,-0.543168,0.0166048,-0.00215409,-0.0131053,0.0308017,-8.66226e-05,-5.18533e-05,0.0222641,0.0167434259138195,0.03128098059025697,-8.661884837091183e-05,-0.0021517716131059794,-5.185195564083589e-05,-0.013019799466883253
48,77.37,524.814,178.381,-0.00010939,305.98,-0.955126,-0.549087,0.0172485,-0.00225122,-0.0136433,0.032014,-9.08978e-05,-5.44231e-05,0.0232427,0.01739811434594607,0.03253196065138009,-9.08936689201223e-05,-0.0022486879047132202,-5.442161908997267e-05,-0.013550652002633612
49,80.21,528.003,179.489,-0.000116381,307.861,-0.964669,-0.554561,0.0178915,-0.00234832,-0.014181,0.0332253,-9.5178e-05,-5.69962e-05,0.024221,0.018052511699673257,0.03378342441132598,-9.517347071785753e-05,-0.0023455648536659934,-5.6994575747482124e-05,-0.014080923240853416
50,83.05,531.097,180.563,-0.000123427,309.684,-0.973487,-0.55962,0.0185339,-0.00244538,-0.0147183,0.0344355,-9.94611e-05,-5.95712e-05,0.025199,0.018706718741993145,0.03503526644837929,-9.945615390871687e-05,-0.002442392494019785,-5.956942567131307e-05,-0.014610515273155822
51,85.89,534.101,181.604,-0.000130519,311.452,-0.981627,-0.564291,0.0191756,-0.00254239,-0.0152552,0.0356445,-0.000103745,-6.21471e-05,0.0261766,0.01936063262924148,0.03628738083614702,-0.00010373961867360393,-0.002539160863698098,-6.214516890901134e-05,-0.015139428887940398
52,88.73,537.02,182.616,-0.000137648,313.171,-0.989131,-0.568598,0.0198166,-0.00263936,-0.0157917,0.0368525,-0.000108029,-6.47227e-05,0.0271537,0.020014252257467557,0.03753997240518281,-0.00010802316507763088,-0.002635879951768616,-6.472060553119885e-05,-0.015667664872368814
53,91.57,539.859,183.598,-0.000144806,314.841,-0.996036,-0.572562,0.020457,-0.00273629,-0.0163278,0.0380594,-0.00011231,-6.7297e-05,0.0281305,0.020667678589393557,0.038792935346275925,-0.00011230369346804103,-0.0027325497707463287,-6.729473560762589e-05,-0.01619522401236806
54,94.41,542.624,184.554,-0.000151984,316.467,-1.00238,-0.576203,0.0210968,-0.00283316,-0.0168635,0.0392651,-0.000116587,-6.98692e-05,0.0291067,0.02132091071682951,0.04004616334510236,-0.00011658020399973879,-0.0028291503897235337,-6.986675920428453e-05,-0.016722107092631444
55,97.25,545.317,185.484,-0.000159176,318.05,-1.00819,-0.579539,0.0217359,-0.00292999,-0.0173988,0.0404697,-0.000120858,-7.24382e-05,0.0300825,0.021973845533965086,0.041299757841846585,-0.00012085069696610162,-0.0029257017684808373,-7.243557641689602e-05,-0.01724831489662082
56,100.1,547.944,186.39,-0.000166374,319.592,-1.01349,-0.582586,0.0223743,-0.00302676,-0.0179337,0.0416732,-0.000125123,-7.50034e-05,0.0310577,0.022626481936328213,0.04255371651868889,-0.00012511517244384596,-0.0030221839799536854,-7.500058731524373e-05,-0.017773848206568577
57,102.9,550.507,187.273,-0.00017357,321.097,-1.01831,-0.585358,0.0230122,-0.00312349,-0.0184681,0.0428756,-0.00012938,-7.75639e-05,0.0320324,0.02327902347515165,0.04380803705381586,-0.00012937163076864877,-0.003118616980039901,-7.756089199850713e-05,-0.018298609633345064
58,105.8,553.009,188.135,-0.000180759,322.565,-1.02268,-0.587869,0.0236493,-0.00322016,-0.0190022,0.0440769,-0.000133627,-8.0119e-05,0.0330065,0.023931162257758487,0.045062717121422846,-0.00013361807231004885,-0.0032149808455139706,-8.01157905586658e-05,-0.018822796349416526
59,108.6,555.454,188.976,-0.000187934,323.999,-1.02661,-0.590131,0.0242859,-0.00331677,-0.0195358,0.0452771,-0.000137864,-8.2668e-05,0.03398,0.024583204358632038,0.046317754391723254,-0.00013785449719538878,-0.003311275594621743,-8.266458309502678e-05,-0.01934621284534388
60,111.5,557.845,189.797,-0.000195089,325.401,-1.03013,-0.592155,0.0249218,-0.00341333,-0.0200689,0.0464761,-0.00014209,-8.52102e-05,0.034953,0.025234944016946148,0.04757304177364108,-0.00014207990569403695,-0.0034075112115199424,-8.520656971400253e-05,-0.019868860055284543
61,114.3,560.183,190.6,-0.000202216,326.77,-1.03325,-0.593951,0.0255571,-0.00350984,-0.0206017,0.047674,-0.000146303,-8.77451e-05,0.0359253,0.025886482716234394,0.04882868143560737,-0.00014629229823792667,-0.0035036877115413034,-8.774125051125292e-05,-0.02039093483357579
62,117.1,562.472,191.384,-0.000209304,328.111,-1.03598,-0.595529,0.0261918,-0.00360629,-0.021134,0.0488708,-0.000150503,-9.0272e-05,0.036897,0.026537819546691876,0.05008467103581027,-0.000150491674991593,-0.0035997951460059463,-9.026792560562491e-05,-0.020912241980757473
63,120.0,564.714,192.152,-0.000216146,329.422,-1.03835,-0.596903,0.0268258,-0.00370268,-0.0216658,0.0500665,-0.000154688,-9.27904e-05,0.0378681,0.02718885087940981,0.051341008228476426,-0.00015467603642815853,-0.00369583353310754,-9.27860951039916e-05,-0.02143278242649982
64,122.8,566.91,192.904,0.000227489,330.707,-1.04045,-0.598461,0.0274592,-0.00379901,-0.0221973,0.051261,-0.000158863,-9.53023e-05,0.0388385,0.02783967839287116,0.05259758540411341,-0.00015885038194174417,-0.0037918028910248758,-9.529775888006409e-05,-0.021952752708296996
65,125.7,569.061,193.64,-0.000230955,331.966,-1.04297,-0.599562,0.028092,-0.00389528,-0.0227282,0.0524544,-0.000163035,-9.78019e-05,0.0398082,0.02849030117669571,0.05385450521741131,-0.00016302171051651992,-0.0038877032379234233,-9.779711755009135e-05,-0.02247186018261238
66,128.5,571.17,194.363,-0.00023837,333.201,-1.04531,-0.600914,0.0287242,-0.00399148,-0.0232588,0.0536467,-0.000167195,-0.000100299,0.0407773,0.029140718320295855,0.05511176531064543,-0.00016718102369484011,-0.0039835246317889705,-0.00010029397022337516,-0.02299039903307687
67,131.3,573.238,195.072,-0.000245891,334.412,-1.04767,-0.602279,0.0293558,-0.00408761,-0.0237888,0.0548379,-0.000171347,-0.000102792,0.0417457,0.029790928912876824,0.0563693633221527,-0.00017133232094113104,-0.004079267093630934,-0.000102786717083303,-0.023508076924829924
68,134.2,575.267,195.769,-0.000253447,335.6,-1.05006,-0.603657,0.0299867,-0.00418367,-0.0243185,0.056028,-0.000175492,-0.000105279,0.0427134,0.03044082899935341,0.05762729688633805,-0.00017547660217964722,-0.004174930644439967,-0.00010527345836053303,-0.024025187727595876
69,137.0,577.258,196.453,-0.000261052,336.767,-1.05247,-0.605048,0.030617,-0.00427965,-0.0248476,0.0572169,-0.000179629,-0.000107762,0.0436804,0.03109052058266526,0.05888545774512943,-0.0001796128676770925,-0.004270505347893305,-0.00010775619388425639,-0.024541439414341837
70,139.9,579.213,197.124,-0.000268708,337.913,-1.0549,-0.606452,0.0312467,-0.00437557,-0.0253763,0.0584048,-0.000183759,-0.000110241,0.0446467,0.031740002751475815,0.06014405517632815,-0.00018374211734906165,-0.004366011140489401,-0.00011023492368422705,-0.025057028047458463
71,142.7,581.133,197.785,-0.000276415,339.039,-1.05735,-0.607868,0.0318758,-0.0044714,-0.0259046,0.0595916,-0.000187882,-0.000112716,0.0456123,0.03238927459425156,0.061402981039852866,-0.0001878643512822631,-0.004461418174140697,-0.00011270964779031001,-0.025571954389771112
72,145.5,583.02,198.434,-0.000284176,340.146,-1.05983,-0.609297,0.0325042,-0.00456717,-0.0264324,0.0607772,-0.000191998,-0.000115187,0.0465771,0.0330382318954352,0.06266212668822124,-0.00019197956956351625,-0.004556756338781165,-0.00011518036623214822,-0.026086121811525698
73,148.4,584.874,199.072,-0.000291989,341.234,-1.06232,-0.610738,0.033132,-0.00466285,-0.0269598,0.0619617,-0.000196109,-0.000117654,0.0475412,0.03368697691717393,0.06392159575057832,-0.00019608977188689813,-0.004651995792006702,-0.00011764707903949567,-0.026599628567247957
74,151.2,586.697,199.7,-0.000299858,342.304,-1.06484,-0.612191,0.0337593,-0.00475846,-0.0274867,0.0631452,-0.000200213,-0.000120118,0.0485046,0.03433561218097436,0.06518149235590709,-0.00020019295871476217,-0.004747156465460534,-0.0001201107861218409,-0.02711237812722178
75,154.1,588.49,200.318,-0.000307781,343.356,-1.06738,-0.613657,0.0343859,-0.00485399,-0.0280131,0.0643275,-0.000204312,-0.000122578,0.0494673,0.034983929972318695,0.06644160120087794,-0.00020429112972464303,-0.004842228428418749,-0.00012257048762387424,-0.02762437140292273
76,156.9,590.254,200.927,-0.000315762,344.392,-1.06994,-0.615135,0.0350119,-0.00494944,-0.0285391,0.0655088,-0.000208406,-0.000125035,0.0504292,0.0356320327474855,0.06770213305092776,-0.00020838428497804706,-0.004937211704566291,-0.00012502718345008823,-0.028135706490647228
77,159.7,591.99,201.526,-0.000323799,345.412,-1.07252,-0.616625,0.0356372,-0.00504481,-0.0290646,0.0666889,-0.000212495,-0.000127489,0.0513904,0.03627981596587859,0.0689628720908988,-0.00021247242453648063,-0.005032106317564566,-0.00012748087362268734,-0.028646287010105076
78,162.6,593.699,202.116,-0.000331894,346.416,-1.07512,-0.618127,0.036262,-0.00514009,-0.0295896,0.067868,-0.000216578,-0.00012994,0.0523508,0.03692748590591388,0.07022402958266771,-0.00021655454867797186,-0.005126902342320161,-0.000129931558163765,-0.0291561138681643
79,165.4,595.381,202.697,-0.000340049,347.405,-1.07774,-0.619641,0.0368862,-0.0052353,-0.0301142,0.0690459,-0.000220658,-0.000132388,0.0533105,0.037574938091421206,0.0714853891990197,-0.0002206336568140177,-0.005221619700856772,-0.00013237923709541466,-0.029665285003563358
80,168.3,597.037,203.27,-0.000348263,348.379,-1.08039,-0.621166,0.0375097,-0.00533042,-0.0306383,0.0702228,-0.000224733,-0.000134834,0.0542694,0.03822206778703974,0.07274716269854431,-0.00022470774943084137,-0.005316238520248429,-0.00013482491030469834,-0.030173704184808692
81,171.1,598.669,203.834,-0.000356538,349.339,-1.08305,-0.622704,0.0381326,-0.00542546,-0.031162,0.0713985,-0.000228804,-0.000137277,0.0552276,0.03886897777226195,0.0740091332417474,-0.00022877782636099298,-0.005410768772790786,-0.0001372675779437449,-0.03068146924604087
82,173.9,600.277,204.391,-0.000364875,350.285,-1.08573,-0.624253,0.038755,-0.00552041,-0.0316852,0.0725732,-0.000232871,-0.000139718,0.056185,0.03951577108522675,0.07527151308420166,-0.0002328438876532113,-0.005505200537076815,-0.00013970823989473136,-0.031188484054691656
83,176.8,601.862,204.94,-0.000373275,351.218,-1.08844,-0.625814,0.0393767,-0.00561528,-0.032208,0.0737468,-0.000236935,-0.000142157,0.0571416,0.04016223897383142,0.07653419252732663,-0.00023690693311950728,-0.005599543783459171,-0.0001421468961724237,-0.03169484634059294
84,179.6,603.424,205.482,-0.000381737,352.138,-1.09116,-0.627386,0.0399978,-0.00571007,-0.0327302,0.0749193,-0.000240995,-0.000144594,0.0580974,0.04080848441120377,0.07779716914341561,-0.000240965963037576,-0.005693798535429506,-0.00014458354679136587,-0.03220036328987086
85,182.5,604.965,206.016,-0.000390264,353.045,-1.0939,-0.628969,0.0406183,-0.00580476,-0.033252,0.0760908,-0.000245052,-0.000147029,0.0590525,0.0414545064834011,0.07906054840698107,-0.0002450219772109907,-0.005787944932214573,-0.00014701819176621278,-0.032705229409280445
86,185.3,606.484,206.543,-0.000398856,353.94,-1.09667,-0.630564,0.0412382,-0.00589938,-0.0337734,0.0772611,-0.000249106,-0.000149462,0.0600068,0.04210030427631595,0.08032411219691848,-0.00024907497567649983,-0.005882012826442962,-0.0001494508311116194,-0.033209445442123786
87,188.1,607.982,207.063,-0.000407514,354.823,-1.09945,-0.632171,0.0418575,-0.0059939,-0.0342943,0.0784304,-0.000253158,-0.000151893,0.0609603,0.042745876875676325,0.08158807401257184,-0.0002531259582173595,-0.005975972417990194,-0.00015188146484224063,-0.03371291550183175
88,191.0,609.46,207.577,-0.000416239,355.694,-1.10226,-0.633789,0.0424762,-0.00608834,-0.0348147,0.0795986,-0.000257206,-0.000154323,0.061913,0.04339122336705059,0.08285232350498606,-0.00025717292537241754,-0.00606984361448748,-0.00015431109281827116,-0.034215640480219744
89,193.8,610.919,208.084,-0.000425031,356.554,-1.10508,-0.635417,0.0430943,-0.00618269,-0.0353347,0.0807657,-0.000261253,-0.000156751,0.062865,0.044036342835846565,0.0841168582274483,-0.00026121887640662145,-0.006163616500936997,-0.0001567387152038302,-0.0347177177957545
90,196.7,612.358,208.585,-0.000433892,357.403,-1.10792,-0.637057,0.0437118,-0.00627695,-0.0358542,0.0819318,-0.000265297,-0.000159178,0.0638162,0.044681234367316414,0.08538178426761878,-0.0002652618118627048,-0.006257291103492046,-0.00015916533185422743,-0.035219051708600735
91,199.5,613.78,209.08,-0.000442822,358.242,-1.11078,-0.638709,0.0443287,-0.00637112,-0.0363732,0.0830968,-0.000269339,-0.000161604,0.0647666,0.045325897046555985,0.08664699088604855,-0.00026930273150771455,-0.0063508674482776195,-0.00016159094277690134,-0.03571964310605957
92,202.3,615.183,209.569,-0.000451822,359.07,-1.11366,-0.640371,0.044945,-0.00646521,-0.0368918,0.0842607,-0.000273379,-0.000164028,0.0657162,0.04597032995851014,0.08791247562472537,-0.0002733416353660756,-0.006444355496945331,-0.0001640145481430766,-0.036219589251904605
93,205.2,616.568,210.051,-0.000460894,359.888,-1.11656,-0.642044,0.0455607,-0.0065592,-0.0374099,0.0854235,-0.000277418,-0.000166452,0.066665,0.04661453218797118,0.08917823602185693,-0.0002773795231847398,-0.006537735403514433,-0.00016643814763439568,-0.036718794552413114
94,208.0,617.937,210.529,-0.000470036,360.696,-1.11948,-0.643728,0.0461758,-0.00665311,-0.0379276,0.0865853,-0.000281455,-0.000168875,0.067613,0.04725850281958399,0.09044437865630583,-0.0002814153952571674,-0.006631027064204265,-0.00016886074141975183,-0.03721735616866384
95,210.9,619.289,211.001,-0.000479252,361.495,-1.12242,-0.645423,0.0467904,-0.00674693,-0.0384448,0.087746,-0.000285491,-0.000171296,0.0685603,0.04790234572807606,0.09171079226757306,-0.0002854502513223167,-0.00672422056946953,-0.00017128132967780818,-0.03771517860407447
96,213.7,620.624,211.467,-0.000488541,362.284,-1.12538,-0.647129,0.0474043,-0.00684065,-0.0389615,0.0889056,-0.000289525,-0.000173718,0.0695067,0.04854585048169269,0.09297747438263726,-0.00028948309168175257,-0.0068173060134656405,-0.00017370291190188514,-0.03821226273854439
97,216.5,621.944,211.928,-0.000497904,363.064,-1.12835,-0.648846,0.0480176,-0.00693429,-0.0394778,0.0900642,-0.000293559,-0.000176138,0.0704523,0.04918912089050087,0.09424453194916871,-0.0002935159157727574,-0.006910303286730257,-0.0001761224886130952,-0.0387087055795452
98,219.4,623.248,212.384,-0.000507342,363.835,-1.13135,-0.650574,0.0486304,-0.00702784,-0.0399936,0.0912217,-0.000297591,-0.000178558,0.0713972,0.0498322610217925,0.09551185331564382,-0.00029754672419046724,-0.0070032024824301375,-0.00017854205946898905,-0.03920441177558931
99,222.2,624.537,212.835,-0.000516856,364.598,-1.13436,-0.652312,0.0492425,-0.00712129,-0.0405089,0.0923782,-0.000301623,-0.000180977,0.0723413,0.05047506005733915,0.09677954567581626,-0.00030157751635606633,-0.007095993697421199,-0.00018096062465056129,-0.039699382202118105
100,225.1,625.811,213.281,-0.000526447,365.352,-1.13739,-0.654061,0.0498541,-0.00721466,-0.0410238,0.0935337,-0.000305654,-0.000183396,0.0732846,0.05111772711162277,0.09804760692213899,-0.0003056072925751163,-0.007188696816577189,-0.00018337918398148023,-0.04019371371365321
101,227.9,627.071,213.722,-0.000536115,366.098,-1.14044,-0.655821,0.0504651,-0.00730793,-0.0415382,0.094688,-0.000309685,-0.000185815,0.074227,0.05176015628501429,0.09931581508033349,-0.00030963705255004914,-0.007281292008581075,-0.00018579773746207895,-0.04068731110318602
102,230.7,628.317,214.159,-0.000545862,366.835,-1.14351,-0.657591,0.0510755,-0.00740111,-0.0420522,0.0958413,-0.000313716,-0.000188233,0.0751687,0.052402346660973764,0.10058438739147824,-0.00031366679628119787,-0.007373789228279359,-0.00018821528528034648,-0.04118027112370071
103,233.6,629.549,214.591,-0.000555687,367.565,-1.1466,-0.659372,0.0516853,-0.00749421,-0.0425657,0.0969936,-0.000317746,-0.000190651,0.0761096,0.053044297322832,0.10185332173718553,-0.00031769552408611457,-0.007466198426787307,-0.00019063282725295672,-0.04167249866424172
104,236.4,630.767,215.018,-0.000565593,368.287,-1.1497,-0.661163,0.0522945,-0.00758721,-0.0430788,0.0981448,-0.000321776,-0.00019307,0.0770497,0.053686007353790366,0.10312250568328207,-0.0003217242356553518,-0.007558499778254291,-0.00019305136318692462,-0.04216409037653801
105,239.3,631.973,215.442,-0.00057558,369.001,-1.15282,-0.662965,0.0529031,-0.00768011,-0.0435914,0.099295,-0.000325806,-0.000195488,0.077989,0.05432747583692543,0.10439204716266115,-0.00032575293098879854,-0.007650693311168855,-0.0001954688934658888,-0.04265495124542218
106,242.1,633.165,215.861,-0.000585648,369.708,-1.15597,-0.664777,0.0535112,-0.00777293,-0.0441035,0.100444,-0.000329836,-0.000197906,0.0789275,0.05496880735206622,0.10566172291388432,-0.00032978161008678786,-0.007742798899129433,-0.00019788641789930672,-0.043145082136163526
107,244.9,634.345,216.275,-0.000595798,370.407,-1.15913,-0.6666,0.0541186,-0.00786566,-0.0446152,0.101592,-0.000333867,-0.000200325,0.0798652,0.055609790052391306,0.10693175142867584,-0.0003338112726153364,-0.00783480664338232,-0.00020030493628686585,-0.04363457954904071
108,247.8,635.513,216.686,-0.000606032,371.1,-1.1623,-0.668433,0.0547255,-0.00795829,-0.0451264,0.102739,-0.000337898,-0.000202743,0.0808021,0.05625063407842368,0.1082021305707257,-0.00033784091890032286,-0.007926706648828552,-0.00020272244902674874,-0.04412334861195877
109,250.6,636.668,217.093,-0.00061635,371.785,-1.1655,-0.670276,0.0553318,-0.00805083,-0.0456371,0.103885,-0.00034193,-0.000205162,0.0817382,0.05689123301580956,0.1094728582002189,-0.00034187154859988134,-0.008018508863641194,-0.00020514095571599889,-0.044611390185799404
110,253.5,637.812,217.495,-0.000626753,372.464,-1.16871,-0.67213,0.0559376,-0.00814328,-0.0461474,0.10503,-0.000345962,-0.000207582,0.0826735,0.05753169170011918,0.11074393217384082,-0.0003459021620481062,-0.008110213313393344,-0.0002075604563472888,-0.045098800620038126
111,256.3,638.944,217.894,-0.000637242,373.136,-1.17195,-0.673994,0.0565427,-0.00823563,-0.0466573,0.106174,-0.000349995,-0.000210002,0.083608,0.05817179777132764,0.11201535034477872,-0.00034993375889502687,-0.0082018101056468,-0.00020997995112337353,-0.04558558062649276
112,259.1,640.065,218.289,-0.000647817,373.802,-1.1752,-0.675869,0.0571473,-0.0083279,-0.0471667,0.107317,-0.000354029,-0.000212422,0.0845417,0.05881176188191639,0.11328711056273,-0.0003539663391284309,-0.008293319102795849,-0.00021239944004436406,-0.04607163552302884
113,262.0,641.175,218.681,-0.00065848,374.461,-1.17846,-0.677753,0.0577513,-0.00842007,-0.0476756,0.108459,-0.000358064,-0.000214843,0.0854746,0.05945147736071932,0.11455921067390373,-0.0003579999027365499,-0.008384720495276388,-0.00021481992289529295,-0.04655696616485516
114,264.8,642.274,219.069,-0.000669231,375.114,-1.18175,-0.679648,0.0583547,-0.00851215,-0.0481841,0.1096,-0.0003621,-0.000217264,0.0864068,0.06009094328962772,0.11583164852102779,-0.0003620344497072825,-0.008476024226524936,-0.00021724039988624266,-0.047041668701496286
115,267.7,643.362,219.453,-0.000680071,375.761,-1.18505,-0.681553,0.0589576,-0.00860413,-0.0486921,0.11074,-0.000366137,-0.000219687,0.0873381,0.06073026482344779,0.11710442194335102,-0.0003660699800284162,-0.008567220407639686,-0.00021966287057795242,-0.04752564859249542
116,270.5,644.44,219.834,-0.000691001,376.402,-1.18837,-0.683468,0.0595598,-0.00869603,-0.0491997,0.111879,-0.000370176,-0.00022211,0.0882686,0.061369228961716704,0.11837752877665042,-0.00037010749331789494,-0.00865832889358542,-0.00022208533540002406,-0.04800900188782509
117,273.3,645.507,220.211,-0.000702021,377.036,-1.19171,-0.685393,0.0601616,-0.00878783,-0.0497068,0.113016,-0.000374216,-0.000224534,0.0891984,0.06200815319672537,0.11964984720282668,-0.00037414598992602244,-0.008749329881983736,-0.00022450879412794222,-0.04849163414121749
118,276.2,646.565,220.586,-0.000713134,377.666,-1.19507,-0.687328,0.0607627,-0.00887954,-0.0502135,0.114153,-0.000378257,-0.000226958,0.0901273,0.06264671819909617,0.12092361307777266,-0.0003781854698401421,-0.008840233312499612,-0.0002269322469813373,-0.048973641303370896
119,279.0,647.612,220.956,-0.000724338,378.289,-1.19844,-0.689274,0.0613633,-0.00897115,-0.0507197,0.115289,-0.0003823,-0.000229384,0.0910554,0.06328513551557569,0.12219770584990597,-0.0003822269326664296,-0.008931029299752091,-0.0002293576935016306,-0.04945492902194448
120,281.9,648.65,221.324,-0.000735636,378.907,-1.20183,-0.691229,0.0619633,-0.00906268,-0.0512255,0.116424,-0.000386345,-0.000231811,0.0919828,0.06392329802649344,0.12347212334116042,-0.00038627037838079303,-0.009021737691307541,-0.00023178413390601005,-0.049935593148640045
121,284.0,649.428,221.6,-0.00074776,379.37,-1.20441,-0.692713,0.0624162,-0.00913177,-0.0516073,0.11728,-0.0003894,-0.000233645,0.0926829,0.06440525801977204,0.12443422720044506,-0.00038932419365989013,-0.009090202014323312,-0.000233617707132594,-0.05029825850195446
