,Time,S11,S22,S33,S12,S13,S23,LE11,LE22,LE33,LE12,LE13,LE23,SDV_EPBAR,E11,E12,E13,E22,E23,E33
0,0.000284,0.0015581,0.000519365,0.0,0.000899567,1.32028e-20,2.67023e-20,6.7501e-09,2.50301e-10,-3.0004e-09,1.1258e-08,6.18106e-26,5.13348e-25,0.0,6.750100034480511e-09,1.1258000087721598e-08,0.0,2.5030089112476617e-10,0.0,-3.0004000395322805e-09
1,0.000568,0.00311619,0.00103873,2.1684e-19,0.00179913,-2.79039e-28,-1.61103e-28,1.35001e-08,5.00425e-10,-6.00057e-09,2.25162e-08,2.06826e-25,-3.58238e-25,0.0,1.3500100148888805e-08,2.2516200237632233e-08,0.0,5.00425034744012e-10,0.0,-6.000569929831556e-09
2,0.000994,0.00545333,0.00181778,2.1684e-19,0.00314848,-6.04799e-21,-2.25714e-20,2.36252e-08,8.75688e-10,-1.05009e-08,3.94034e-08,-4.13622e-25,7.16424e-25,0.0,2.3625200240573463e-08,3.9403400764470575e-08,0.0,8.756879665838824e-10,0.0,-1.0500899927379237e-08
3,0.001633,0.00895905,0.00298635,4.33681e-19,0.00517251,-5.11908e-20,-1.04754e-20,3.88125e-08,1.4375e-09,-1.725e-08,6.47354e-08,3.9316e-32,2.26991e-32,0.0,3.8812500768869995e-08,6.473540214990692e-08,0.0,1.4374998968946784e-09,0.0,-1.7249999872959165e-08
4,0.0025915,0.0142176,0.00473921,-1.30104e-18,0.00820854,3.90948e-20,-3.46674e-20,6.15937e-08,2.28125e-09,-2.7375e-08,1.02732e-07,2.86544e-24,1.65436e-24,0.0,6.159370191660685e-08,1.027320053470504e-07,0.0,2.281250077729169e-09,0.0,-2.7374999600482397e-08
5,0.0040292,0.0221055,0.00736849,-1.30104e-18,0.0127626,-7.53827e-20,-1.00761e-19,9.57656e-08,3.54688e-09,-4.25625e-08,1.59728e-07,2.30786e-31,1.33244e-31,0.0,9.576560455748506e-08,1.597280128162737e-07,0.0,3.5468799008953056e-09,0.0,-4.256249908074494e-08
6,0.0061859,0.0339373,0.0113124,-4.77049e-18,0.0195937,1.20526e-19,8.8665e-20,1.47024e-07,5.44671e-09,-6.53456e-08,2.45219e-07,-6.61761e-24,1.14621e-23,0.0,1.4702401074373483e-07,2.452190299706558e-07,0.0,5.446709971934638e-09,0.0,-6.534559782167548e-08
7,0.0094208,0.0516849,0.0172283,7.37257e-18,0.0298403,1.86619e-19,-2.58125e-20,2.2391e-07,8.29297e-09,-9.95156e-08,3.7346e-07,-6.95067e-31,-4.01297e-31,0.0,2.2391002496569e-07,3.734600697580248e-07,0.0,8.292970088419338e-09,0.0,-9.951559509779884e-08
8,0.014273,0.0783064,0.0261021,-1.30104e-18,0.0452102,1.86619e-19,-2.58125e-20,3.39241e-07,1.25671e-08,-1.50777e-07,5.65816e-07,2.64704e-23,-4.58482e-23,0.0,3.392410574676319e-07,5.658161601473921e-07,0.0,1.2567100027283118e-08,0.0,-1.5077698867216327e-07
9,0.021552,0.118239,0.0394129,1.25767e-17,0.0682651,-8.0004e-19,6.25633e-19,5.12236e-07,1.89735e-08,-2.27663e-07,8.54355e-07,-6.61759e-24,1.1462e-23,0.0,5.122361312892565e-07,8.543553648987512e-07,0.0,1.8973500104380037e-08,0.0,-2.276629741393421e-07
10,0.03247,0.178137,0.059379,-1.30104e-18,0.102847,-4.23358e-20,-1.58e-19,7.71729e-07,2.8587e-08,-3.42996e-07,1.28716e-06,1.86326e-30,1.07575e-30,0.0,7.717292977993395e-07,1.2871608283671065e-06,0.0,2.858700032248862e-08,0.0,-3.429959412049044e-07
11,0.048847,0.267985,0.0893282,-4.29344e-17,0.154721,2.05368e-18,4.41588e-19,1.16097e-06,4.30043e-08,-5.15992e-07,1.93637e-06,4.58471e-23,2.64698e-23,0.0,1.1609706738191505e-06,1.9363718748444114e-06,0.0,4.300430100911967e-08,0.0,-5.159918669006558e-07
12,0.073412,0.402756,0.134252,-1.51788e-17,0.232531,2.58243e-18,-4.74234e-19,1.74483e-06,6.46307e-08,-7.75487e-07,2.91018e-06,4.93934e-23,-3.26124e-23,0.0,1.744831522154655e-06,2.910184234483637e-06,0.0,6.463070212348043e-08,0.0,-7.754866993003873e-07
13,0.1103,0.604912,0.201637,-1.51788e-17,0.349246,1.27953e-18,-2.44755e-18,2.62061e-06,9.70596e-08,-1.16471e-06,4.37091e-06,6.3275e-30,3.65319e-30,0.0,2.62061343381248e-06,4.370919552521002e-06,0.0,9.705960479777787e-08,0.0,-1.1647093217659332e-06
14,0.1655,0.908146,0.302715,4.03323e-17,0.524319,-4.21537e-18,-5.62004e-18,3.93429e-06,1.45719e-07,-1.74858e-06,6.56199e-06,-9.87872e-23,6.52263e-23,0.0,3.934297739371928e-06,6.562011529931411e-06,0.0,1.4571901063575865e-07,0.0,-1.748578471238993e-06
15,0.2484,1.363,0.454332,-2.09468e-16,0.786926,1.22694e-17,3.89742e-18,5.90479e-06,2.18705e-07,-2.62436e-06,9.8486e-06,7.75059e-23,2.8927e-22,0.0,5.904807433232406e-06,9.848648497623458e-06,0.0,2.1870502386889257e-07,0.0,-2.624356556402141e-06
16,0.3728,2.04527,0.681756,2.34621e-16,1.18084,-2.38375e-18,-4.56255e-18,8.86055e-06,3.28182e-07,-3.93804e-06,1.47785e-05,-2.4013e-22,8.39438e-22,0.0,8.860589254755524e-06,1.4778609202625859e-05,0.0,3.281820537548441e-07,0.0,-3.938032245964784e-06
17,0.5593,3.06867,1.02289,4.56666e-16,1.7717,1.53658e-17,1.54539e-17,1.32942e-05,4.92389e-07,-5.90853e-06,2.21733e-05,1.55012e-22,5.78537e-22,0.0,1.3294288368159712e-05,2.2173545829451413e-05,0.0,4.923891212538223e-07,0.0,-5.908512544672284e-06
18,0.8392,4.60377,1.53459,2.34621e-16,2.65799,5.31314e-17,1.77204e-17,1.99445e-05,7.38697e-07,-8.86424e-06,3.32654e-05,1.58058e-21,-1.04362e-21,0.0,1.9944698892881974e-05,3.326595329955495e-05,0.0,7.38697272906208e-07,0.0,-8.864200712777048e-06
19,1.259,6.90638,2.30213,-1.31969e-15,3.9874,2.38248e-17,8.00221e-19,2.99199e-05,1.10814e-06,-1.32977e-05,4.99034e-05,-1.31371e-26,-7.5847e-27,0.0,2.992034760462836e-05,4.990464519538662e-05,0.0,1.1081406139368255e-06,0.0,-1.3297611585971758e-05
20,1.888,10.3602,3.45341,-4.65036e-15,5.98148,-2.24011e-17,1.31867e-17,4.48827e-05,1.66234e-06,-1.99479e-05,7.48599e-05,-3.16123e-21,2.08725e-21,0.0,4.4883707243537074e-05,7.486270207235357e-05,0.0,1.6623413816585497e-06,0.0,-1.994770104196686e-05
21,2.833,15.5409,5.18029,-2.86312e-14,8.97252,5.76643e-17,-5.78126e-17,6.73263e-05,2.49357e-06,-2.99228e-05,0.000112294,-7.33604e-22,-4.23546e-22,0.0,6.732856646629592e-05,0.00011230030520725798,0.0,2.4935731088859825e-06,0.0,-2.9922352317468537e-05
22,4.249,93.5787,31.1929,-1.03265e-09,54.0277,3.28372e-16,-5.26719e-16,0.000405403,1.5015e-05,-0.000180179,0.000676171,6.77731e-21,-1.17391e-20,0.0,0.00040548518690219915,0.0006763996551444329,0.0,1.5015112725613733e-05,0.0,-0.00018016276873877857
23,6.374,211.097,70.3658,-9.04826e-07,121.877,5.76346e-17,-5.78297e-17,0.000914519,3.38711e-05,-0.000406453,0.00152533,-4.01543e-25,-2.31831e-25,0.0,0.0009149373000056915,0.0015264939075101402,0.0,3.3871673632113186e-05,0.0,-0.00040637040916957634
24,9.214,362.696,120.971,0.000523046,209.466,-0.00862537,-0.00497823,0.00159355,5.50388e-05,-0.00071732,0.00266306,-1.09936e-07,-6.35026e-08,3.44597e-05,0.001594820375514061,0.002666609094065908,-1.0993599397490783e-07,5.504031466263548e-05,-6.350259795784297e-08,-0.0007170627875137114
25,12.05,380.313,127.264,9.41679e-05,220.001,-0.138323,-0.0797619,0.00225679,-3.14596e-05,-0.00124803,0.00388795,-2.504e-06,-1.46481e-06,0.000940454,0.00225933846731019,0.003895517882271937,-2.5039968649664957e-06,-3.145910515200967e-05,-1.4648089271540599e-06,-0.001247251534442717
26,14.89,394.785,132.437,8.19932e-05,228.659,-0.244703,-0.14104,0.00291874,-0.000120194,-0.00178342,0.00511405,-5.17591e-06,-3.0407e-06,0.0018663,0.0029230036687650784,0.005127149073954618,-5.175896604980856e-06,-0.00012018677699054958,-3.040695377043434e-06,-0.0017818306515173798
27,17.73,407.107,136.834,3.18076e-05,236.023,-0.33189,-0.191224,0.00357958,-0.00021041,-0.00232185,0.0063406,-8.05417e-06,-4.74688e-06,0.00280544,0.003585994347761634,0.006360744157021703,-8.054137565216557e-06,-0.0002103878653683111,-4.746868733529475e-06,-0.0023191565912557
28,20.57,417.862,140.664,1.12931e-05,242.445,-0.404941,-0.233245,0.00423938,-0.000301637,-0.00286234,0.00756721,-1.11129e-05,-6.56616e-06,0.003754,0.004248378883460413,0.007595913690195966,-1.1112838251947643e-05,-0.0003015915121338253,-6.566138442853919e-06,-0.002858247410587489
29,23.41,427.422,144.063,1.25315e-06,248.148,-0.467243,-0.269064,0.0048982,-0.000393584,-0.00340426,0.0087936,-1.43286e-05,-8.4832e-06,0.0047095,0.004910215792194084,0.008832377281104753,-1.432849734606112e-05,-0.0003935065559780293,-8.483164017802913e-06,-0.0033984720766542242
30,26.25,436.04,147.122,-5.00613e-06,253.285,-0.521138,-0.300035,0.0055561,-0.000486058,-0.0039472,0.0100196,-1.76801e-05,-1.04846e-05,0.00567026,0.005571563749719566,0.010069964261454567,-1.7679943707937795e-05,-0.00048593989294665185,-1.0484545036826276e-05,-0.0039394200457912865
31,29.09,443.893,149.905,-9.86791e-06,257.962,-0.568304,-0.32713,0.0062131,-0.000578927,-0.00449086,0.011245,-2.11495e-05,-1.2559e-05,0.0066351,0.006232441341619932,0.011308462668656816,-2.1149276350884705e-05,-0.0005787594540982433,-1.255892113605217e-05,-0.0044807911664432876
32,31.93,451.115,152.46,-1.42764e-05,262.26,-0.609975,-0.35106,0.00686925,-0.000672094,-0.00503502,0.0124698,-2.47211e-05,-1.46966e-05,0.00760312,0.00689289741343635,0.012547872133149118,-2.4720794436161597e-05,-0.0006718681954177574,-1.4696492005472628e-05,-0.0050223655342043205
33,34.77,457.806,154.824,-1.86294e-05,266.238,-0.647084,-0.372364,0.00752457,-0.000765491,-0.0055795,0.0136939,-2.83817e-05,-1.68891e-05,0.00857367,0.007552950716413376,0.013788090904462313,-2.8381297243362802e-05,-0.0007651980865100994,-1.688895737994578e-05,-0.005563963498608215
34,37.61,464.042,157.025,-2.30983e-05,269.944,-0.68035,-0.391458,0.00817908,-0.000859064,-0.0061242,0.0149172,-3.21198e-05,-1.91293e-05,0.00954624,0.008212620054726782,0.01502901673359891,-3.21192841646889e-05,-0.0008586951101627882,-1.9129117036054133e-05,-0.006105485310836101
35,40.45,469.886,159.084,-2.77539e-05,273.414,-0.710339,-0.408668,0.0088328,-0.000952773,-0.00666899,0.0161396,-3.59252e-05,-2.14111e-05,0.0105204,0.008871924285410282,0.01627054687227747,-3.5924554697697175e-05,-0.000952319255921652,-2.1410870783999947e-05,-0.006646801638244049
36,43.29,475.387,161.02,-3.26206e-05,276.678,-0.7375,-0.424252,0.00948574,-0.00104658,-0.0072138,0.0173611,-3.97895e-05,-2.3729e-05,0.0114959,0.009530872222975662,0.017512679823536992,-3.9788708408372564e-05,-0.001046032526160201,-2.3728718469451238e-05,-0.00718784299848918
37,46.13,480.585,162.847,-3.77008e-05,279.761,-0.7622,-0.438422,0.0101379,-0.00114047,-0.00775856,0.0185817,-4.37049e-05,-2.60784e-05,0.0124723,0.010189462606414512,0.018755414086958355,-4.370394495478713e-05,-0.001139819911248563,-2.6078059961465172e-05,-0.0077285400607000065
38,48.97,485.515,164.578,-4.29862e-05,282.683,-0.784738,-0.45135,0.0107894,-0.00123442,-0.00830323,0.0198014,-4.76649e-05,-2.84551e-05,0.0134495,0.010847815476463296,0.01999874815866476,-4.766376404674588e-05,-0.001233658417035044,-2.84546951574427e-05,-0.008268853397194964
39,51.81,490.204,166.222,-4.84635e-05,285.461,-0.805363,-0.46318,0.01144,-0.0013284,-0.00884774,0.0210201,-5.16634e-05,-3.08557e-05,0.0144274,0.01150568704762911,0.021242578407059787,-5.166206546947105e-05,-0.00132751806728304,-3.085522396772955e-05,-0.008808713930763434
40,54.65,494.677,167.789,-5.41179e-05,288.109,-0.824281,-0.47403,0.01209,-0.00142242,-0.00939207,0.0222378,-5.56952e-05,-3.32767e-05,0.0154056,0.012163379471091362,0.0224869029480268,-5.569364905111396e-05,-0.0014214088401599545,-3.3276146336747026e-05,-0.009348102267564662
41,57.49,498.954,169.285,-5.99336e-05,290.639,-0.841668,-0.484002,0.0127393,-0.00151644,-0.00993618,0.0234545,-5.97557e-05,-3.57155e-05,0.0163842,0.012820790558795148,0.023731719893667735,-5.975391466372937e-05,-0.001515290785841228,-3.5714862209101916e-05,-0.009886979254166373
42,60.33,503.053,170.717,-6.58952e-05,293.063,-0.857674,-0.493181,0.0133878,-0.00161047,-0.01048,0.0246701,-6.38406e-05,-3.81693e-05,0.017363,0.013477817859548491,0.024976924854610782,-6.383856223224349e-05,-0.0016091738890654517,-3.816857156158093e-05,-0.010425276135537231
43,63.17,506.988,172.091,-7.19882e-05,295.388,-0.872427,-0.501642,0.0140356,-0.0017045,-0.0110236,0.0258848,-6.79461e-05,-4.06358e-05,0.0183419,0.01413456148625225,0.026222720806222455,-6.794379171604081e-05,-0.0017030481648765416,-4.063497437700736e-05,-0.010963062771778942
44,66.01,510.774,173.411,-7.81983e-05,297.624,-0.886039,-0.509449,0.0146828,-0.00179852,-0.0115669,0.0270983,-7.20688e-05,-4.31131e-05,0.0193207,0.014791121814450525,0.027468797982334703,-7.206620310640233e-05,-0.001796903632073299,-4.311217064367767e-05,-0.011500260596772005
45,68.85,514.422,174.682,-8.45125e-05,299.778,-0.898604,-0.516655,0.0153292,-0.00189252,-0.0121099,0.0283108,-7.62056e-05,-4.55991e-05,0.0202995,0.015447294847868331,0.02871535947507331,-7.620269642705235e-05,-0.0018907303132087439,-4.5598060376850214e-05,-0.012036870252561394
46,71.69,517.942,175.907,-9.09183e-05,301.854,-0.910207,-0.52331,0.015975,-0.00198649,-0.0126526,0.0295223,-8.03537e-05,-4.80921e-05,0.0212782,0.016103282506497285,0.029962403377393976,-8.03504717279413e-05,-0.001984518234586896,-4.809094359348176e-05,-0.012572892380315115
47,74.53,521.344,177.089,-9.74041e-05,303.86,-0.920922,-0.529457,0.0166201,-0.00208044,-0.0131949,0.0307326,-8.45103e-05,-5.05906e-05,0.0222567,0.01675898220724137,0.03120972153652679,-8.450672910520485e-05,-0.002078277384693572,-5.0589320317206976e-05,-0.013108228931152044
48,77.37,524.635,178.233,-0.000103959,305.801,-0.930815,-0.535132,0.0172645,-0.00217437,-0.0137368,0.0319419,-8.86732e-05,-5.3093e-05,0.0232349,0.017414392846003324,0.032457517780714484,-8.86692686479229e-05,-0.002172007769982276,-5.309159059163626e-05,-0.013642880704912264
49,80.21,527.825,179.339,-0.000110572,307.679,-0.939942,-0.540368,0.0179083,-0.00226825,-0.0142784,0.03315,-9.28401e-05,-5.55982e-05,0.0242128,0.018069615125538174,0.03370558345021668,-9.283579049124135e-05,-0.0022656794648747702,-5.559665444876405e-05,-0.01417694708249262
50,83.05,530.918,180.411,-0.000117235,309.5,-0.948356,-0.545196,0.0185513,-0.0023621,-0.0148196,0.0343571,-9.70091e-05,-5.81047e-05,0.0251903,0.01872444439311205,0.03495412286435973,-9.700439476933997e-05,-0.002359312437061223,-5.810301195463552e-05,-0.014710330172248653
51,85.89,533.921,181.45,-0.000123937,311.267,-0.956101,-0.549641,0.0191938,-0.00245591,-0.0153604,0.0355631,-0.000101178,-6.06116e-05,0.0261675,0.01937918516158299,0.0362030304764529,-0.00010117288167876826,-0.0024528967203218954,-6.060976315402922e-05,-0.015243030770466848
52,88.73,536.84,182.46,-0.000130671,312.984,-0.96322,-0.553728,0.0198355,-0.00254968,-0.0159009,0.036768,-0.000105346,-6.31176e-05,0.0271443,0.020033530709016256,0.037452303981557744,-0.00010534045130494718,-0.0025464323267110345,-6.311560812621853e-05,-0.015775148094674174
53,91.57,539.679,183.441,-0.000137427,314.653,-0.969749,-0.557476,0.0204766,-0.00264341,-0.0164409,0.0379717,-0.00010951,-6.56219e-05,0.0281206,0.020687683871944973,0.03870183720055809,-0.0001095040039987838,-0.002639919268275115,-6.561974693020112e-05,-0.016306486040545853
54,94.41,542.443,184.395,-0.000144199,316.277,-0.975722,-0.560906,0.0211171,-0.00273709,-0.0169805,0.0391744,-0.000113669,-6.81235e-05,0.0290965,0.021341643741756622,0.03995183543592251,-0.00011366253992395325,-0.002733347584387369,-6.812117964705156e-05,-0.016837143876318628
55,97.25,545.136,185.323,-0.000150979,317.858,-0.981168,-0.564035,0.0217569,-0.00283073,-0.0175198,0.0403759,-0.000117822,-7.06215e-05,0.0300719,0.021995307210068038,0.041202088505324586,-0.00011781505926067304,-0.0028267272616148142,-7.061900636051721e-05,-0.01736722065657481
56,100.1,547.762,186.228,-0.000157759,319.399,-0.986115,-0.566878,0.0223961,-0.00292432,-0.0180585,0.0415764,-0.000121968,-7.31151e-05,0.0310467,0.022648775436632906,0.04245280220326153,-0.00012196056220581397,-0.002920048341182313,-7.311242715624111e-05,-0.017896422381524668
57,102.9,550.325,187.109,-0.000164534,320.903,-0.990589,-0.56945,0.0230347,-0.00301785,-0.0185969,0.0427757,-0.000126104,-7.56036e-05,0.032021,0.02330204751219922,0.043703765839347986,-0.00012609604922475537,-0.0030133008680386375,-7.560074211987455e-05,-0.01842504462983574
58,105.8,552.827,187.969,-0.000171296,322.37,-0.994611,-0.571763,0.0236726,-0.00311134,-0.0191349,0.0439738,-0.000130231,-7.80862e-05,0.0329947,0.02395502013178219,0.044954976709401295,-0.00013022252031136272,-0.003106504797654952,-7.808315135204857e-05,-0.018952989925806074
59,108.6,555.272,188.809,-0.00017804,323.802,-0.998202,-0.57383,0.0243098,-0.00320478,-0.0196724,0.0451709,-0.000134347,-8.05623e-05,0.0339679,0.0246076921898446,0.04620664134641417,-0.00013433797584583296,-0.0031996501740267913,-8.055905494508409e-05,-0.019480161003801788
60,111.5,557.662,189.628,-0.000184758,325.202,-1.00138,-0.575661,0.0249465,-0.00329816,-0.0202095,0.0463669,-0.00013845,-8.30312e-05,0.0349404,0.025260267632808642,0.04745865304321728,-0.00013844041624100356,-0.003292727044866939,-8.302775300528253e-05,-0.020006656806222045
61,114.3,560.0,190.429,-0.000191442,326.571,-1.00417,-0.577267,0.0255825,-0.0033915,-0.0207461,0.0475617,-0.00014254,-8.54922e-05,0.0359124,0.025912540563828523,0.04871090458797589,-0.00014252984165685767,-0.0033857553600254997,-8.548854564593977e-05,-0.020532380169986597
62,117.1,562.289,191.213,-0.000198016,327.909,-1.00657,-0.57866,0.0262179,-0.00348478,-0.0212823,0.0487554,-0.000146616,-8.79449e-05,0.0368837,0.0265646125334289,0.04996349825657642,-0.00014660525239951205,-0.0034787152010511413,-8.794103296061451e-05,-0.02105742992931936
63,120.0,564.531,191.979,0.000205728,329.22,-1.00861,-0.580195,0.0268527,-0.003578,-0.0218181,0.0499479,-0.00015068,-9.03904e-05,0.0378543,0.027216482631143846,0.0512163265786687,-0.00015066864833890303,-0.0035716065854852763,-9.038631491087301e-05,-0.02158180686523714
64,122.8,566.725,192.73,-0.000211787,330.504,-1.01107,-0.581253,0.0274868,-0.00367117,-0.0223534,0.0511394,-0.000154741,-9.28233e-05,0.0388244,0.02786804715948188,0.05246959731956147,-0.0001547290282288838,-0.00366443949421158,-9.281899205071387e-05,-0.02210541396807797
65,125.7,568.875,193.466,-0.000218741,331.762,-1.01335,-0.582571,0.0281203,-0.00376426,-0.0228882,0.0523297,-0.000158791,-9.5254e-05,0.0397937,0.028519407864076918,0.053723097754036386,-0.00015877839337641309,-0.003757184054676621,-9.524946348171692e-05,-0.02262825217329023
66,128.5,570.983,194.188,-0.000225796,332.996,-1.01566,-0.583902,0.0287532,-0.0038573,-0.0234226,0.053519,-0.000162832,-9.76798e-05,0.0407624,0.029170563833884833,0.054977036140855695,-0.00016281874358936577,-0.0038498701744470454,-9.767502948365703e-05,-0.023150420099631974
67,131.3,573.051,194.897,-0.000232882,334.206,-1.01798,-0.585246,0.0293855,-0.00395027,-0.0239566,0.0547071,-0.000166866,-0.000100101,0.0417304,0.029821514157654327,0.05623119924555775,-0.0001668520786433092,-0.003942477947077805,-0.0001000959900619991,-0.023671918522827462
68,134.2,575.079,195.593,-0.000240016,335.394,-1.02033,-0.586603,0.0300171,-0.00404316,-0.0244901,0.0558941,-0.000170892,-0.000102517,0.0426977,0.03047215487670596,0.057485690072072604,-0.000170877398793845,-0.0040349974331673755,-0.0001025117453118396,-0.024192650636653212
69,137.0,577.069,196.276,-0.000247197,336.56,-1.0227,-0.587972,0.0306482,-0.00413599,-0.0250232,0.05708,-0.000174912,-0.00010493,0.0436643,0.0311226911087652,0.05874050624812077,-0.0001748967037878968,-0.004127448573169601,-0.00010492449504007073,-0.024712714899153054
70,139.9,579.024,196.947,-0.000254426,337.705,-1.0251,-0.589354,0.0312786,-0.00422875,-0.0255558,0.0582648,-0.000178924,-0.000107338,0.0446302,0.031772915782523725,0.05999564539753033,-0.00017890799405562152,-0.004219821426720727,-0.00010733223948300452,-0.02523201460541047
71,142.7,580.943,197.607,-0.000261705,338.83,-1.02751,-0.590748,0.0319084,-0.00432144,-0.0260879,0.0594484,-0.00018293,-0.000109742,0.0455954,0.032422931033200264,0.06125099901514086,-0.00018291326932762253,-0.004312116014013934,-0.0001097359785670049,-0.025750550681681306
72,145.5,582.829,198.255,-0.000269034,339.936,-1.02995,-0.592155,0.0325375,-0.00441405,-0.0266196,0.060631,-0.000186929,-0.000112142,0.0465599,0.03307263264132643,0.06250677684164985,-0.00018691152986294313,-0.0044043223992673575,-0.00011213571232093766,-0.026268421425746147
73,148.4,584.683,198.893,-0.000276414,341.023,-1.0324,-0.593573,0.0331661,-0.00450658,-0.0271508,0.0618125,-0.000190923,-0.000114539,0.0475237,0.033722226244084386,0.06376287048969131,-0.00019090477536376493,-0.004496440605401109,-0.00011453244065917634,-0.02678553028401265
74,151.2,586.505,199.52,-0.000283846,342.093,-1.03488,-0.595004,0.033794,-0.00459904,-0.0276815,0.0629929,-0.000194911,-0.000116933,0.0484867,0.0343715042494408,0.06501927756759085,-0.00019489200608502344,-0.004588480609427736,-0.00011692616360314823,-0.027301878178058403
75,154.1,588.297,200.138,-0.000291331,343.145,-1.03738,-0.596447,0.0344213,-0.00469143,-0.0282118,0.0641722,-0.000198894,-0.000119323,0.0494489,0.035020569051947614,0.06627599567981313,-0.00019887422189956983,-0.004680442431462595,-0.00011931588129399096,-0.027817563246079646
76,156.9,590.061,200.746,-0.00029887,344.18,-1.0399,-0.597901,0.035048,-0.00478374,-0.0287417,0.0653504,-0.000202872,-0.00012171,0.0504105,0.03566941973869864,0.06753302242696724,-0.0002028514228672451,-0.004772316139325494,-0.00012170259363841751,-0.028332586251919034
77,159.7,591.796,201.344,-0.000306463,345.199,-1.04244,-0.599368,0.0356741,-0.00487597,-0.029271,0.0665274,-0.000206845,-0.000124095,0.0513713,0.036318055396600935,0.06879024852678439,-0.0002068236090477793,-0.004864101755849171,-0.00012408730053392603,-0.02884675372758938
78,162.6,593.504,201.933,-0.000314112,346.202,-1.045,-0.600846,0.0362996,-0.00496812,-0.0297999,0.0677034,-0.000210814,-0.000126476,0.0523313,0.036966475112376385,0.07004788520447813,-0.00021079178029004275,-0.004955799303842934,-0.00012646800224780375,-0.02936026087060839
79,165.4,595.185,202.514,-0.000321817,347.191,-1.04758,-0.602336,0.0369245,-0.00506019,-0.0303284,0.0688783,-0.000214778,-0.000128856,0.0532906,0.037614677972564126,0.07130582329583302,-0.00021475493685640945,-0.005047408806093001,-0.00012884769842214094,-0.029873108440830798
80,168.3,596.841,203.086,-0.00032958,348.164,-1.05018,-0.603838,0.0375487,-0.00515218,-0.0308564,0.0700522,-0.000218739,-0.000131232,0.0542491,0.038262559237261407,0.07256416764250995,-0.00021871507836912496,-0.005138930285361831,-0.00013122338945770196,-0.030385200235443444
81,171.1,598.473,203.651,-0.0003374,349.123,-1.0528,-0.605351,0.0381724,-0.00524409,-0.0313839,0.0712249,-0.000222695,-0.000133607,0.0552069,0.03891032558039331,0.07382270143896519,-0.0002226702053089724,-0.005230363764389234,-0.00013359807498225518,-0.030896537165346905
82,173.9,600.08,204.207,-0.000345279,350.069,-1.05545,-0.606875,0.0387954,-0.00533592,-0.0319109,0.0723965,-0.000226648,-0.000135979,0.0561639,0.039557768370718005,0.07508152939339308,-0.00022662231728232118,-0.005321709265892149,-0.0001359697552747452,-0.03140712013983016
83,176.8,601.664,204.755,-0.000353218,351.001,-1.05811,-0.608411,0.0394179,-0.00542766,-0.0324375,0.0735671,-0.000230598,-0.000138349,0.0571201,0.040205094540895825,0.07634075671365781,-0.0002305714143246984,-0.005412956866692631,-0.00013833943021834827,-0.03191704687487129
84,179.6,603.226,205.296,-0.000361217,351.92,-1.06079,-0.609958,0.0400397,-0.00551932,-0.0329636,0.0747366,-0.000234544,-0.000140717,0.0580756,0.040852095200340166,0.07760027358757005,-0.00023451649670624963,-0.005504116537154546,-0.00014070709982727525,-0.03242622136641615
85,182.5,604.765,205.83,-0.000369277,352.827,-1.06349,-0.611517,0.0406609,-0.0056109,-0.0334893,0.075905,-0.000238487,-0.000143083,0.0590303,0.041498873390385826,0.07886007758140345,-0.0002384585642358772,-0.005595188299922449,-0.000143072764115737,-0.032934741225687736
86,185.3,606.284,206.356,-0.000377399,353.721,-1.06621,-0.613086,0.0412815,-0.0057024,-0.0340144,0.0770723,-0.000242428,-0.000145448,0.0599842,0.04214542819641687,0.08012016625763807,-0.00024239861670682927,-0.005686172177617244,-0.00014543742295236584,-0.033442413891946465
87,188.1,607.782,206.876,-0.000385584,354.603,-1.06895,-0.614667,0.0419015,-0.00579381,-0.0345392,0.0782385,-0.000246366,-0.000147811,0.0609373,0.042791758703651483,0.08138053717496518,-0.0002463356543890294,-0.005777058250607148,-0.0001478000764922882,-0.0339495302341688
88,191.0,609.259,207.389,-0.000393833,355.474,-1.0717,-0.616259,0.0425209,-0.00588514,-0.0350634,0.0794037,-0.000250302,-0.000150173,0.0618897,0.04343786399714533,0.08264129615241833,-0.0002502706770678431,-0.005867856485512579,-0.0001501617245993625,-0.034455801185210744
89,193.8,610.718,207.896,-0.000402146,356.334,-1.07448,-0.617862,0.0431398,-0.00597638,-0.0355872,0.0805678,-0.000254235,-0.000152533,0.0628412,0.04408384757017014,0.08390233272920322,-0.00025420268502096555,-0.005958556964468009,-0.00015252136743337807,-0.03496142080321163
90,196.7,612.157,208.396,-0.000410524,357.182,-1.07728,-0.619476,0.043758,-0.00606754,-0.0361105,0.0817308,-0.000258167,-0.000154893,0.063792,0.044729499755265856,0.08516364445276703,-0.00025813367776761353,-0.006049169652226127,-0.00015488100469851496,-0.03546629338027418
91,199.5,613.578,208.891,-0.000418968,358.02,-1.08009,-0.6211,0.0443756,-0.00615861,-0.0366334,0.0828928,-0.000262097,-0.000157251,0.064742,0.04537492398080034,0.08642533750932091,-0.0002620626555818184,-0.006139684632683773,-0.00015723863670946692,-0.03597051621491654
92,202.3,614.98,209.379,-0.000427479,358.848,-1.08293,-0.622736,0.0449926,-0.0062496,-0.0371558,0.0840537,-0.000266025,-0.000159608,0.0656912,0.046020119331193765,0.08768730104864408,-0.0002659896184871169,-0.00623011186872946,-0.00015959526332076646,-0.036473993697477614
93,205.2,616.365,209.861,-0.000436058,359.665,-1.08578,-0.624382,0.045609,-0.00634049,-0.0376777,0.0852135,-0.000269951,-0.000161964,0.0666397,0.04666508489071375,0.08894953260699157,-0.00026991456650726775,-0.0063204315092235674,-0.00016195088453940798,-0.03697672672057306
94,208.0,617.733,210.338,-0.000444704,360.473,-1.08865,-0.626039,0.0462248,-0.00643131,-0.0381991,0.0863722,-0.000273876,-0.000164319,0.0675873,0.0473098197434767,0.09021202971687314,-0.0002738384993918874,-0.0064106733896882595,-0.00016430550037249692,-0.03747871617523779
95,210.9,619.085,210.809,-0.00045342,361.271,-1.09154,-0.627707,0.0468401,-0.00652203,-0.0387201,0.0875299,-0.0002778,-0.000166673,0.0685342,0.04795442776888681,0.09147489905454376,-0.0002777614171528553,-0.006500807724842739,-0.0001666591108271387,-0.03798005915292435
96,213.7,620.42,211.275,-0.000462206,362.06,-1.09445,-0.629386,0.0474547,-0.00661267,-0.0392407,0.0886866,-0.000281723,-0.000169027,0.0694802,0.04859869852431653,0.0927381385239805,-0.0002816833198019397,-0.006590854410653102,-0.0001690127157414345,-0.03848075639132986
97,216.5,621.739,211.736,-0.000471063,362.839,-1.09738,-0.631075,0.0480687,-0.00670322,-0.0397607,0.0898422,-0.000285645,-0.00017138,0.0704255,0.049242735824428285,0.09400163662545458,-0.0002856042073511311,-0.0066808035362782014,-0.00017136531528660903,-0.03898061642313444
98,219.4,623.043,212.191,-0.000479991,363.61,-1.10033,-0.632774,0.0486822,-0.00679369,-0.0402803,0.0909967,-0.000289566,-0.000173733,0.07137,0.049886643741413605,0.09526539087671204,-0.00028952407981208683,-0.006770665059035119,-0.00017371790929621156,-0.03947983238730213
99,222.2,624.331,212.642,-0.000488991,364.372,-1.10329,-0.634484,0.049295,-0.00688406,-0.0407994,0.0921502,-0.000293487,-0.000176085,0.0723137,0.050530211445703355,0.09652950844472996,-0.00029344393690333703,-0.0068604191384343816,-0.00017606949794624072,-0.03997830901550725
100,225.1,625.605,213.087,-0.000498064,365.125,-1.10627,-0.636205,0.0499073,-0.00697435,-0.0413181,0.0933026,-0.000297407,-0.000178437,0.0732566,0.05117364806218938,0.09779387743975021,-0.00029736277892222773,-0.0069500856631342645,-0.0001784210810652498,-0.0404761431421784
101,227.9,626.865,213.528,-0.000507211,365.87,-1.10927,-0.637936,0.050519,-0.00706455,-0.0418363,0.0944539,-0.000301327,-0.000180789,0.0741986,0.05181684768525763,0.09905849536847033,-0.0003012816055791845,-0.007039654725782052,-0.00018077265865346082,-0.04097323959598709
102,230.7,628.11,213.964,-0.000516433,366.607,-1.11229,-0.639678,0.0511301,-0.00715466,-0.0423541,0.0956043,-0.000305246,-0.000183141,0.0751399,0.052459809397820134,0.10032357979858686,-0.00030519941717965793,-0.007129126351290149,-0.00018312423071076278,-0.04146969510909948
103,233.6,629.342,214.395,-0.00052573,367.336,-1.11533,-0.64143,0.0517406,-0.00724468,-0.0428714,0.0967535,-0.000309166,-0.000185493,0.0760804,0.05310253228265571,0.10158879851192038,-0.00030911821311707666,-0.007218500564542207,-0.00018547579723704466,-0.04196541460691694
104,236.4,630.56,214.823,-0.000535103,368.058,-1.11838,-0.643192,0.0523505,-0.00733461,-0.0433882,0.0979018,-0.000313086,-0.000187844,0.0770202,0.053745015422412834,0.10285447948090365,-0.0003130369936928945,-0.007307777390393899,-0.00018782635842040651,-0.042460398965672996
105,239.3,631.765,215.245,-0.000544553,368.771,-1.12145,-0.644964,0.0529599,-0.00742446,-0.0439045,0.099049,-0.000317005,-0.000190196,0.0779591,0.05438736333834182,0.1041204001330136,-0.0003169547592239974,-0.007396966779701919,-0.00019017791388742378,-0.04295464906004609
106,242.1,632.957,215.664,-0.000554081,369.478,-1.12455,-0.646747,0.0535686,-0.00751422,-0.0444204,0.100195,-0.000320925,-0.000192548,0.0788972,0.055029364299575834,0.10538644741810033,-0.0003208735090806103,-0.007486058829452857,-0.00019252946382353198,-0.04344826141834024
107,244.9,634.137,216.078,-0.000563687,370.177,-1.12765,-0.64854,0.0541768,-0.00760388,-0.0449359,0.10134,-0.000324846,-0.0001949,0.0798345,0.055671228330008926,0.10665283977166062,-0.0003247932432509648,-0.0075750436401693655,-0.0001948810082287311,-0.043941236764266645
108,247.8,635.304,216.488,-0.000573372,370.869,-1.13078,-0.650343,0.0547844,-0.00769346,-0.0454508,0.102484,-0.000328767,-0.000197252,0.080771,0.056312849072984505,0.10791957505478944,-0.0003287129620520579,-0.007663941085984116,-0.00019723254710324323,-0.04443338470709557
109,250.6,636.459,216.894,-0.000583137,371.554,-1.13392,-0.652157,0.0553914,-0.00778295,-0.0459654,0.103627,-0.000332688,-0.000199605,0.0817068,0.05695422561045804,0.10918665112510362,-0.0003326326654840006,-0.007752741266473184,-0.00019958508024731092,-0.04492499278571793
110,253.5,637.603,217.297,-0.000592984,372.232,-1.13708,-0.65398,0.0559978,-0.00787235,-0.0464794,0.104769,-0.000336611,-0.000201958,0.0826417,0.057595357024266436,0.11045406583674588,-0.00033655435287360813,-0.007841444206323156,-0.0002019376078558066,-0.04541577519754092
111,256.3,638.734,217.695,-0.000602911,372.904,-1.14026,-0.655814,0.0566037,-0.00796166,-0.046993,0.10591,-0.000340534,-0.000204312,0.0835758,0.058236348219760536,0.11172181704038864,-0.00034047602487863315,-0.00793004993019375,-0.00020429112972464303,-0.04590592377447056
112,259.1,639.855,218.09,-0.000612922,373.569,-1.14346,-0.657657,0.0572089,-0.00805088,-0.0475062,0.10705,-0.000344458,-0.000206666,0.0845092,0.058876986695351796,0.1129899025832406,-0.00034439868115443417,-0.008018558462714598,-0.0002066446460532445,-0.04639543923397871
113,262.0,640.964,218.481,-0.000623015,374.228,-1.14667,-0.659511,0.0578136,-0.00814001,-0.0480188,0.108189,-0.000348384,-0.000209021,0.0854417,0.05951748324382078,0.11425832030904903,-0.0003483233213411596,-0.008106969828487798,-0.0002089991566326388,-0.046884131669255646
114,264.8,642.063,218.868,-0.000633192,374.88,-1.1499,-0.661375,0.0584178,-0.00822905,-0.0485311,0.109327,-0.00035231,-0.000211376,0.0863734,0.06015783713862799,0.1155270680581062,-0.00035224794611976584,-0.008195284052086693,-0.00021135366166724623,-0.04737228787671233
115,267.7,643.151,219.252,-0.000643454,375.526,-1.15315,-0.663248,0.0590213,-0.008318,-0.0490428,0.110464,-0.000356238,-0.000213733,0.0873044,0.060797835493419994,0.11679614366725355,-0.0003561745547778772,-0.008283501158056206,-0.00021371016072946336,-0.047859622781736944
116,270.5,644.228,219.632,-0.000653802,376.167,-1.15642,-0.665132,0.0596243,-0.00840686,-0.0495541,0.1116,-0.000360167,-0.00021609,0.0882345,0.061437689484812985,0.11806554496988642,-0.00036010214765214155,-0.00837162117091328,-0.00021606665423745675,-0.048346327719888005
117,273.3,645.296,220.009,-0.000664236,376.801,-1.1597,-0.667026,0.0602267,-0.00849564,-0.050065,0.112735,-0.000364098,-0.000218448,0.0891639,0.062077292177947774,0.11933526979595821,-0.00036403172436716424,-0.008459654030549157,-0.00021842414197281723,-0.0488324034024501
118,276.2,646.353,220.383,-0.000674757,377.43,-1.163,-0.668929,0.0608285,-0.00858432,-0.0505754,0.113868,-0.00036803,-0.000220807,0.0900925,0.06271664265364296,0.12060419536723144,-0.00036796228526692065,-0.00854757992973787,-0.0002207826239284394,-0.04931775547136874
119,279.0,647.4,220.753,-0.000685366,378.052,-1.16632,-0.670843,0.0614298,-0.00867291,-0.0510853,0.115001,-0.000371964,-0.000223167,0.0910202,0.06335584632819602,0.12187455944593695,-0.0003718948299680225,-0.008635408809194223,-0.00022314210009732882,-0.04980238478111132
120,281.9,648.438,221.12,-0.000696064,378.67,-1.16966,-0.672766,0.0620305,-0.00876141,-0.0515948,0.116133,-0.0003759,-0.000225527,0.0919472,0.06399479607442826,0.12314524051702591,-0.00037582935844671095,-0.008723140693321474,-0.00022550157069778365,-0.05028638715598999
121,284.0,649.215,221.396,-0.000707587,379.133,-1.17219,-0.674225,0.062484,-0.00882822,-0.0519795,0.116987,-0.000378873,-0.000227312,0.092647,0.06447742714277127,0.12410481623293856,-0.0003788012366883198,-0.008789365688021133,-0.0002272861665847392,-0.050651671715861046
