,Time,S11,S22,S33,S12,S13,S23,LE11,LE22,LE33,LE12,LE13,LE23,SDV_EPBAR,E11,E12,E13,E22,E23,E33
0,0.000284,0.0015581,0.000519365,0.0,0.000899567,1.32028e-20,2.67023e-20,6.7501e-09,2.50301e-10,-3.0004e-09,1.1258e-08,6.18106e-26,5.13348e-25,0.0,6.750100034480511e-09,1.1258000087721598e-08,0.0,2.5030089112476617e-10,0.0,-3.0004000395322805e-09
1,0.000568,0.00311619,0.00103873,2.1684e-19,0.00179913,-2.79039e-28,-1.61103e-28,1.35001e-08,5.00425e-10,-6.00057e-09,2.25162e-08,2.06826e-25,-3.58238e-25,0.0,1.3500100148888805e-08,2.2516200237632233e-08,0.0,5.00425034744012e-10,0.0,-6.000569929831556e-09
2,0.000994,0.00545333,0.00181778,2.1684e-19,0.00314848,-6.04799e-21,-2.25714e-20,2.36252e-08,8.75688e-10,-1.05009e-08,3.94034e-08,-4.13622e-25,7.16424e-25,0.0,2.3625200240573463e-08,3.9403400764470575e-08,0.0,8.756879665838824e-10,0.0,-1.0500899927379237e-08
3,0.001633,0.00895905,0.00298635,4.33681e-19,0.00517251,-5.11908e-20,-1.04754e-20,3.88125e-08,1.4375e-09,-1.725e-08,6.47354e-08,3.9316e-32,2.26991e-32,0.0,3.8812500768869995e-08,6.473540214990692e-08,0.0,1.4374998968946784e-09,0.0,-1.7249999872959165e-08
4,0.0025915,0.0142176,0.00473921,-1.30104e-18,0.00820854,3.90948e-20,-3.46674e-20,6.15937e-08,2.28125e-09,-2.7375e-08,1.02732e-07,2.86544e-24,1.65436e-24,0.0,6.159370191660685e-08,1.027320053470504e-07,0.0,2.281250077729169e-09,0.0,-2.7374999600482397e-08
5,0.0040292,0.0221055,0.00736849,-1.30104e-18,0.0127626,-7.53827e-20,-1.00761e-19,9.57656e-08,3.54688e-09,-4.25625e-08,1.59728e-07,2.30786e-31,1.33244e-31,0.0,9.576560455748506e-08,1.597280128162737e-07,0.0,3.5468799008953056e-09,0.0,-4.256249908074494e-08
6,0.0061859,0.0339373,0.0113124,-4.77049e-18,0.0195937,1.20526e-19,8.8665e-20,1.47024e-07,5.44671e-09,-6.53456e-08,2.45219e-07,-6.61761e-24,1.14621e-23,0.0,1.4702401074373483e-07,2.452190299706558e-07,0.0,5.446709971934638e-09,0.0,-6.534559782167548e-08
7,0.0094208,0.0516849,0.0172283,7.37257e-18,0.0298403,1.86619e-19,-2.58125e-20,2.2391e-07,8.29297e-09,-9.95156e-08,3.7346e-07,-6.95067e-31,-4.01297e-31,0.0,2.2391002496569e-07,3.734600697580248e-07,0.0,8.292970088419338e-09,0.0,-9.951559509779884e-08
8,0.014273,0.0783064,0.0261021,-1.30104e-18,0.0452102,1.86619e-19,-2.58125e-20,3.39241e-07,1.25671e-08,-1.50777e-07,5.65816e-07,2.64704e-23,-4.58482e-23,0.0,3.392410574676319e-07,5.658161601473921e-07,0.0,1.2567100027283118e-08,0.0,-1.5077698867216327e-07
9,0.021552,0.118239,0.0394129,1.25767e-17,0.0682651,-8.0004e-19,6.25633e-19,5.12236e-07,1.89735e-08,-2.27663e-07,8.54355e-07,-6.61759e-24,1.1462e-23,0.0,5.122361312892565e-07,8.543553648987512e-07,0.0,1.8973500104380037e-08,0.0,-2.276629741393421e-07
10,0.03247,0.178137,0.059379,-1.30104e-18,0.102847,-4.23358e-20,-1.58e-19,7.71729e-07,2.8587e-08,-3.42996e-07,1.28716e-06,1.86326e-30,1.07575e-30,0.0,7.717292977993395e-07,1.2871608283671065e-06,0.0,2.858700032248862e-08,0.0,-3.429959412049044e-07
11,0.048847,0.267985,0.0893282,-4.29344e-17,0.154721,2.05368e-18,4.41588e-19,1.16097e-06,4.30043e-08,-5.15992e-07,1.93637e-06,4.58471e-23,2.64698e-23,0.0,1.1609706738191505e-06,1.9363718748444114e-06,0.0,4.300430100911967e-08,0.0,-5.159918669006558e-07
12,0.073412,0.402756,0.134252,-1.51788e-17,0.232531,2.58243e-18,-4.74234e-19,1.74483e-06,6.46307e-08,-7.75487e-07,2.91018e-06,4.93934e-23,-3.26124e-23,0.0,1.744831522154655e-06,2.910184234483637e-06,0.0,6.463070212348043e-08,0.0,-7.754866993003873e-07
13,0.1103,0.604912,0.201637,-1.51788e-17,0.349246,1.27953e-18,-2.44755e-18,2.62061e-06,9.70596e-08,-1.16471e-06,4.37091e-06,6.3275e-30,3.65319e-30,0.0,2.62061343381248e-06,4.370919552521002e-06,0.0,9.705960479777787e-08,0.0,-1.1647093217659332e-06
14,0.1655,0.908146,0.302715,4.03323e-17,0.524319,-4.21537e-18,-5.62004e-18,3.93429e-06,1.45719e-07,-1.74858e-06,6.56199e-06,-9.87872e-23,6.52263e-23,0.0,3.934297739371928e-06,6.562011529931411e-06,0.0,1.4571901063575865e-07,0.0,-1.748578471238993e-06
15,0.2484,1.363,0.454332,-2.09468e-16,0.786926,1.22694e-17,3.89742e-18,5.90479e-06,2.18705e-07,-2.62436e-06,9.8486e-06,7.75059e-23,2.8927e-22,0.0,5.904807433232406e-06,9.848648497623458e-06,0.0,2.1870502386889257e-07,0.0,-2.624356556402141e-06
16,0.3728,2.04527,0.681756,2.34621e-16,1.18084,-2.38375e-18,-4.56255e-18,8.86055e-06,3.28182e-07,-3.93804e-06,1.47785e-05,-2.4013e-22,8.39438e-22,0.0,8.860589254755524e-06,1.4778609202625859e-05,0.0,3.281820537548441e-07,0.0,-3.938032245964784e-06
17,0.5593,3.06867,1.02289,4.56666e-16,1.7717,1.53658e-17,1.54539e-17,1.32942e-05,4.92389e-07,-5.90853e-06,2.21733e-05,1.55012e-22,5.78537e-22,0.0,1.3294288368159712e-05,2.2173545829451413e-05,0.0,4.923891212538223e-07,0.0,-5.908512544672284e-06
18,0.8392,4.60377,1.53459,2.34621e-16,2.65799,5.31314e-17,1.77204e-17,1.99445e-05,7.38697e-07,-8.86424e-06,3.32654e-05,1.58058e-21,-1.04362e-21,0.0,1.9944698892881974e-05,3.326595329955495e-05,0.0,7.38697272906208e-07,0.0,-8.864200712777048e-06
19,1.259,6.90638,2.30213,-1.31969e-15,3.9874,2.38248e-17,8.00221e-19,2.99199e-05,1.10814e-06,-1.32977e-05,4.99034e-05,-1.31371e-26,-7.5847e-27,0.0,2.992034760462836e-05,4.990464519538662e-05,0.0,1.1081406139368255e-06,0.0,-1.3297611585971758e-05
20,1.888,10.3602,3.45341,-4.65036e-15,5.98148,-2.24011e-17,1.31867e-17,4.48827e-05,1.66234e-06,-1.99479e-05,7.48599e-05,-3.16123e-21,2.08725e-21,0.0,4.4883707243537074e-05,7.486270207235357e-05,0.0,1.6623413816585497e-06,0.0,-1.994770104196686e-05
21,2.833,15.5409,5.18029,-2.86312e-14,8.97252,5.76643e-17,-5.78126e-17,6.73263e-05,2.49357e-06,-2.99228e-05,0.000112294,-7.33604e-22,-4.23546e-22,0.0,6.732856646629592e-05,0.00011230030520725798,0.0,2.4935731088859825e-06,0.0,-2.9922352317468537e-05
22,4.249,93.5787,31.1929,-1.03265e-09,54.0277,3.28372e-16,-5.26719e-16,0.000405403,1.5015e-05,-0.000180179,0.000676171,6.77731e-21,-1.17391e-20,0.0,0.00040548518690219915,0.0006763996551444329,0.0,1.5015112725613733e-05,0.0,-0.00018016276873877857
23,6.374,211.097,70.3658,-9.04826e-07,121.877,5.76346e-17,-5.78297e-17,0.000914519,3.38711e-05,-0.000406453,0.00152533,-4.01543e-25,-2.31831e-25,0.0,0.0009149373000056915,0.0015264939075101402,0.0,3.3871673632113186e-05,0.0,-0.00040637040916957634
24,9.214,362.784,120.998,0.000482269,209.515,-0.00839558,-0.00484563,0.00159354,5.50582e-05,-0.000717111,0.00266306,-1.06977e-07,-6.17931e-08,3.39056e-05,0.0015948103595657681,0.002666609094065908,-1.0697699426298612e-07,5.505971573049884e-05,-6.179309808285183e-08,-0.0007168539373579863
25,12.05,380.414,127.293,8.76247e-05,220.055,-0.136935,-0.0789615,0.00225616,-3.25834e-05,-0.00124602,0.0038897,-2.47898e-06,-1.45017e-06,0.000940078,0.002258707044125563,0.0038972747009655695,-2.478976927289267e-06,-3.25828691667418e-05,-1.4501689484802682e-06,-0.0012452440394007391
26,14.89,394.896,132.466,7.99343e-05,228.715,-0.242271,-0.139638,0.00291747,-0.000122481,-0.00177959,0.00511758,-5.12479e-06,-3.01067e-06,0.00186613,0.002921729957358954,0.005130697179053234,-5.1247768683149175e-06,-0.00012247349950844644,-3.010665467928497e-06,-0.0017780074686073455
27,17.73,407.227,136.862,3.10463e-05,236.082,-0.328608,-0.189332,0.00357765,-0.000213871,-0.00231618,0.00634594,-7.97514e-06,-4.70029e-06,0.00280548,0.0035840574286616356,0.006366118137744126,-7.975108198610137e-06,-0.0002138481312279339,-4.700278953606585e-06,-0.0023134997248362987
28,20.57,417.989,140.693,1.10674e-05,242.506,-0.400955,-0.230948,0.00423679,-0.00030628,-0.00285481,0.00757436,-1.10045e-05,-6.50206e-06,0.00375426,0.004245777883527646,0.007603118026734412,-1.1004439450679193e-05,-0.0003062331010690311,-6.502038861655457e-06,-0.0028507389049210463
29,23.41,427.555,144.092,1.25243e-06,248.211,-0.462668,-0.266428,0.00489495,-0.000399412,-0.00339487,0.00880259,-1.41894e-05,-8.4008e-06,0.00471,0.004906949839299735,0.00884144672494358,-1.4189299330946703e-05,-0.00039933224564570047,-8.400764713423214e-06,-0.003389113944370692
30,26.25,436.177,147.15,-4.88633e-06,253.349,-0.516067,-0.297114,0.00555218,-0.000493075,-0.00393595,0.0100304,-1.75093e-05,-1.03833e-05,0.005671,0.005567621916915622,0.010080873075976271,-1.7509146713057255e-05,-0.0004929534584993123,-1.0383246093703669e-05,-0.003928214301234578
31,29.09,444.035,149.934,-9.66289e-06,258.028,-0.562812,-0.323966,0.00620852,-0.000587134,-0.00447774,0.0112577,-2.09463e-05,-1.24383e-05,0.00663607,0.006227832807592204,0.01132130636769002,-2.0946080627748387e-05,-0.0005869616705613812,-1.243822264462846e-05,-0.0044677298687414435
32,31.93,451.261,152.489,-1.39964e-05,262.327,-0.604126,-0.34769,0.00686399,-0.000681493,-0.00502002,0.0124844,-2.44849e-05,-1.45561e-05,0.00760434,0.006887601170725066,0.012562655440000015,-2.4484600247287602e-05,-0.0006812608363877537,-1.4555994060527766e-05,-0.005007440757751724
33,34.77,457.955,154.853,-1.82754e-05,266.306,-0.640931,-0.36882,0.00751863,-0.000776082,-0.00556263,0.0137103,-2.81121e-05,-1.67285e-05,0.00857513,0.007546965869660971,0.013804717165488034,-2.811170485861325e-05,-0.0007757809262556314,-1.6728360079376614e-05,-0.005547187221164873
34,37.61,464.194,157.054,-2.26676e-05,270.013,-0.67394,-0.387766,0.00817246,-0.000870847,-0.00610544,0.0149354,-3.18163e-05,-1.89484e-05,0.00954795,0.00820594570927402,0.015047490429813681,-3.181579386690725e-05,-0.0008704679227986567,-1.8948220480208278e-05,-0.006086839674845024
35,40.45,470.041,159.113,-2.7243e-05,273.484,-0.703711,-0.404849,0.0088255,-0.000965747,-0.00664836,0.0161597,-3.55879e-05,-2.12098e-05,0.0105224,0.0088645595472443,0.016290974115562795,-3.558726675823021e-05,-0.000965280816449865,-2.12095750737884e-05,-0.006626308550376381
36,43.29,475.545,161.049,-3.2026e-05,276.75,-0.730691,-0.420329,0.00947776,-0.00106075,-0.00719129,0.0173831,-3.94181e-05,-2.35072e-05,0.0114981,0.009522816198758832,0.017535065348732948,-3.941732311685264e-05,-0.001060187603590279,-2.3506923707894423e-05,-0.007165494545304241
37,46.13,480.746,162.877,-3.70192e-05,279.834,-0.75524,-0.434412,0.0101293,-0.00115583,-0.00773418,0.0186056,-4.32995e-05,-2.58362e-05,0.0124748,0.01018077501439274,0.018779762632318953,-4.329856259022158e-05,-0.0011551622857850496,-2.583586624826939e-05,-0.007704348187609011
38,48.97,485.678,164.608,-4.2215e-05,282.757,-0.777656,-0.44727,0.01078,-0.00125097,-0.00827696,0.0198271,-4.72256e-05,-2.81925e-05,0.0134523,0.010838313551656986,0.020024962463344842,-4.722448488891917e-05,-0.001250187863206742,-2.819210259519256e-05,-0.00824280027776736
39,51.81,490.369,166.253,-4.76008e-05,285.535,-0.798183,-0.459043,0.01143,-0.00134614,-0.0088196,0.0210477,-5.11904e-05,-3.05728e-05,0.0144303,0.01149557204133389,0.021270765091198518,-5.1189089793846065e-05,-0.0013452343599684724,-3.057233265668646e-05,-0.008780821415527607
40,54.65,494.844,167.82,-5.31621e-05,288.184,-0.817027,-0.46985,0.0120793,-0.00144134,-0.00936205,0.0222673,-5.51888e-05,-3.29737e-05,0.0154089,0.012152549380872069,0.02251706675657772,-5.5187277126167444e-05,-0.0014403017683769503,-3.297315637351694e-05,-0.009318362451202211
41,57.49,499.123,169.316,-5.88838e-05,290.715,-0.834362,-0.479792,0.0127279,-0.00153655,-0.00990427,0.0234858,-5.92161e-05,-3.53924e-05,0.0163877,0.01280924446759557,0.023763763197975463,-5.9214346761371495e-05,-0.0015353701114453333,-3.539177369638047e-05,-0.00985538424357868
42,60.33,503.223,170.749,-6.47512e-05,293.139,-0.850335,-0.488952,0.0133757,-0.00163177,-0.0104463,0.0247034,-6.32682e-05,-3.78264e-05,0.0173667,0.013465554852143846,0.02501105715450813,-6.3266198609635e-05,-0.0016304393871832135,-3.78256845907643e-05,-0.010391926905411464
43,63.17,507.16,172.123,-7.075e-05,295.466,-0.865074,-0.497404,0.0140229,-0.00172698,-0.010988,0.0259199,-6.73414e-05,-4.02735e-05,0.0183459,0.014121682059105911,0.02625874185588839,-6.733913261880442e-05,-0.001725489628110699,-4.027268903350478e-05,-0.010927852430073326
44,66.01,510.947,173.444,-7.68665e-05,297.703,-0.878687,-0.505211,0.0146693,-0.00182218,-0.0115294,0.0271353,-7.14323e-05,-4.27315e-05,0.019325,0.01477742222677847,0.027506815031171028,-7.142974877394348e-05,-0.001820520837940709,-4.2730587022421496e-05,-0.011463191161496855
45,68.85,514.596,174.715,-8.3088e-05,299.857,-0.89127,-0.512427,0.0153151,-0.00191736,-0.0120705,0.0283497,-7.55377e-05,-4.51985e-05,0.020304,0.015432977141951021,0.028755377280898164,-7.553484709976743e-05,-0.0019155230395409006,-4.519747856313039e-05,-0.01199794373840224
46,71.69,518.117,175.941,-8.94025e-05,301.934,-0.902906,-0.519101,0.0159601,-0.00201252,-0.0126113,0.029563,-7.9655e-05,-4.7673e-05,0.021283,0.016088142680380058,0.030004323700284274,-7.965182762470491e-05,-0.002010496239471804,-4.767186366061438e-05,-0.012532110798636698
47,74.53,521.52,177.124,-9.57987e-05,303.941,-0.913669,-0.525274,0.0166045,-0.00210765,-0.0131517,0.0307752,-8.37815e-05,-5.01532e-05,0.0222617,0.016743120890837293,0.03125365200637664,-8.37779904281355e-05,-0.002105430465346614,-5.0151942349252465e-05,-0.013065594285740056
48,77.37,524.813,178.267,-0.000102266,305.882,-0.923622,-0.530983,0.0172483,-0.00220275,-0.0136918,0.0319864,-8.79148e-05,-5.26378e-05,0.0232402,0.01739791086634357,0.032503463162533164,-8.791093560722718e-05,-0.002200325726568031,-5.2636414655249375e-05,-0.013598493635842424
49,80.21,528.003,179.374,-0.000108794,307.761,-0.932822,-0.536261,0.0178913,-0.00229781,-0.0142315,0.0331964,-9.20529e-05,-5.51255e-05,0.0242183,0.018052308089191227,0.03375354850206924,-9.204866326173455e-05,-0.002295172055487127,-5.5123980617577395e-05,-0.014130710897080845
50,83.05,531.098,180.447,-0.000115375,309.583,-0.941321,-0.541137,0.0185337,-0.00239283,-0.0147709,0.0344054,-9.61937e-05,-5.7615e-05,0.0251961,0.018706515000669777,0.035004112355730754,-9.618907353436956e-05,-0.002389969464342223,-5.761334028775433e-05,-0.01466234539690825
51,85.89,534.102,181.487,-0.000121997,311.351,-0.949163,-0.545637,0.0191754,-0.00248782,-0.0153098,0.0356132,-0.000100335,-6.01052e-05,0.0261736,0.019360428757135395,0.036254945548741535,-0.0001003299666122448,-0.0024847279405176836,-6.0103393718646814e-05,-0.015193200807136265
52,88.73,537.021,182.497,-0.000128655,313.068,-0.956391,-0.549785,0.0198165,-0.00258276,-0.0158484,0.03682,-0.000104476,-6.25951e-05,0.0271506,0.02001415025604758,0.03750625290402465,-0.00010447054257278765,-0.0025794275449858572,-6.259314096757063e-05,-0.015723474933540427
53,91.57,539.861,183.478,-0.000135339,314.738,-0.963039,-0.553602,0.0204569,-0.00267765,-0.0163865,0.0380256,-0.000108614,-6.50837e-05,0.0281272,0.020667576522630737,0.03875782473843392,-0.00010860810171298141,-0.00267406829280481,-6.508158210194459e-05,-0.01625297165780859
54,94.41,542.626,184.433,-0.000142042,316.363,-0.969141,-0.557106,0.0210967,-0.0027725,-0.0169243,0.0392302,-0.000112749,-6.75701e-05,0.0291033,0.02132080858474339,0.04000986636738779,-0.00011274264407035162,-0.002768660171336368,-6.75678171921934e-05,-0.01678188857114482
55,97.25,545.32,185.362,-0.000148757,317.945,-0.974727,-0.560314,0.0217358,-0.0028673,-0.0174616,0.0404336,-0.000116878,-7.00535e-05,0.030079,0.02197374333658564,0.04126216759909651,-0.00011687117003256198,-0.002863193221414706,-7.005104631085945e-05,-0.017310029764578183
56,100.1,547.947,186.267,-0.000155477,319.487,-0.979824,-0.563242,0.0223743,-0.00296205,-0.0179986,0.0416359,-0.000121,-7.2533e-05,0.031054,0.022626481936328213,0.04251482999030087,-0.00012099267979526207,-0.0029576674580693574,-7.25303695455759e-05,-0.017837592615291387
57,102.9,550.51,187.149,-0.000162196,320.991,-0.984456,-0.565905,0.0230121,-0.00305675,-0.0185351,0.0428371,-0.000125114,-7.50079e-05,0.0320286,0.023278921147254383,0.043767851217971554,-0.00012510617356986664,-0.003052082896319641,-7.500508697777519e-05,-0.018364381423120135
58,105.8,553.013,188.01,-0.000168907,322.458,-0.988647,-0.568315,0.0236494,-0.00315139,-0.0190712,0.0440371,-0.00012922,-7.74775e-05,0.0330026,0.023931264650879802,0.04502112445298123,-0.00012921165145540758,-0.0031464295826385547,-7.747449869599521e-05,-0.018890495240829752
59,108.6,555.458,188.85,-0.000175604,323.892,-0.992416,-0.570483,0.0242859,-0.00324599,-0.0196068,0.0452361,-0.000133315,-7.99411e-05,0.033976,0.024583204358632038,0.04627485624321137,-0.00013330611395023784,-0.0032407274700396727,-7.993790479543517e-05,-0.019415836792552543
60,111.5,557.849,189.67,-0.000182282,325.292,-0.995782,-0.572421,0.0249219,-0.00334053,-0.020142,0.0464339,-0.000137399,-8.23981e-05,0.0349488,0.025235046540445616,0.047528835124045044,-0.0001373895611896936,-0.003334956637381814,-8.239470536974824e-05,-0.019940505022958965
61,114.3,560.187,190.472,-0.000188934,326.661,-0.998763,-0.574138,0.0255572,-0.00343502,-0.0206768,0.0476306,-0.00014147,-8.48479e-05,0.035921,0.025886585304887744,0.04878316325858467,-0.00014145999359138628,-0.003429127068176996,-8.484430051869385e-05,-0.020464500711936506
62,117.1,562.476,191.256,-0.000195546,328.001,-1.00137,-0.575645,0.0261919,-0.00352945,-0.0212112,0.0488262,-0.000145529,-8.729e-05,0.0368926,0.026537922200478903,0.05003783830385955,-0.00014551841116872133,-0.003523228812624124,-8.728619033882001e-05,-0.020987824638148522
63,120.0,564.718,192.023,-0.000201822,329.312,-1.00363,-0.576954,0.026826,-0.00362382,-0.0217451,0.0500206,-0.000149573,-8.97237e-05,0.0378635,0.027189056317200366,0.05129275278366974,-0.00014956181451641903,-0.0036172618885006447,-8.971967494919575e-05,-0.021510379730079632
64,122.8,566.914,192.774,0.000177012,330.596,-1.00565,-0.578456,0.0274594,-0.00371814,-0.0222785,0.0512139,-0.000153608,-9.21512e-05,0.0388338,0.027839883960827372,0.052548009225369174,-0.0001535962028951232,-0.0037112362764577522,-9.214695420856067e-05,-0.02203216692051657
65,125.7,569.065,193.51,-0.00021575,331.855,-1.00808,-0.579515,0.0280922,-0.00381239,-0.0228115,0.0524062,-0.000157639,-9.45668e-05,0.0398034,0.0284905068747765,0.05380371065441869,-0.00015762657562568005,-0.0038051320675299705,-9.45623287010866e-05,-0.022553284885273306
66,128.5,571.174,194.232,-0.000222664,333.089,-1.01033,-0.580819,0.0287244,-0.00390658,-0.0233441,0.0535973,-0.00016166,-9.69803e-05,0.0407723,0.029140924148460146,0.05505964407684405,-0.00016164693372622274,-0.003898959243280209,-9.697559756272067e-05,-0.023073734397735635
67,131.3,573.242,194.941,-0.000229675,334.299,-1.01261,-0.582134,0.029356,-0.0040007,-0.0238762,0.0547872,-0.000165673,-9.9389e-05,0.0417406,0.029791134871083313,0.05631580675310266,-0.00016565927698630745,-0.003992707861357081,-9.938406107690145e-05,-0.023593418589421655
68,134.2,575.271,195.637,-0.000236717,335.487,-1.01491,-0.583463,0.029987,-0.00409475,-0.0244079,0.0559761,-0.000169678,-0.000101793,0.0427082,0.030441138131648504,0.0575724074540227,-0.0001696636055021905,-0.004086377942278174,-0.00010178781926828417,-0.024112435975758184
69,137.0,577.263,196.32,-0.000243806,336.654,-1.01723,-0.584803,0.0306173,-0.00418873,-0.0249391,0.0571639,-0.000173676,-0.000104193,0.043675,0.03109082990986778,0.058829338303047596,-0.0001736609191964611,-0.004179969506542647,-0.0001041875720978469,-0.024630689789368554
70,139.9,579.218,196.991,-0.000250942,337.799,-1.01958,-0.586156,0.031247,-0.00428263,-0.0254698,0.0583505,-0.000177667,-0.000106588,0.0446412,0.03174031227352314,0.06008649091701601,-0.0001776512181531631,-0.004273472617366214,-0.00010658231970095411,-0.025148180953871058
71,142.7,581.138,197.651,-0.000258126,338.925,-1.02194,-0.587521,0.0318761,-0.00437647,-0.0260001,0.0595361,-0.000181651,-0.00010898,0.0456067,0.03238958431108041,0.06134407480906834,-0.00018163450245600732,-0.004366907210676119,-0.00010897406189547265,-0.02566500782475467
72,145.5,583.025,198.299,-0.000265358,340.031,-1.02433,-0.588899,0.0325046,-0.00447023,-0.02653,0.0607205,-0.000185629,-0.000111368,0.0465714,0.03303864511081067,0.06260187545377671,-0.00018561177200315804,-0.0044602533933184585,-0.00011136179881443553,-0.026181171167552697
73,148.4,584.88,198.937,-0.000272641,341.119,-1.02673,-0.590288,0.0331324,-0.00456391,-0.0270593,0.0619038,-0.000189602,-0.000113752,0.0475354,0.03368739039204738,0.06385999647350071,-0.00018958402667668128,-0.004553511188517434,-0.0001137455304864865,-0.02669647708591194
74,151.2,586.703,199.564,-0.000279973,342.188,-1.02916,-0.591689,0.0337597,-0.00465752,-0.0275883,0.0630861,-0.000193568,-0.000116132,0.0484987,0.03433602591530205,0.06511854198991052,-0.00019354926692338736,-0.004646690573005929,-0.00011612525694026932,-0.027211218488428557
75,154.1,588.496,200.182,-0.000287357,343.24,-1.03161,-0.593102,0.0343863,-0.00475105,-0.0281167,0.0642672,-0.000197529,-0.00011851,0.0494612,0.034984343965973386,0.06637729671112536,-0.0001975094924314691,-0.00473978161456623,-0.00011850297796733855,-0.02772510429999142
76,156.9,590.26,200.79,-0.000294793,344.276,-1.03407,-0.594527,0.0350123,-0.0048445,-0.0286447,0.0654472,-0.000201485,-0.000120884,0.050423,0.035632447000381484,0.06763636462522005,-0.00020146470326054544,-0.004832784336354368,-0.00012087669382365718,-0.028238329941428164
77,159.7,591.996,201.388,-0.000302283,345.295,-1.03656,-0.595963,0.0356377,-0.00493788,-0.0291722,0.0666262,-0.000205436,-0.000123256,0.051384,0.036280334105916134,0.06889585021997635,-0.0002054148994697913,-0.004925708712246513,-0.00012324840429123185,-0.028750799046774467
78,162.6,593.705,201.977,-0.000309826,346.298,-1.03907,-0.597411,0.0362625,-0.00503117,-0.0296993,0.067804,-0.000209382,-0.000125624,0.0523443,0.036928004369786604,0.07015553743654634,-0.00020936008111882565,-0.005018534862937685,-0.00012561610963568448,-0.029262609601075518
79,165.4,595.387,202.558,-0.000317423,347.287,-1.0416,-0.59887,0.0368867,-0.00512439,-0.0302259,0.0689808,-0.000213324,-0.00012799,0.0533039,0.037575456879020086,0.07141563777061655,-0.0002133012480532992,-0.005111282712073173,-0.00012798180962936279,-0.029773665338074018
80,168.3,597.044,203.13,-0.000325076,348.261,-1.04414,-0.600341,0.0375103,-0.00521752,-0.0307521,0.0701564,-0.000217262,-0.000130353,0.0542627,0.038222690720467245,0.0726759346517385,-0.0002172384003207295,-0.005203932384015175,-0.00013034450441684609,-0.03028406413767204
81,171.1,598.676,203.694,-0.000332786,349.22,-1.04671,-0.601823,0.0381332,-0.00531057,-0.0312778,0.071331,-0.000221196,-0.000132714,0.0552207,0.03886960109383586,0.07393664007192569,-0.00022117153796841205,-0.0052964938516177895,-0.0001327051938866397,-0.030793709833046745
82,173.9,600.284,204.25,-0.000340553,350.166,-1.0493,-0.603316,0.0387556,-0.00540354,-0.031803,0.0725045,-0.000225126,-0.000135073,0.0561779,0.039516394794876675,0.07519764446866883,-0.00022510066104353132,-0.0053889671378972714,-0.0001350638780529545,-0.031302603329512624
83,176.8,601.869,204.799,-0.000348377,351.098,-1.05191,-0.604821,0.0393773,-0.00549642,-0.0323277,0.0736769,-0.000229053,-0.00013743,0.0571344,0.04016286307136219,0.07645894541718601,-0.00022902676936431554,-0.005481342320659555,-0.00013742055693011235,-0.031810745530781226
84,179.6,603.431,205.34,-0.00035626,352.017,-1.05453,-0.606336,0.0399985,-0.00558923,-0.032852,0.0748482,-0.000232976,-0.000139784,0.0580901,0.04080921297739781,0.07772054048887056,-0.00023294886319913388,-0.005573639314170431,-0.0001397742306717964,-0.03231823410714374
85,182.5,604.972,205.873,-0.000364203,352.924,-1.05718,-0.607863,0.040619,-0.00568194,-0.0333759,0.0760184,-0.000236896,-0.000142137,0.0590451,0.04145523550181096,0.07898242725129645,-0.00023686794235810993,-0.005665828308582865,-0.0001421268990151603,-0.03282506980709066
86,185.3,606.491,206.4,-0.000372206,353.818,-1.05984,-0.609401,0.041239,-0.00577458,-0.0338992,0.0771876,-0.000240814,-0.000144488,0.0599992,0.04210113795689274,0.08024471129269095,-0.00024078500663604618,-0.005757939159607983,-0.0001444775621115557,-0.033331060044168415
87,188.1,607.989,206.92,-0.00038027,354.701,-1.06252,-0.61095,0.0418583,-0.00586713,-0.0344221,0.0783557,-0.000244728,-0.000146838,0.0609526,0.04274671107271155,0.08150728240104743,-0.0002446980565457002,-0.005849952004378545,-0.00014682721982850477,-0.033836399100460546
88,191.0,609.468,207.433,-0.000388395,355.572,-1.06523,-0.612509,0.042477,-0.00595959,-0.0349445,0.0795227,-0.00024864,-0.000149185,0.0619052,0.04339205808036306,0.08277013813260625,-0.000248609091636931,-0.005941866868526602,-0.00014917387247115332,-0.034340991154650724
89,193.8,610.927,207.939,-0.000396584,356.432,-1.06795,-0.61408,0.0430952,-0.00605197,-0.0354665,0.0806886,-0.00025255,-0.000151532,0.0628571,0.04403728246897787,0.0840332760398137,-0.0002525181119331643,-0.006033693717317767,-0.00015152051960631852,-0.034844933616842266
90,196.7,612.367,208.44,-0.000404835,357.28,-1.07069,-0.615661,0.0437127,-0.00614426,-0.035988,0.0818534,-0.000256458,-0.000153877,0.0638081,0.04468217458085033,0.0852966936713273,-0.0002564251174581589,-0.006125422634828626,-0.0001538651615415887,-0.035348130763900754
91,199.5,613.788,208.934,-0.000413151,358.118,-1.07345,-0.617253,0.0443296,-0.00623646,-0.0365091,0.0830172,-0.000260364,-0.000156221,0.0647584,0.04532683784028668,0.08656049722806736,-0.0002603301082351184,-0.006217053646607074,-0.00015620879813493804,-0.03585067990240953
92,202.3,615.191,209.422,-0.000421532,358.946,-1.07622,-0.618855,0.044946,-0.00632858,-0.0370297,0.0841799,-0.000264268,-0.000158564,0.0657078,0.045971375929362956,0.08782457584789416,-0.00026423308428780157,-0.006308596715086767,-0.00015855142939336098,-0.036352485407145974
93,205.2,616.577,209.904,-0.000429978,359.764,-1.07902,-0.620468,0.0455617,-0.00642061,-0.0375498,0.0853416,-0.00026817,-0.000160905,0.0666565,0.04661557880302669,0.08908903597711859,-0.00026813404563952314,-0.006400041927015265,-0.0001608920554847515,-0.036853548166820294
94,208.0,617.946,210.381,-0.000438491,360.572,-1.08183,-0.622092,0.0461769,-0.00651255,-0.0380694,0.0865021,-0.00027207,-0.000163246,0.0676044,0.04725965480457073,0.0903536574580559,-0.00027203299231381983,-0.006491389307856865,-0.0001632326760967473,-0.03735386906856575
95,210.9,619.298,210.852,-0.000447071,361.37,-1.08466,-0.623726,0.0467914,-0.00660441,-0.0385886,0.0876617,-0.00027597,-0.000165586,0.0685515,0.047903393630945645,0.09161876492679144,-0.00027593192378227993,-0.0065826488172215925,-0.00016557229139491092,-0.037853545212593764
96,213.7,620.634,211.318,-0.000455718,362.158,-1.08752,-0.625371,0.0474054,-0.00669617,-0.0391073,0.0888201,-0.000279868,-0.000167925,0.0694978,0.04854700388276245,0.09288402880343316,-0.0002798288406045124,-0.006673800611257885,-0.0001679109013863478,-0.038352481168465125
97,216.5,621.953,211.778,-0.000464435,362.938,-1.09038,-0.627026,0.0480187,-0.00678785,-0.0396256,0.0899775,-0.000283765,-0.000170264,0.0704434,0.049190274999168615,0.09414966506078781,-0.0002837247425203637,-0.006764864582781582,-0.00017024950590771581,-0.03885077393375069
98,219.4,623.258,212.234,-0.000473221,363.709,-1.09327,-0.628692,0.0486315,-0.00687944,-0.0401434,0.0911338,-0.000287662,-0.000172602,0.0713881,0.049833415837914785,0.09541556205580015,-0.0002876206292539152,-0.00685583082297192,-0.00017258710513168296,-0.03934832817509781
99,222.2,624.547,212.684,-0.000482077,364.471,-1.09618,-0.630368,0.0492437,-0.00697094,-0.0406607,0.0922891,-0.000291557,-0.00017494,0.072332,0.05047632062816754,0.09668182697172978,-0.00029151450138820145,-0.0069466993571527524,-0.00017492469889035522,-0.03984514477224099
100,225.1,625.822,213.129,-0.000491004,365.224,-1.0991,-0.632054,0.0498553,-0.00706236,-0.0411776,0.0934433,-0.000295452,-0.000177277,0.0732752,0.05111898845365226,0.09794834790504847,-0.000295408358355953,-0.007037480140244745,-0.0001772612873610635,-0.04034132056922568
101,227.9,627.082,213.57,-0.000500003,365.97,-1.10204,-0.633751,0.0504663,-0.00715368,-0.041694,0.0945965,-0.000299346,-0.000179614,0.0742175,0.051761418397959114,0.09921523228498663,-0.0002993012004564033,-0.007128153337357168,-0.00017959787037113983,-0.04083676037771544
102,230.7,628.328,214.006,-0.000509074,366.707,-1.105,-0.635457,0.0510767,-0.00724491,-0.04221,0.0957486,-0.00030324,-0.00018195,0.0751591,0.0524036095445477,0.10048236794744114,-0.00030319402739820145,-0.007218728904260785,-0.00018193344810257805,-0.04133156093983692
103,233.6,629.56,214.438,-0.000518219,367.436,-1.10797,-0.637174,0.0516866,-0.00733606,-0.0427255,0.0968997,-0.000307134,-0.000184287,0.0760998,0.05304566628130836,0.10174986256775864,-0.0003070868391814585,-0.007309216793073059,-0.00018427002019383298,-0.041825627163662116
104,236.4,630.779,214.865,-0.000527438,368.157,-1.11097,-0.638901,0.0522958,-0.00742711,-0.0432405,0.0980497,-0.000311028,-0.000186623,0.0770398,0.0536873771464903,0.10301760372115898,-0.00031097963580595245,-0.007399597174254757,-0.00018660558701111274,-0.042318959921583965
105,239.3,631.985,215.287,-0.000536731,368.871,-1.11398,-0.640639,0.0529045,-0.00751808,-0.0437551,0.0991987,-0.000314922,-0.00018896,0.077979,0.05432895189642495,0.10428569932924958,-0.0003148724172720163,-0.007489889925871629,-0.00018894214818354627,-0.042811655803285276
106,242.1,633.177,215.705,-0.0005461,369.578,-1.11701,-0.642386,0.0535126,-0.00760895,-0.0442692,0.100347,-0.000318816,-0.000191296,0.0789173,0.054970284309430184,0.10555447892817904,-0.0003187651835796501,-0.00758007522194315,-0.00019127770408677858,-0.043303619860840414
107,244.9,634.358,216.12,-0.000555545,370.277,-1.12005,-0.644143,0.0541201,-0.00769974,-0.0447828,0.101494,-0.00032271,-0.000193633,0.0798549,0.055611373468263725,0.10682327743234832,-0.00032265793472885385,-0.007670172936866004,-0.00019361425434050172,-0.04379485296222119
108,247.8,635.525,216.53,-0.000565067,370.969,-1.12312,-0.645911,0.054727,-0.00779044,-0.045296,0.102639,-0.000326604,-0.00019597,0.0807917,0.05625221845556316,0.10809131589849463,-0.00032655067071973853,-0.007760173170608509,-0.00019595079913370395,-0.04428545154531682
109,250.6,636.681,216.936,-0.000574667,371.654,-1.1262,-0.647688,0.0553334,-0.00788104,-0.0458088,0.103784,-0.0003305,-0.000198307,0.0817277,0.056892924043135285,0.10936080710021656,-0.00033044539089133185,-0.007850066026711233,-0.00019828733846649627,-0.04477541632805704
110,253.5,637.825,217.338,-0.000584345,372.333,-1.1293,-0.649475,0.0559392,-0.00797156,-0.046321,0.104928,-0.000334395,-0.000200644,0.0826628,0.05753338375217942,0.11063064207065243,-0.0003343390962236015,-0.00793987137408314,-0.00020062387233876766,-0.04526455708017352
111,256.3,638.958,217.736,-0.000594103,373.004,-1.13241,-0.651272,0.0565444,-0.00806198,-0.0468329,0.106071,-0.000338292,-0.000202982,0.0835972,0.05817359666491284,0.11190081866217616,-0.00033823478571337606,-0.008029569395604952,-0.00020296140054754108,-0.04575316108453975
112,259.1,640.079,218.131,-0.000603941,373.669,-1.13555,-0.65308,0.057149,-0.00815232,-0.0473442,0.107213,-0.000342189,-0.000205321,0.0845308,0.058813561863441555,0.11317133472367957,-0.00034213046002173897,-0.008119179956535771,-0.00020529992308593314,-0.046240942781259786
113,262.0,641.189,218.522,-0.000613859,374.328,-1.1387,-0.654897,0.057753,-0.00824256,-0.0478551,0.108353,-0.000346087,-0.000207659,0.0854636,0.05945327842976167,0.11444107365894474,-0.0003460271188026054,-0.008208683243287385,-0.0002076374403621184,-0.04672809383026122
114,264.8,642.288,218.909,-0.000623859,374.981,-1.14186,-0.656723,0.0583565,-0.00833271,-0.0483656,0.109493,-0.000349986,-0.000209999,0.0863956,0.06009285145504317,0.1157122609219865,-0.000349924762044429,-0.008298089200458825,-0.0002099769517532879,-0.04721461494328072
115,267.7,643.377,219.293,-0.000633942,375.627,-1.14505,-0.65856,0.0589594,-0.00842278,-0.0488756,0.110632,-0.000353886,-0.000212339,0.0873268,0.060732174139642936,0.11698378118049946,-0.0003538233897354415,-0.008387407769042565,-0.0002123164576700587,-0.04770041160098226
116,270.5,644.455,219.673,-0.000644108,376.267,-1.14825,-0.660407,0.0595617,-0.00851275,-0.0493851,0.111769,-0.000357788,-0.00021468,0.0882572,0.0613712455651676,0.11825451401442089,-0.00035772400150646533,-0.008476619140731723,-0.00021465695789768535,-0.048185484658416655
117,273.3,645.522,220.05,-0.000654357,376.902,-1.15147,-0.662263,0.0601634,-0.00860263,-0.0498942,0.112906,-0.000361691,-0.000217022,0.0891868,0.06201006481312166,0.11952669249326764,-0.0003616255976957028,-0.008565733257355101,-0.00021699845242917348,-0.04866993010212617
118,276.2,646.58,220.423,-0.000664691,377.531,-1.1547,-0.664129,0.0607646,-0.00869242,-0.0504028,0.114041,-0.000365595,-0.000219364,0.0901156,0.06264873722977882,0.12079807666327835,-0.0003655281782913855,-0.00865475014369288,-0.00021933994147693703,-0.04915365355437529
119,279.0,647.628,220.794,-0.000675111,378.153,-1.15796,-0.666004,0.0613652,-0.00878212,-0.050911,0.115176,-0.000369501,-0.000221707,0.0910436,0.06328715575925248,0.1220709046735462,-0.00036943274291290074,-0.008743669824497813,-0.00022168242481923617,-0.04963675090220543
120,281.9,648.666,221.161,-0.000685617,378.771,-1.16122,-0.66789,0.0619653,-0.00887173,-0.0514188,0.116309,-0.000373409,-0.000224052,0.0919708,0.06392542587521732,0.12334293147565112,-0.00037333929153626766,-0.008832492324493235,-0.0002240269022250052,-0.05011922285010206
121,284.0,649.444,221.436,-0.000696942,379.234,-1.16371,-0.66932,0.0624183,-0.00893937,-0.0518021,0.117165,-0.00037636,-0.000225824,0.0926709,0.06440749327316064,0.12430492469935328,-0.0003762891854593997,-0.008899532627383855,-0.00022579850367965282,-0.05048324238318347
