,Time,S11,S22,S33,S12,S13,S23,LE11,LE22,LE33,LE12,LE13,LE23,SDV_EPBAR,E11,E12,E13,E22,E23,E33
0,0.000284,0.0015581,0.000519365,0.0,0.000899567,1.32028e-20,2.67023e-20,6.7501e-09,2.50301e-10,-3.0004e-09,1.1258e-08,6.18106e-26,5.13348e-25,0.0,6.750100034480511e-09,1.1258000087721598e-08,0.0,2.5030089112476617e-10,0.0,-3.0004000395322805e-09
1,0.000568,0.00311619,0.00103873,2.1684e-19,0.00179913,-2.79039e-28,-1.61103e-28,1.35001e-08,5.00425e-10,-6.00057e-09,2.25162e-08,2.06826e-25,-3.58238e-25,0.0,1.3500100148888805e-08,2.2516200237632233e-08,0.0,5.00425034744012e-10,0.0,-6.000569929831556e-09
2,0.000994,0.00545333,0.00181778,2.1684e-19,0.00314848,-6.04799e-21,-2.25714e-20,2.36252e-08,8.75688e-10,-1.05009e-08,3.94034e-08,-4.13622e-25,7.16424e-25,0.0,2.3625200240573463e-08,3.9403400764470575e-08,0.0,8.756879665838824e-10,0.0,-1.0500899927379237e-08
3,0.001633,0.00895905,0.00298635,4.33681e-19,0.00517251,-5.11908e-20,-1.04754e-20,3.88125e-08,1.4375e-09,-1.725e-08,6.47354e-08,3.9316e-32,2.26991e-32,0.0,3.8812500768869995e-08,6.473540214990692e-08,0.0,1.4374998968946784e-09,0.0,-1.7249999872959165e-08
4,0.0025915,0.0142176,0.00473921,-1.30104e-18,0.00820854,3.90948e-20,-3.46674e-20,6.15937e-08,2.28125e-09,-2.7375e-08,1.02732e-07,2.86544e-24,1.65436e-24,0.0,6.159370191660685e-08,1.027320053470504e-07,0.0,2.281250077729169e-09,0.0,-2.7374999600482397e-08
5,0.0040292,0.0221055,0.00736849,-1.30104e-18,0.0127626,-7.53827e-20,-1.00761e-19,9.57656e-08,3.54688e-09,-4.25625e-08,1.59728e-07,2.30786e-31,1.33244e-31,0.0,9.576560455748506e-08,1.597280128162737e-07,0.0,3.5468799008953056e-09,0.0,-4.256249908074494e-08
6,0.0061859,0.0339373,0.0113124,-4.77049e-18,0.0195937,1.20526e-19,8.8665e-20,1.47024e-07,5.44671e-09,-6.53456e-08,2.45219e-07,-6.61761e-24,1.14621e-23,0.0,1.4702401074373483e-07,2.452190299706558e-07,0.0,5.446709971934638e-09,0.0,-6.534559782167548e-08
7,0.0094208,0.0516849,0.0172283,7.37257e-18,0.0298403,1.86619e-19,-2.58125e-20,2.2391e-07,8.29297e-09,-9.95156e-08,3.7346e-07,-6.95067e-31,-4.01297e-31,0.0,2.2391002496569e-07,3.734600697580248e-07,0.0,8.292970088419338e-09,0.0,-9.951559509779884e-08
8,0.014273,0.0783064,0.0261021,-1.30104e-18,0.0452102,1.86619e-19,-2.58125e-20,3.39241e-07,1.25671e-08,-1.50777e-07,5.65816e-07,2.64704e-23,-4.58482e-23,0.0,3.392410574676319e-07,5.658161601473921e-07,0.0,1.2567100027283118e-08,0.0,-1.5077698867216327e-07
9,0.021552,0.118239,0.0394129,1.25767e-17,0.0682651,-8.0004e-19,6.25633e-19,5.12236e-07,1.89735e-08,-2.27663e-07,8.54355e-07,-6.61759e-24,1.1462e-23,0.0,5.122361312892565e-07,8.543553648987512e-07,0.0,1.8973500104380037e-08,0.0,-2.276629741393421e-07
10,0.03247,0.178137,0.059379,-1.30104e-18,0.102847,-4.23358e-20,-1.58e-19,7.71729e-07,2.8587e-08,-3.42996e-07,1.28716e-06,1.86326e-30,1.07575e-30,0.0,7.717292977993395e-07,1.2871608283671065e-06,0.0,2.858700032248862e-08,0.0,-3.429959412049044e-07
11,0.048847,0.267985,0.0893282,-4.29344e-17,0.154721,2.05368e-18,4.41588e-19,1.16097e-06,4.30043e-08,-5.15992e-07,1.93637e-06,4.58471e-23,2.64698e-23,0.0,1.1609706738191505e-06,1.9363718748444114e-06,0.0,4.300430100911967e-08,0.0,-5.159918669006558e-07
12,0.073412,0.402756,0.134252,-1.51788e-17,0.232531,2.58243e-18,-4.74234e-19,1.74483e-06,6.46307e-08,-7.75487e-07,2.91018e-06,4.93934e-23,-3.26124e-23,0.0,1.744831522154655e-06,2.910184234483637e-06,0.0,6.463070212348043e-08,0.0,-7.754866993003873e-07
13,0.1103,0.604912,0.201637,-1.51788e-17,0.349246,1.27953e-18,-2.44755e-18,2.62061e-06,9.70596e-08,-1.16471e-06,4.37091e-06,6.3275e-30,3.65319e-30,0.0,2.62061343381248e-06,4.370919552521002e-06,0.0,9.705960479777787e-08,0.0,-1.1647093217659332e-06
14,0.1655,0.908146,0.302715,4.03323e-17,0.524319,-4.21537e-18,-5.62004e-18,3.93429e-06,1.45719e-07,-1.74858e-06,6.56199e-06,-9.87872e-23,6.52263e-23,0.0,3.934297739371928e-06,6.562011529931411e-06,0.0,1.4571901063575865e-07,0.0,-1.748578471238993e-06
15,0.2484,1.363,0.454332,-2.09468e-16,0.786926,1.22694e-17,3.89742e-18,5.90479e-06,2.18705e-07,-2.62436e-06,9.8486e-06,7.75059e-23,2.8927e-22,0.0,5.904807433232406e-06,9.848648497623458e-06,0.0,2.1870502386889257e-07,0.0,-2.624356556402141e-06
16,0.3728,2.04527,0.681756,2.34621e-16,1.18084,-2.38375e-18,-4.56255e-18,8.86055e-06,3.28182e-07,-3.93804e-06,1.47785e-05,-2.4013e-22,8.39438e-22,0.0,8.860589254755524e-06,1.4778609202625859e-05,0.0,3.281820537548441e-07,0.0,-3.938032245964784e-06
17,0.5593,3.06867,1.02289,4.56666e-16,1.7717,1.53658e-17,1.54539e-17,1.32942e-05,4.92389e-07,-5.90853e-06,2.21733e-05,1.55012e-22,5.78537e-22,0.0,1.3294288368159712e-05,2.2173545829451413e-05,0.0,4.923891212538223e-07,0.0,-5.908512544672284e-06
18,0.8392,4.60377,1.53459,2.34621e-16,2.65799,5.31314e-17,1.77204e-17,1.99445e-05,7.38697e-07,-8.86424e-06,3.32654e-05,1.58058e-21,-1.04362e-21,0.0,1.9944698892881974e-05,3.326595329955495e-05,0.0,7.38697272906208e-07,0.0,-8.864200712777048e-06
19,1.259,6.90638,2.30213,-1.31969e-15,3.9874,2.38248e-17,8.00221e-19,2.99199e-05,1.10814e-06,-1.32977e-05,4.99034e-05,-1.31371e-26,-7.5847e-27,0.0,2.992034760462836e-05,4.990464519538662e-05,0.0,1.1081406139368255e-06,0.0,-1.3297611585971758e-05
20,1.888,10.3602,3.45341,-4.65036e-15,5.98148,-2.24011e-17,1.31867e-17,4.48827e-05,1.66234e-06,-1.99479e-05,7.48599e-05,-3.16123e-21,2.08725e-21,0.0,4.4883707243537074e-05,7.486270207235357e-05,0.0,1.6623413816585497e-06,0.0,-1.994770104196686e-05
21,2.833,15.5409,5.18029,-2.86312e-14,8.97252,5.76643e-17,-5.78126e-17,6.73263e-05,2.49357e-06,-2.99228e-05,0.000112294,-7.33604e-22,-4.23546e-22,0.0,6.732856646629592e-05,0.00011230030520725798,0.0,2.4935731088859825e-06,0.0,-2.9922352317468537e-05
22,4.249,93.5787,31.1929,-1.03265e-09,54.0277,3.28372e-16,-5.26719e-16,0.000405403,1.5015e-05,-0.000180179,0.000676171,6.77731e-21,-1.17391e-20,0.0,0.00040548518690219915,0.0006763996551444329,0.0,1.5015112725613733e-05,0.0,-0.00018016276873877857
23,6.374,211.097,70.3658,-9.04826e-07,121.877,5.76346e-17,-5.78297e-17,0.000914519,3.38711e-05,-0.000406453,0.00152533,-4.01543e-25,-2.31831e-25,0.0,0.0009149373000056915,0.0015264939075101402,0.0,3.3871673632113186e-05,0.0,-0.00040637040916957634
24,9.214,362.761,120.99,0.000506308,209.501,-0.00828292,-0.00478059,0.00159354,5.50748e-05,-0.000717186,0.00266305,-1.05549e-07,-6.09685e-08,3.40534e-05,0.0015948103595657681,0.002666599067399966,-1.0554899443349086e-07,5.50763166446977e-05,-6.09684981389691e-08,-0.0007169288835910947
25,12.05,380.394,127.277,9.48853e-05,220.036,-0.134494,-0.0775536,0.00225613,-3.15417e-05,-0.0012471,0.00388916,-2.43475e-06,-1.4243e-06,0.000940181,0.0022586769763648373,0.0038967325965835187,-2.4347470359842305e-06,-3.154120256576576e-05,-1.42429898564167e-06,-0.001246322693954749
26,14.89,394.878,132.445,8.38322e-05,228.692,-0.237929,-0.137135,0.00291741,-0.000120391,-0.0017817,0.00511647,-5.03291e-06,-2.9567e-06,0.00186618,0.0029216697820571014,0.005129581484598633,-5.032897334888986e-06,-0.00012038375329437301,-2.9566956289972524e-06,-0.0017801137147895885
27,17.73,407.211,136.837,3.27552e-05,236.056,-0.322703,-0.18593,0.00357757,-0.000210716,-0.00231933,0.00634426,-7.8318e-06,-4.61582e-06,0.00280548,0.0035839771419403643,0.0063644274440857185,-7.831769331501093e-06,-0.00021069380094285162,-4.615809347074951e-06,-0.0023166424323625145
28,20.57,417.975,140.664,1.19515e-05,242.477,-0.393736,-0.22679,0.00423669,-0.00030205,-0.00285902,0.0075721,-1.08063e-05,-6.385e-06,0.0037542,0.004245677458954766,0.007600840846260892,-1.0806241612204559e-05,-0.00030200438749128367,-6.384979615914332e-06,-0.002854936894473359
29,23.41,427.542,144.059,1.81634e-06,248.18,-0.454326,-0.261624,0.00489483,-0.0003941,-0.00340015,0.00879973,-1.39336e-05,-8.24934e-06,0.00470988,0.004906829250473033,0.008838561442531923,-1.3933502927887531e-05,-0.0003940223527956199,-8.249305974317167e-06,-0.0033943760359572694
30,26.25,436.166,147.115,-4.42067e-06,253.315,-0.50675,-0.29175,0.00555204,-0.000486675,-0.0039423,0.010027,-1.71932e-05,-1.01959e-05,0.00567081,0.005567481137458641,0.010077438806846084,-1.7193052197828074e-05,-0.0004865565929313975,-1.0195848021976595e-05,-0.003934539336991616
31,29.09,444.025,149.896,-9.18429e-06,257.992,-0.552639,-0.318111,0.00620837,-0.000579642,-0.00448517,0.0112536,-2.05677e-05,-1.22136e-05,0.00663582,0.006227681873428592,0.0113171599588342,-2.056748848633383e-05,-0.0005794740400297815,-1.2213525414250803e-05,-0.004475126646029448
32,31.93,451.252,152.449,-1.34429e-05,262.289,-0.593195,-0.3414,0.00686383,-0.000672907,-0.00502854,0.0124797,-2.4042e-05,-1.42929e-05,0.00760403,0.006887440068721995,0.01255789640670324,-2.4041710993460974e-05,-0.0006726806488586146,-1.4292797857029527e-05,-0.005015918058243196
33,34.77,457.947,154.811,-1.76088e-05,266.267,-0.629323,-0.362141,0.00751847,-0.000766399,-0.00557225,0.013705,-2.76032e-05,-1.64258e-05,0.00857476,0.007546804662159401,0.013799344014726156,-2.7602819035132953e-05,-0.0007661053912982885,-1.642566509729715e-05,-0.005556753811208459
34,37.61,464.187,157.009,-2.18626e-05,269.973,-0.661722,-0.380738,0.00817229,-0.000860065,-0.00611616,0.0149295,-3.124e-05,-1.86052e-05,0.0095475,0.008205774314278047,0.015041501667286905,-3.123951203631847e-05,-0.0008596952501084276,-1.8605026924300994e-05,-0.006097494366814393
35,40.45,470.035,159.067,-2.62811e-05,273.443,-0.690943,-0.397506,0.00882532,-0.000953866,-0.00666017,0.0161531,-3.49427e-05,-2.08254e-05,0.0105219,0.008864377951639968,0.01628426661726845,-3.494208951093647e-05,-0.0009534112144399254,-2.082518315282833e-05,-0.006638040224396735
36,43.29,475.539,161.002,-3.08932e-05,276.707,-0.717422,-0.412698,0.00947758,-0.00104777,-0.0072042,0.0173759,-3.87031e-05,-2.30809e-05,0.0114975,0.009522634484668169,0.017527739122636943,-3.870235104463937e-05,-0.0010472212806741377,-2.3080633638095094e-05,-0.007178311956033023
37,46.13,480.74,162.827,-3.57043e-05,279.79,-0.741516,-0.42652,0.0101291,-0.00114175,-0.00774819,0.0185978,-4.25136e-05,-2.53673e-05,0.0124741,0.010180572978258029,0.018771816181161638,-4.251269630972665e-05,-0.0011410984514607092,-2.5366978252727712e-05,-0.0077182501523073155
38,48.97,485.673,164.557,-4.07086e-05,282.711,-0.763513,-0.439138,0.0107798,-0.00123578,-0.00829208,0.0198187,-4.63679e-05,-2.76807e-05,0.0134515,0.010838111384014582,0.020016394289646522,-4.636682502556777e-05,-0.0012350167383358146,-2.7680316892930712e-05,-0.00825779553326278
39,51.81,490.365,166.201,-4.58949e-05,285.489,-0.783657,-0.450691,0.0114298,-0.00132985,-0.00883582,0.0210386,-5.02602e-05,-3.00174e-05,0.0144296,0.011495369742239525,0.02126147156952163,-5.0258936977298774e-05,-0.0013289661413320442,-3.0016949482347677e-05,-0.00879689886021584
40,54.65,494.84,167.766,-5.12499e-05,288.137,-0.802148,-0.461296,0.0120791,-0.00142395,-0.00937937,0.0222575,-5.41854e-05,-3.23744e-05,0.015408,0.012152346950382586,0.02250704613842469,-5.4183931997742185e-05,-0.0014229366642356522,-3.237387595478314e-05,-0.009335520908572037
41,57.49,499.12,169.262,-5.67593e-05,290.667,-0.819156,-0.47105,0.0127277,-0.00151806,-0.00992271,0.0234755,-5.8139e-05,-3.47488e-05,0.0163868,0.012809041905766927,0.023753218485520033,-5.813730996107047e-05,-0.001516908329759925,-3.4748196267475606e-05,-0.009873642341953093
42,60.33,503.22,170.694,-6.2409e-05,293.09,-0.834828,-0.480038,0.0133756,-0.00161218,-0.0104658,0.0246923,-6.21169e-05,-3.71383e-05,0.0173658,0.013465453505593361,0.024999679594919444,-6.2114970785343e-05,-0.0016108811359184516,-3.713761038182106e-05,-0.010411224074688974
43,63.17,507.158,172.067,-6.81853e-05,295.416,-0.849287,-0.48833,0.0140227,-0.00170629,-0.0110086,0.0259082,-6.61154e-05,-3.95405e-05,0.0183448,0.014121479234789902,0.02624673469885086,-6.611321442506757e-05,-0.0017048351148211127,-3.953971828474234e-05,-0.010948227106453379
44,66.01,510.945,173.386,-7.40753e-05,297.652,-0.862642,-0.495988,0.0146692,-0.00180039,-0.0115511,0.027123,-7.01312e-05,-4.19534e-05,0.0193239,0.014777320749041367,0.02749417677507182,-7.012874086487209e-05,-0.0017987702701182107,-4.1952519968413426e-05,-0.011484642177504334
45,68.85,514.594,174.657,-8.00665e-05,299.806,-0.874985,-0.503067,0.0153149,-0.00189446,-0.0120934,0.0283367,-7.41613e-05,-4.43752e-05,0.0203029,0.015432774055375909,0.028742003547923112,-7.415855011871919e-05,-0.0018926666433136674,-4.437421543534992e-05,-0.012020568726433534
46,71.69,518.116,175.881,-8.61475e-05,301.883,-0.886398,-0.509613,0.01596,-0.00198852,-0.0126352,0.0295494,-7.82029e-05,-4.68042e-05,0.0212817,0.016088041071570913,0.029990315736736273,-7.819984223289556e-05,-0.0019865442039583847,-4.680310470051019e-05,-0.012555710999165082
47,74.53,521.52,177.063,-9.23072e-05,303.889,-0.896953,-0.515667,0.0166044,-0.00208255,-0.0131768,0.030761,-8.22535e-05,-4.92388e-05,0.0222603,0.01674301921653032,0.031239008308488803,-8.225011727358567e-05,-0.00208038299730684,-4.923758779018517e-05,-0.013090366028436828
48,77.37,524.813,178.206,-9.85355e-05,305.829,-0.906713,-0.521266,0.0172481,-0.00217655,-0.013718,0.0319714,-8.63108e-05,-5.16777e-05,0.0232387,0.017397707386781702,0.03248797572674178,-8.63070753300832e-05,-0.0021741830326343914,-5.1676364730690594e-05,-0.013624337016759358
49,80.21,528.003,179.312,-0.000104823,307.708,-0.915734,-0.526441,0.0178912,-0.00227051,-0.0142588,0.0331808,-9.03727e-05,-5.41196e-05,0.0242168,0.018052206283965644,0.03373742207249908,-9.036861651057215e-05,-0.002267934341891098,-5.411813556088774e-05,-0.014157624761297338
50,83.05,531.098,180.384,-0.00011116,309.529,-0.924067,-0.531222,0.0185336,-0.00236444,-0.0147993,0.0343891,-9.44372e-05,-5.65633e-05,0.0251946,0.018706413130023414,0.034987241926193624,-9.44327409480028e-05,-0.002361646913538684,-5.656170032675156e-05,-0.014690328588935708
51,85.89,534.102,181.424,-0.000117538,311.297,-0.931755,-0.535634,0.0191753,-0.00245832,-0.0153393,0.0355964,-9.85025e-05,-5.90077e-05,0.026172,0.019360326821097784,0.036237536611891885,-9.849764878799849e-05,-0.0024553008059438053,-5.900595907992745e-05,-0.0152222521792027
52,88.73,537.022,182.433,-0.00012395,313.013,-0.938838,-0.539699,0.0198164,-0.00255217,-0.015879,0.0368025,-0.000102567,-6.14517e-05,0.0271489,0.020014048254637595,0.03748809670346587,-0.00010256174018508091,-0.00254891598300222,-6.144981188294096e-05,-0.015753593334393634
53,91.57,539.862,183.414,-0.000130387,314.682,-0.945353,-0.543439,0.0204569,-0.00264596,-0.0164183,0.0380074,-0.000106629,-6.38944e-05,0.0281255,0.020667576522630737,0.03873891951806141,-0.00010662331533017877,-0.002642462533238188,-6.389235879633581e-05,-0.01628425431591285
54,94.41,542.627,184.368,-0.000136843,316.307,-0.951332,-0.546872,0.0210966,-0.00273972,-0.0169571,0.0392113,-0.000110687,-6.63349e-05,0.0291015,0.021320706452667704,0.03999021036666317,-0.00011068087442001051,-0.002735970392234277,-6.633269988920443e-05,-0.016814137596312784
55,97.25,545.321,185.296,-0.00014331,317.888,-0.956804,-0.550015,0.0217358,-0.00283342,-0.0174956,0.0404141,-0.000114739,-6.87723e-05,0.0300771,0.02197374333658564,0.041241863184797056,-0.00011473241773263254,-0.002829409654110715,-6.876993523952102e-05,-0.01734344065557769
56,100.1,547.948,186.201,-0.000149781,319.43,-0.961795,-0.552883,0.0223743,-0.00292708,-0.0180336,0.0416157,-0.000118785,-7.1206e-05,0.0310521,0.022626481936328213,0.042493771403427694,-0.00011877794534120856,-0.002922800278051252,-7.120346491296115e-05,-0.017871967697982383
57,102.9,550.511,187.083,-0.000156252,320.933,-0.966331,-0.55549,0.0230121,-0.00302068,-0.0185713,0.0428163,-0.000122824,-7.36351e-05,0.0320266,0.023278921147254383,0.04374614107245245,-0.00012281645744127712,-0.003016122336404914,-7.363238900259805e-05,-0.018399915989333104
58,105.8,553.014,187.943,-0.000162714,322.401,-0.970433,-0.557849,0.0236493,-0.00311423,-0.0191084,0.0440157,-0.000126853,-7.6059e-05,0.0330005,0.023931162257758487,0.044998761240204965,-0.00012684495449832855,-0.0031093858156929777,-7.6056107587541e-05,-0.0189269918355659
59,108.6,555.459,188.782,-0.000169164,323.834,-0.97412,-0.55997,0.0242859,-0.00320774,-0.0196452,0.045214,-0.000130872,-7.8477e-05,0.0339738,0.024583204358632038,0.04625173382439196,-0.00013086343663337718,-0.0032026006986954902,-7.847392076076876e-05,-0.019453490501463944
60,111.5,557.85,189.602,-0.000175594,325.234,-0.977412,-0.561866,0.0249219,-0.00330119,-0.0201815,0.0464111,-0.00013488,-8.08885e-05,0.0349466,0.025235046540445616,0.0475049517388757,-0.00013487090410169156,-0.00329574706332858,-8.088522861349201e-05,-0.0199792166084517
61,114.3,560.189,190.404,-0.000181999,326.603,-0.980325,-0.563544,0.0255572,-0.00339458,-0.0207174,0.0476072,-0.000138876,-8.32928e-05,0.0359187,0.025886585304887744,0.04875862201969805,-0.00013886635717463847,-0.003388824927171963,-8.328933125101301e-05,-0.020504269045904855
62,117.1,562.478,191.187,-0.000188366,327.942,-0.982875,-0.565016,0.0261919,-0.00348792,-0.0212529,0.0488021,-0.000142859,-8.56895e-05,0.0368902,0.026537922200478903,0.05001253269689032,-0.00014284879613890578,-0.0034818442729727117,-8.568582875967401e-05,-0.02102864859467568
63,120.0,564.72,191.954,-0.000194356,329.253,-0.985075,-0.566295,0.026826,-0.00358121,-0.0217879,0.0499959,-0.000146829,-8.8078e-05,0.037861,0.027189056317200366,0.05126678617336489,-0.0001468182211499247,-0.0035748051154945726,-8.807412124678393e-05,-0.021552258189621698
64,122.8,566.916,192.705,0.000153332,330.537,-0.987059,-0.567766,0.0274595,-0.00367444,-0.0223224,0.0511886,-0.000150789,-9.04605e-05,0.0388313,0.02783998674482091,0.05252138009759544,-0.00015077763191007065,-0.0036676975061675776,-9.045640857230364e-05,-0.022075098766027756
65,125.7,569.067,193.44,-0.000207818,331.795,-0.989436,-0.568803,0.0280923,-0.0037676,-0.0228565,0.0523801,-0.000154745,-9.28313e-05,0.0398008,0.02849060972383244,0.05377620673649841,-0.00015473302761004337,-0.00376051150012513,-9.28269913081925e-05,-0.022597268997803344
66,128.5,571.176,194.162,-0.000214472,333.029,-0.991646,-0.57008,0.0287245,-0.0038607,-0.0233902,0.0535706,-0.000158691,-9.52e-05,0.0407697,0.029141027062557612,0.055031474360414556,-0.00015867840924921328,-0.0038532570791305343,-9.51954686237988e-05,-0.023118769660509075
67,131.3,573.244,194.87,-0.000221217,334.239,-0.993878,-0.571369,0.0293561,-0.00395373,-0.0239234,0.0547599,-0.000162629,-9.75639e-05,0.0417379,0.02979123785020188,0.05628696972520553,-0.0001626157766209113,-0.003945924300141956,-9.755914079745409e-05,-0.023639503892442515
68,134.2,575.273,195.566,-0.000227993,335.427,-0.996131,-0.57267,0.0299871,-0.00404669,-0.0244562,0.0559481,-0.00016656,-9.99233e-05,0.0427054,0.03044124117576752,0.057542795841178496,-0.00016654612965327775,-0.0040385131834211885,-9.991830783329103e-05,-0.024159570206799708
69,137.0,577.265,196.249,-0.000234814,336.593,-0.998406,-0.573984,0.0306174,-0.00413959,-0.0249885,0.0571352,-0.000170484,-0.000102278,0.0436722,0.031090933018955935,0.05879895033710758,-0.00017046946842858013,-0.004131033707901466,-0.00010227276978358457,-0.02467887184318651
70,139.9,579.22,196.92,-0.00024168,337.738,-1.0007,-0.57531,0.0312471,-0.00423241,-0.0255203,0.0583212,-0.0001744,-0.000104629,0.0446383,0.03174041544755957,0.060055430837864465,-0.00017438479320397438,-0.004223465975504714,-0.00010462352657703011,-0.025197409727695907
71,142.7,581.14,197.579,-0.000248591,338.863,-1.00302,-0.576647,0.0318762,-0.00432516,-0.0260517,0.0595061,-0.000178311,-0.000106977,0.0456036,0.03238968755004379,0.06131223496442395,-0.00017829510353839506,-0.004315819966053014,-0.00010697127816472474,-0.025715282213260693
72,145.5,583.027,198.227,-0.00025555,339.969,-1.00535,-0.577997,0.0325047,-0.00441784,-0.0265826,0.0606899,-0.000182215,-0.00010932,0.0465683,0.03303874841468013,0.06256936033387173,-0.00018219839985511577,-0.004408095699735215,-0.00010931402478653318,-0.026232392690811457
73,148.4,584.882,198.864,-0.000262556,341.057,-1.00771,-0.579358,0.0331326,-0.00451044,-0.0271131,0.0618726,-0.000186113,-0.00011166,0.0475322,0.033687597129546054,0.06382680455940748,-0.0001860956820499693,-0.0045002832417242455,-0.00011165376625421608,-0.02674883940688566
74,151.2,586.705,199.492,-0.00026961,342.126,-1.01009,-0.58073,0.0337599,-0.00460297,-0.0276431,0.0630542,-0.000190006,-0.000113996,0.0484954,0.03433623278252784,0.06508456525035289,-0.0001899879500031343,-0.004592392569012005,-0.00011398950270280483,-0.027264525853020416
75,154.1,588.498,200.109,-0.000276714,343.178,-1.01249,-0.582115,0.0343865,-0.00469542,-0.0281727,0.0642347,-0.000193893,-0.000116329,0.0494579,0.034984550962863015,0.06634264001215673,-0.00019387420396699273,-0.004684413748574645,-0.00011632223404423048,-0.027779550169651834
76,156.9,590.262,200.716,-0.000283867,344.213,-1.0149,-0.583511,0.0350125,-0.0047878,-0.0287018,0.0654141,-0.000197775,-0.000118659,0.0504196,0.03563265412689165,0.06760102644640087,-0.0001977554438138407,-0.004776356755519462,-0.00011865196029925418,-0.028293815948647993
77,159.7,591.998,201.314,-0.000291072,345.232,-1.01734,-0.584918,0.035638,-0.00488009,-0.0292304,0.0665924,-0.000201653,-0.000120987,0.0513806,0.036280644990063005,0.06885972215080693,-0.0002016326694003201,-0.004868201707304065,-0.0001209796813680386,-0.028807324105374787
78,162.6,593.707,201.903,-0.000298328,346.235,-1.0198,-0.586337,0.0362628,-0.00497231,-0.0297586,0.0677696,-0.000205525,-0.000123311,0.0523408,0.036928315448234494,0.07011872471924074,-0.0002055038811838994,-0.004959968530309333,-0.00012330339751109864,-0.02932017262156561
79,165.4,595.39,202.484,-0.000305636,347.223,-1.02228,-0.587767,0.036887,-0.00506445,-0.0302863,0.0689457,-0.000209394,-0.000125633,0.0533003,0.03757576815170394,0.07137803174172053,-0.00020937207860638463,-0.005051647295103545,-0.00012562510850511188,-0.02983226523895266
80,168.3,597.047,203.056,-0.000312998,348.197,-1.02477,-0.589208,0.0375105,-0.00515651,-0.0308135,0.0701207,-0.000213258,-0.000127952,0.054259,0.038222898365026126,0.0726376408044207,-0.000213235262129019,-0.005143238024467367,-0.00012794381449188208,-0.03034360286827631
81,171.1,598.679,203.619,-0.000320414,349.156,-1.02729,-0.59066,0.0381335,-0.00524848,-0.0313403,0.0712946,-0.000217119,-0.000130269,0.0552169,0.0388699127547627,0.07389754948968008,-0.0002170954313756024,-0.005234730793506781,-0.00013026051536224603,-0.030854283333240473
82,173.9,600.287,204.175,-0.000327884,350.102,-1.02982,-0.592123,0.0387559,-0.00534038,-0.0318666,0.0724674,-0.000220976,-0.000132584,0.0561741,0.03951670664984186,0.07515775537600633,-0.00022095158660195846,-0.00532614552117594,-0.00013257521112985948,-0.03136421052481142
83,176.8,601.872,204.723,-0.00033541,351.034,-1.03238,-0.593598,0.0393776,-0.00543219,-0.0323924,0.0736392,-0.000224829,-0.000134897,0.0571305,0.04016317512026779,0.0764183636799145,-0.0002248037278542725,-0.0054174623357929885,-0.00013488790180871124,-0.031873385349125205
84,179.6,603.434,205.264,-0.000342992,351.953,-1.03495,-0.595083,0.0399988,-0.00552392,-0.0329178,0.0748099,-0.000228679,-0.000137208,0.0580862,0.04080952522020853,0.07767926458260832,-0.00022865285495043963,-0.005508691207696814,-0.00013719858741279012,-0.032381905472528505
85,182.5,604.975,205.797,-0.000350632,352.859,-1.03754,-0.596579,0.0406194,-0.00561557,-0.0334427,0.0759794,-0.000232526,-0.000139516,0.0590411,0.04145565208398838,0.07894034775718906,-0.0002324989679248768,-0.0055998321595496225,-0.0001395062680954462,-0.03288967493459238
86,185.3,606.494,206.323,-0.000358328,353.753,-1.04015,-0.598086,0.0412393,-0.00570714,-0.0339672,0.0771479,-0.000236371,-0.000141824,0.0599952,0.042101450587280986,0.08020182642892282,-0.0002363430665760502,-0.0056908852139910815,-0.00014181394345191833,-0.033396791297197415
87,188.1,607.993,206.843,-0.000366084,354.636,-1.04278,-0.599603,0.0418587,-0.00579862,-0.0344911,0.0783154,-0.000240212,-0.000144129,0.0609485,0.0427471281714793,0.0814636985357875,-0.00024018315140739155,-0.0057818404514558,-0.00014411861391461223,-0.03390306208902327
88,191.0,609.471,207.355,-0.000373898,355.506,-1.04543,-0.601131,0.0424774,-0.00589001,-0.0350147,0.0794817,-0.000244051,-0.000146433,0.061901,0.04339247543726987,0.08272574546699873,-0.00024402122197708653,-0.005872697897262524,-0.00014642227921146667,-0.03440877803772413
89,193.8,610.93,207.862,-0.000381773,356.366,-1.0481,-0.60267,0.0430956,-0.00598132,-0.0355377,0.080647,-0.000247888,-0.000148736,0.0628528,0.04403770008397445,0.08398818119350993,-0.0002478572783082278,-0.0059634675170676665,-0.00014872493934947606,-0.034913650211229164
90,196.7,612.37,208.362,-0.000389708,357.214,-1.05078,-0.604219,0.0437131,-0.00607255,-0.0360603,0.0818112,-0.000251723,-0.000151037,0.0638037,0.04468259245380368,0.08525089511721085,-0.00025169132042379694,-0.006054149333412195,-0.00015102559448643138,-0.035417872572849673
91,199.5,613.792,208.855,-0.000397705,358.052,-1.05348,-0.605779,0.0443301,-0.00616369,-0.0365824,0.0829743,-0.000255556,-0.000153337,0.0647539,0.045327360503836234,0.08651388478258015,-0.0002555233483468866,-0.006144733430261784,-0.00015332524448297136,-0.03592134945750192
92,202.3,615.195,209.343,-0.000405764,358.88,-1.0562,-0.60735,0.0449464,-0.00625474,-0.0371041,0.0841364,-0.000259387,-0.000155636,0.0657033,0.04597179431799736,0.08777725650804791,-0.00025935336210058946,-0.006235219832827044,-0.00015562388934597937,-0.03642417811523002
93,205.2,616.581,209.825,-0.000413886,359.697,-1.05894,-0.608931,0.0455622,-0.00634571,-0.0376253,0.0852974,-0.000263216,-0.000157934,0.0666519,0.04661610211094702,0.08904089930555648,-0.00026318136170777606,-0.006325618503033037,-0.0001579215290823388,-0.03692626297891477
94,208.0,617.95,210.302,-0.000422072,360.504,-1.0617,-0.610522,0.0461773,-0.00643659,-0.038146,0.0864573,-0.000267044,-0.000160231,0.0675998,0.04726007370851626,0.09030481070837726,-0.0002670083469247242,-0.006415919527482772,-0.00016021816369882202,-0.03742760493807529
95,210.9,619.302,210.772,-0.000430322,361.302,-1.06448,-0.612123,0.0467919,-0.00652739,-0.0386663,0.0876162,-0.00027087,-0.000162528,0.0685468,0.04790391758277357,0.0915690974029324,-0.0002708333180335698,-0.00650613286624202,-0.00016251479304008054,-0.03792830108782741
96,213.7,620.638,211.238,-0.000438637,362.091,-1.06727,-0.613735,0.0474059,-0.0066181,-0.0391861,0.088774,-0.000274696,-0.000164823,0.0694931,0.048547528156395625,0.09283364801099148,-0.00027465827450823266,-0.006596248607668498,-0.0001648094174355741,-0.03842825600738142
97,216.5,621.958,211.698,-0.000447017,362.87,-1.07008,-0.615357,0.0480193,-0.00670872,-0.0397054,0.0899308,-0.00027852,-0.000167118,0.0704385,0.04919090451352237,0.09409856946452111,-0.00027848121690543515,-0.006686266776834926,-0.00016710403656483575,-0.03892747058175361
98,219.4,623.263,212.153,-0.000455465,363.641,-1.07291,-0.616989,0.0486321,-0.00679925,-0.0402243,0.0910864,-0.000282343,-0.000169412,0.0713832,0.0498340457381532,0.09536364058870705,-0.00028230314496613396,-0.006776187398785272,-0.00016939765059742484,-0.039426041751791874
99,222.2,624.552,212.603,-0.00046398,364.403,-1.07576,-0.618631,0.0492443,-0.0068897,-0.0407427,0.0922411,-0.000286166,-0.000171706,0.072327,0.050476950914149166,0.09662918750739236,-0.00028612505841563163,-0.006866020429874831,-0.00017169125936844498,-0.03992387424241728
100,225.1,625.827,213.048,-0.000472562,365.156,-1.07862,-0.620284,0.0498559,-0.00698006,-0.0412606,0.0933947,-0.000289988,-0.000174,0.0732701,0.05111961912523433,0.09789498891197423,-0.0002899459575439467,-0.006955755961956411,-0.00017398486287789616,-0.04042096893416569
101,227.9,627.087,213.489,-0.000481214,365.901,-1.0815,-0.621946,0.0504669,-0.00707032,-0.0417781,0.0945472,-0.000293809,-0.000176293,0.0742124,0.05176204945499929,0.0991610423098288,-0.00029376584236251446,-0.007045384090445084,-0.00017627746130211008,-0.04091742261427311
102,230.7,628.333,213.924,-0.000489934,366.638,-1.0844,-0.623618,0.0510774,-0.00716051,-0.0422952,0.0956987,-0.000297631,-0.000178586,0.0751539,0.05240434622733203,0.10042745524736385,-0.00029758671228785616,-0.007134934628911682,-0.00017857005446941798,-0.04141323601143754
103,233.6,629.566,214.355,-0.000498725,367.367,-1.08732,-0.625301,0.0516872,-0.0072506,-0.0428117,0.0968491,-0.000301451,-0.000180879,0.0760946,0.053046298108897716,0.10169411543512674,-0.0003014055682125649,-0.007224377813622174,-0.00018086264237981986,-0.04190821823487423
104,236.4,630.785,214.782,-0.000507587,368.088,-1.09025,-0.626993,0.0522965,-0.0073406,-0.0433278,0.0979985,-0.000305272,-0.000183171,0.0770345,0.053688114727912684,0.10296113066557111,-0.00030522540924415864,-0.007313723598998401,-0.0001831542252165308,-0.042402561827106555
105,239.3,631.99,215.204,-0.000516521,368.802,-1.0932,-0.628696,0.0529052,-0.00743052,-0.0438435,0.0991468,-0.000309093,-0.000185464,0.0779735,0.05432968992694964,0.10422838838868609,-0.00030904523568009434,-0.007402981935857311,-0.0001854468026154521,-0.04289626751301956
106,242.1,633.183,215.622,-0.000525527,369.508,-1.09617,-0.630408,0.0535133,-0.00752035,-0.0443586,0.100294,-0.000312914,-0.000187757,0.0789118,0.05497102278888777,0.10549588609351979,-0.00031286504752048305,-0.007492142921264433,-0.00018773937475746738,-0.04338914469420785
107,244.9,634.364,216.036,-0.000534606,370.207,-1.09915,-0.63213,0.0541208,-0.00761008,-0.0448734,0.10144,-0.000316735,-0.00019005,0.0798493,0.05561211239648389,0.10676351058908629,-0.0003166848447654358,-0.0075811966558244626,-0.00019003194164268766,-0.043881481224223196
108,247.8,635.532,216.446,-0.000543758,370.899,-1.10216,-0.633862,0.0547278,-0.00769973,-0.0453876,0.102586,-0.000320557,-0.000192343,0.080786,0.05625306345767589,0.10803258861503862,-0.0003205056270944029,-0.007670163013567821,-0.00019232450327100192,-0.0443729909885876
109,250.6,636.688,216.852,-0.000552985,371.584,-1.10517,-0.635604,0.0553342,-0.00778929,-0.0459014,0.10373,-0.000324379,-0.000194636,0.081722,0.05689376955781267,0.10930090323405217,-0.0003243263948203845,-0.00775903209415163,-0.00019461705964252118,-0.04486386602922088
110,253.5,637.832,217.253,-0.000562288,372.262,-1.10821,-0.637355,0.0559399,-0.00787876,-0.0464148,0.104873,-0.000328201,-0.00019693,0.0826571,0.057534124025807154,0.11056955906513655,-0.00032814714794349165,-0.007847803922283014,-0.0001969106105602636,-0.04535410706475951
111,256.3,638.965,217.651,-0.000571666,372.933,-1.11126,-0.639116,0.0565452,-0.00796815,-0.0469277,0.106015,-0.000332025,-0.000199224,0.0835914,0.0581744432041289,0.11183855395975906,-0.0003319698857997544,-0.007936488443276546,-0.0001992041562166591,-0.04584361939707715
112,259.1,640.086,218.046,-0.000581121,373.598,-1.11433,-0.640887,0.0571498,-0.00805744,-0.0474401,0.107156,-0.000335849,-0.000201518,0.0845249,0.05881440891462986,0.11310788576591269,-0.0003357926090378216,-0.00802506583962681,-0.00020149769661159667,-0.04633240388921689
113,262.0,641.196,218.436,-0.000590654,374.257,-1.11742,-0.642668,0.0577539,-0.00814664,-0.0479521,0.108296,-0.000339674,-0.000203813,0.0854576,0.05945423193814148,0.11437755232812119,-0.0003396163173182698,-0.008113546057477605,-0.0002037922315414331,-0.0468205567206369
114,264.8,642.295,218.823,-0.000600264,374.909,-1.12052,-0.644458,0.0583574,-0.00823575,-0.0484636,0.109435,-0.0003435,-0.000206109,0.0863895,0.060093805539038536,0.11564755148744488,-0.0003434410106296637,-0.00820192912142248,-0.00020608776099917403,-0.04730798333589037
115,267.7,643.384,219.207,-0.000609954,375.555,-1.12364,-0.646258,0.0589603,-0.00832478,-0.0489746,0.110573,-0.000347327,-0.000208405,0.0873207,0.060733128799028924,0.11691788108148193,-0.000347266688960457,-0.008290224973124705,-0.0002083832851864642,-0.047794684593643555
116,270.5,644.462,219.587,-0.000619723,376.195,-1.12678,-0.648067,0.0595626,-0.00841371,-0.0494852,0.11171,-0.000351155,-0.000210702,0.088251,0.06137220079971839,0.11818853894437775,-0.00035109335229921435,-0.008378413802043516,-0.000210679803892444,-0.04828075652296615
117,273.3,645.53,219.963,-0.000629572,376.829,-1.12994,-0.649886,0.0601644,-0.00850256,-0.0499954,0.112846,-0.000354985,-0.000212999,0.0891805,0.062011126823717344,0.11945952290682582,-0.000354922000279978,-0.008466515466002744,-0.00021297631732342115,-0.04876619983386932
118,276.2,646.588,220.336,-0.000639503,377.458,-1.13311,-0.651714,0.0607656,-0.00859131,-0.0505051,0.113981,-0.000358816,-0.000215298,0.0901093,0.06264979987904717,0.12073083079607505,-0.00035875163323795256,-0.00855451015793296,-0.00021527482504868356,-0.049250920160344824
119,279.0,647.636,220.706,-0.000649515,378.081,-1.13629,-0.653552,0.0613662,-0.00867997,-0.0510143,0.115115,-0.000362648,-0.000217597,0.0910372,0.06328821904693993,0.12200246043593155,-0.00036258225116225784,-0.008642407818501341,-0.00021757332748972846,-0.04973491835540089
120,281.9,648.674,221.073,-0.00065961,378.698,-1.1395,-0.6554,0.0619663,-0.00876855,-0.0515231,0.116248,-0.000366482,-0.000219898,0.0919644,0.0639264898011751,0.12327440964676817,-0.0003664148536747236,-0.008730218384829569,-0.00021987382420685098,-0.050218290248704056
121,284.0,649.453,221.348,-0.000670521,379.16,-1.14193,-0.656802,0.0624193,-0.00883541,-0.0519072,0.117103,-0.000369378,-0.000221637,0.0926643,0.06440855768118614,0.12423521995489128,-0.00036930978834548434,-0.008796492466861094,-0.00022161244033447325,-0.05058303135040676
