,Time,S11,S22,S33,S12,S13,S23,LE11,LE22,LE33,LE12,LE13,LE23,SDV_EPBAR,E11,E12,E13,E22,E23,E33
0,0.000284,0.0015581,0.000519365,0.0,0.000899567,1.32028e-20,2.67023e-20,6.7501e-09,2.50301e-10,-3.0004e-09,1.1258e-08,6.18106e-26,5.13348e-25,0.0,6.750100034480511e-09,1.1258000087721598e-08,0.0,2.5030089112476617e-10,0.0,-3.0004000395322805e-09
1,0.000568,0.00311619,0.00103873,2.1684e-19,0.00179913,-2.79039e-28,-1.61103e-28,1.35001e-08,5.00425e-10,-6.00057e-09,2.25162e-08,2.06826e-25,-3.58238e-25,0.0,1.3500100148888805e-08,2.2516200237632233e-08,0.0,5.00425034744012e-10,0.0,-6.000569929831556e-09
2,0.000994,0.00545333,0.00181778,2.1684e-19,0.00314848,-6.04799e-21,-2.25714e-20,2.36252e-08,8.75688e-10,-1.05009e-08,3.94034e-08,-4.13622e-25,7.16424e-25,0.0,2.3625200240573463e-08,3.9403400764470575e-08,0.0,8.756879665838824e-10,0.0,-1.0500899927379237e-08
3,0.001633,0.00895905,0.00298635,4.33681e-19,0.00517251,-5.11908e-20,-1.04754e-20,3.88125e-08,1.4375e-09,-1.725e-08,6.47354e-08,3.9316e-32,2.26991e-32,0.0,3.8812500768869995e-08,6.473540214990692e-08,0.0,1.4374998968946784e-09,0.0,-1.7249999872959165e-08
4,0.0025915,0.0142176,0.00473921,-1.30104e-18,0.00820854,3.90948e-20,-3.46674e-20,6.15937e-08,2.28125e-09,-2.7375e-08,1.02732e-07,2.86544e-24,1.65436e-24,0.0,6.159370191660685e-08,1.027320053470504e-07,0.0,2.281250077729169e-09,0.0,-2.7374999600482397e-08
5,0.0040292,0.0221055,0.00736849,-1.30104e-18,0.0127626,-7.53827e-20,-1.00761e-19,9.57656e-08,3.54688e-09,-4.25625e-08,1.59728e-07,2.30786e-31,1.33244e-31,0.0,9.576560455748506e-08,1.597280128162737e-07,0.0,3.5468799008953056e-09,0.0,-4.256249908074494e-08
6,0.0061859,0.0339373,0.0113124,-4.77049e-18,0.0195937,1.20526e-19,8.8665e-20,1.47024e-07,5.44671e-09,-6.53456e-08,2.45219e-07,-6.61761e-24,1.14621e-23,0.0,1.4702401074373483e-07,2.452190299706558e-07,0.0,5.446709971934638e-09,0.0,-6.534559782167548e-08
7,0.0094208,0.0516849,0.0172283,7.37257e-18,0.0298403,1.86619e-19,-2.58125e-20,2.2391e-07,8.29297e-09,-9.95156e-08,3.7346e-07,-6.95067e-31,-4.01297e-31,0.0,2.2391002496569e-07,3.734600697580248e-07,0.0,8.292970088419338e-09,0.0,-9.951559509779884e-08
8,0.014273,0.0783064,0.0261021,-1.30104e-18,0.0452102,1.86619e-19,-2.58125e-20,3.39241e-07,1.25671e-08,-1.50777e-07,5.65816e-07,2.64704e-23,-4.58482e-23,0.0,3.392410574676319e-07,5.658161601473921e-07,0.0,1.2567100027283118e-08,0.0,-1.5077698867216327e-07
9,0.021552,0.118239,0.0394129,1.25767e-17,0.0682651,-8.0004e-19,6.25633e-19,5.12236e-07,1.89735e-08,-2.27663e-07,8.54355e-07,-6.61759e-24,1.1462e-23,0.0,5.122361312892565e-07,8.543553648987512e-07,0.0,1.8973500104380037e-08,0.0,-2.276629741393421e-07
10,0.03247,0.178137,0.059379,-1.30104e-18,0.102847,-4.23358e-20,-1.58e-19,7.71729e-07,2.8587e-08,-3.42996e-07,1.28716e-06,1.86326e-30,1.07575e-30,0.0,7.717292977993395e-07,1.2871608283671065e-06,0.0,2.858700032248862e-08,0.0,-3.429959412049044e-07
11,0.048847,0.267985,0.0893282,-4.29344e-17,0.154721,2.05368e-18,4.41588e-19,1.16097e-06,4.30043e-08,-5.15992e-07,1.93637e-06,4.58471e-23,2.64698e-23,0.0,1.1609706738191505e-06,1.9363718748444114e-06,0.0,4.300430100911967e-08,0.0,-5.159918669006558e-07
12,0.073412,0.402756,0.134252,-1.51788e-17,0.232531,2.58243e-18,-4.74234e-19,1.74483e-06,6.46307e-08,-7.75487e-07,2.91018e-06,4.93934e-23,-3.26124e-23,0.0,1.744831522154655e-06,2.910184234483637e-06,0.0,6.463070212348043e-08,0.0,-7.754866993003873e-07
13,0.1103,0.604912,0.201637,-1.51788e-17,0.349246,1.27953e-18,-2.44755e-18,2.62061e-06,9.70596e-08,-1.16471e-06,4.37091e-06,6.3275e-30,3.65319e-30,0.0,2.62061343381248e-06,4.370919552521002e-06,0.0,9.705960479777787e-08,0.0,-1.1647093217659332e-06
14,0.1655,0.908146,0.302715,4.03323e-17,0.524319,-4.21537e-18,-5.62004e-18,3.93429e-06,1.45719e-07,-1.74858e-06,6.56199e-06,-9.87872e-23,6.52263e-23,0.0,3.934297739371928e-06,6.562011529931411e-06,0.0,1.4571901063575865e-07,0.0,-1.748578471238993e-06
15,0.2484,1.363,0.454332,-2.09468e-16,0.786926,1.22694e-17,3.89742e-18,5.90479e-06,2.18705e-07,-2.62436e-06,9.8486e-06,7.75059e-23,2.8927e-22,0.0,5.904807433232406e-06,9.848648497623458e-06,0.0,2.1870502386889257e-07,0.0,-2.624356556402141e-06
16,0.3728,2.04527,0.681756,2.34621e-16,1.18084,-2.38375e-18,-4.56255e-18,8.86055e-06,3.28182e-07,-3.93804e-06,1.47785e-05,-2.4013e-22,8.39438e-22,0.0,8.860589254755524e-06,1.4778609202625859e-05,0.0,3.281820537548441e-07,0.0,-3.938032245964784e-06
17,0.5593,3.06867,1.02289,4.56666e-16,1.7717,1.53658e-17,1.54539e-17,1.32942e-05,4.92389e-07,-5.90853e-06,2.21733e-05,1.55012e-22,5.78537e-22,0.0,1.3294288368159712e-05,2.2173545829451413e-05,0.0,4.923891212538223e-07,0.0,-5.908512544672284e-06
18,0.8392,4.60377,1.53459,2.34621e-16,2.65799,5.31314e-17,1.77204e-17,1.99445e-05,7.38697e-07,-8.86424e-06,3.32654e-05,1.58058e-21,-1.04362e-21,0.0,1.9944698892881974e-05,3.326595329955495e-05,0.0,7.38697272906208e-07,0.0,-8.864200712777048e-06
19,1.259,6.90638,2.30213,-1.31969e-15,3.9874,2.38248e-17,8.00221e-19,2.99199e-05,1.10814e-06,-1.32977e-05,4.99034e-05,-1.31371e-26,-7.5847e-27,0.0,2.992034760462836e-05,4.990464519538662e-05,0.0,1.1081406139368255e-06,0.0,-1.3297611585971758e-05
20,1.888,10.3602,3.45341,-4.65036e-15,5.98148,-2.24011e-17,1.31867e-17,4.48827e-05,1.66234e-06,-1.99479e-05,7.48599e-05,-3.16123e-21,2.08725e-21,0.0,4.4883707243537074e-05,7.486270207235357e-05,0.0,1.6623413816585497e-06,0.0,-1.994770104196686e-05
21,2.833,15.5409,5.18029,-2.86312e-14,8.97252,5.76643e-17,-5.78126e-17,6.73263e-05,2.49357e-06,-2.99228e-05,0.000112294,-7.33604e-22,-4.23546e-22,0.0,6.732856646629592e-05,0.00011230030520725798,0.0,2.4935731088859825e-06,0.0,-2.9922352317468537e-05
22,4.249,93.5787,31.1929,-1.03265e-09,54.0277,3.28372e-16,-5.26719e-16,0.000405403,1.5015e-05,-0.000180179,0.000676171,6.77731e-21,-1.17391e-20,0.0,0.00040548518690219915,0.0006763996551444329,0.0,1.5015112725613733e-05,0.0,-0.00018016276873877857
23,6.374,211.097,70.3658,-9.04826e-07,121.877,5.76346e-17,-5.78297e-17,0.000914519,3.38711e-05,-0.000406453,0.00152533,-4.01543e-25,-2.31831e-25,0.0,0.0009149373000056915,0.0015264939075101402,0.0,3.3871673632113186e-05,0.0,-0.00040637040916957634
24,9.214,362.772,120.994,0.000494291,209.508,-0.00833889,-0.0048129,0.00159354,5.50665e-05,-0.000717149,0.00266306,-1.06258e-07,-6.13781e-08,3.39802e-05,0.0015948103595657681,0.002666609094065908,-1.0625799440333594e-07,5.5068016187487245e-05,-6.137809815953688e-08,-0.0007168919101168125
25,12.05,380.404,127.285,9.12106e-05,220.045,-0.135703,-0.0782508,0.00225614,-3.20577e-05,-0.00124657,0.00388943,-2.45665e-06,-1.43711e-06,0.00094013,0.00225868699895182,0.0038970036487380177,-2.4566469823961157e-06,-3.2057186157397055e-05,-1.4371089673836934e-06,-0.0012457933543652544
26,14.89,394.887,132.455,8.18924e-05,228.704,-0.240079,-0.138374,0.00291744,-0.000121426,-0.00178065,0.00511702,-5.07841e-06,-2.98342e-06,0.00186615,0.0029216998697076946,0.005130134306020384,-5.078397104951726e-06,-0.00012141862816161808,-2.9834155496066828e-06,-0.0017790655833587188
27,17.73,407.219,136.85,3.19049e-05,236.069,-0.325627,-0.187615,0.00357761,-0.000212279,-0.00231777,0.00634509,-7.90277e-06,-4.65765e-06,0.00280548,0.0035840172853001118,0.006365262726907295,-7.902738773157836e-06,-0.00021225647040723494,-4.6576391531383265e-06,-0.002315086045110659
28,20.57,417.981,140.678,1.15118e-05,242.492,-0.397311,-0.228849,0.00423674,-0.000304145,-0.00285694,0.00757322,-1.09044e-05,-6.44296e-06,0.00375423,0.004245727671239985,0.007601969359834593,-1.0904340547290836e-05,-0.0003040987525982919,-6.442939244122314e-06,-0.0028528628305851678
29,23.41,427.548,144.075,1.53637e-06,248.195,-0.458456,-0.264002,0.00489489,-0.000396731,-0.00339754,0.00880115,-1.40602e-05,-8.32433e-06,0.00470994,0.004906889544884718,0.008839993994306239,-1.4060101155899396e-05,-0.00039665231266305945,-8.324295352912792e-06,-0.003391774891884247
30,26.25,436.171,147.133,-4.65127e-06,253.332,-0.511362,-0.294405,0.00555211,-0.000489845,-0.00393916,0.0100287,-1.73497e-05,-1.02887e-05,0.0056709,0.005567551527184689,0.010079155939951567,-1.7349549494838357e-05,-0.0004897250455250246,-1.028864707153243e-05,-0.003931411686534991
31,29.09,444.03,149.914,-9.42077e-06,258.01,-0.557675,-0.321009,0.00620844,-0.000583353,-0.00448149,0.0112557,-2.07551e-05,-1.23248e-05,0.00663594,0.006227752309368784,0.011319283727099894,-2.0754884614393454e-05,-0.000583182882719746,-1.2324724049994629e-05,-0.004471463107754481
32,31.93,451.256,152.469,-1.3716e-05,262.308,-0.598606,-0.344514,0.00686391,-0.000677159,-0.00502432,0.012482,-2.42613e-05,-1.44232e-05,0.00760418,0.006887520619720311,0.012560225292543192,-2.426100569707934e-05,-0.0006769297795867768,-1.4423095986204615e-05,-0.005011719216557853
33,34.77,457.951,154.832,-1.79375e-05,266.287,-0.635069,-0.365447,0.00751855,-0.000771195,-0.00556749,0.0137076,-2.78551e-05,-1.65756e-05,0.00857494,0.007546885265907077,0.013801979896447047,-2.7854712050245922e-05,-0.0007708977055649324,-1.6575462625456616e-05,-0.005552020250090828
34,37.61,464.191,157.031,-2.22593e-05,269.993,-0.66777,-0.384216,0.00817238,-0.000865405,-0.00611085,0.0149324,-3.15253e-05,-1.87751e-05,0.00954772,0.00820586505280163,0.015044445291910069,-3.152480308299399e-05,-0.0008650306450902479,-1.8774923748909877e-05,-0.006092216730497313
35,40.45,470.038,159.09,-2.67551e-05,273.463,-0.697263,-0.401141,0.00882541,-0.000959751,-0.00665432,0.0161564,-3.52621e-05,-2.10157e-05,0.0105221,0.008864468749438137,0.016287620360881938,-3.5261478299464244e-05,-0.0009592905863149426,-2.1015479171770934e-05,-0.006632229039934434
36,43.29,475.542,161.025,-3.14514e-05,276.728,-0.723989,-0.416475,0.00947767,-0.0010542,-0.00719781,0.0173795,-3.9057e-05,-2.32919e-05,0.0114978,0.009522725341709393,0.01753140222909133,-3.905623728528429e-05,-0.0010536445263904515,-2.329162874581403e-05,-0.0071719678051769264
37,46.13,480.743,162.852,-3.63522e-05,279.811,-0.748308,-0.430426,0.0101292,-0.00114872,-0.00774125,0.0186017,-4.29027e-05,-2.55994e-05,0.0124744,0.010180673996320388,0.018775789398992604,-4.290177969235032e-05,-0.0011480604737419409,-2.5599072338122753e-05,-0.007711363693067463
38,48.97,485.675,164.582,-4.14508e-05,282.734,-0.770512,-0.443162,0.0107799,-0.0012433,-0.00828459,0.0198229,-4.67925e-05,-2.7934e-05,0.0134519,0.010838212467830788,0.02002067836749921,-4.67914052479923e-05,-0.001242527422769757,-2.793360984942872e-05,-0.008250367356332888
39,51.81,490.367,166.226,-4.67353e-05,285.512,-0.790845,-0.454824,0.0114299,-0.00133792,-0.00882778,0.0210431,-5.07206e-05,-3.02923e-05,0.0144299,0.0114954708917816,0.021266067256484167,-5.0719313732128235e-05,-0.001337025384056112,-3.0291841192964242e-05,-0.008788929555246017
40,54.65,494.842,167.793,-5.21919e-05,288.16,-0.809511,-0.465529,0.0120792,-0.00143256,-0.00937079,0.0222624,-5.4682e-05,-3.2671e-05,0.0154084,0.01215244816562211,0.022512056435225913,-5.468050496670873e-05,-0.0014315343757377308,-3.2670466308726276e-05,-0.009327020970876676
41,57.49,499.121,169.289,-5.78059e-05,290.691,-0.826681,-0.475376,0.0127278,-0.00152722,-0.00991358,0.0234806,-5.86721e-05,-3.50674e-05,0.0163872,0.012809143186676142,0.023758439640248152,-5.8670378826009006e-05,-0.0015260543929906945,-3.5066785145865254e-05,-0.009864602447040571
42,60.33,503.221,170.721,-6.35628e-05,293.115,-0.842501,-0.484449,0.0133756,-0.00162188,-0.0104561,0.0246978,-6.26867e-05,-3.74789e-05,0.0173662,0.013465453505593361,0.025005317108660163,-6.268473522985651e-05,-0.0016205654634023903,-3.747819767474514e-05,-0.010401625017007032
43,63.17,507.159,172.095,-6.94487e-05,295.441,-0.857098,-0.49282,0.0140228,-0.00171654,-0.0109984,0.025914,-6.67222e-05,-3.99033e-05,0.0183453,0.0141215806469428,0.02625268694717353,-6.671997412355246e-05,-0.0017150675878194743,-3.990250387386762e-05,-0.010938138726919289
44,66.01,510.946,173.415,-7.54502e-05,297.677,-0.870581,-0.500551,0.0146692,-0.00181118,-0.0115404,0.0271291,-7.07751e-05,-4.23385e-05,0.0193244,0.014777320749041367,0.02750044450866662,-7.077259550170023e-05,-0.0018095408032797744,-4.233760373839601e-05,-0.011474065006587764
45,68.85,514.595,174.686,-8.15548e-05,299.831,-0.883042,-0.507698,0.015315,-0.00190581,-0.012082,0.0283431,-7.48425e-05,-4.47827e-05,0.0203034,0.015432875598658358,0.028748587517814395,-7.483969936994406e-05,-0.0019039950972581376,-4.478169726984671e-05,-0.012009305696717876
46,71.69,518.117,175.911,-8.77507e-05,301.908,-0.894565,-0.514307,0.0159601,-0.00200041,-0.0126234,0.0295561,-7.89215e-05,-4.72341e-05,0.0212823,0.016088142680380058,0.029997216694969797,-7.89183857803355e-05,-0.0019984105134024377,-4.7232984487499685e-05,-0.012544059087808646
47,74.53,521.52,177.093,-9.40269e-05,303.915,-0.905223,-0.52042,0.0166045,-0.00209498,-0.0131644,0.030768,-8.30096e-05,-4.96913e-05,0.022261,0.016743120890837293,0.031246227006812344,-8.300615479850393e-05,-0.0020927870610548682,-4.9690065407781425e-05,-0.013078128273101619
48,77.37,524.813,178.236,-0.000100373,305.855,-0.915078,-0.526073,0.0172482,-0.00218952,-0.013705,0.0319788,-8.71046e-05,-5.21528e-05,0.0232394,0.01739780912655764,0.03249561616603169,-8.710080650442542e-05,-0.002187124749553293,-5.2151440066317e-05,-0.013611514049791551
49,80.21,528.003,179.343,-0.000106779,307.734,-0.924187,-0.531299,0.0178913,-0.00228403,-0.0142453,0.0331886,-9.12041e-05,-5.46174e-05,0.0242176,0.018052308089191227,0.03374548525583787,-9.119994103246043e-05,-0.002281423588231357,-5.461590849697995e-05,-0.014144315799396345
50,83.05,531.098,180.415,-0.000113236,309.556,-0.932602,-0.536126,0.0185337,-0.0023785,-0.0147852,0.0343972,-9.53063e-05,-5.70837e-05,0.0251954,0.018706515000669777,0.034995625356806226,-9.53017584988114e-05,-0.0023756736101753217,-5.708207075660887e-05,-0.014676435624623618
51,85.89,534.102,181.455,-0.000119734,311.324,-0.940366,-0.540582,0.0191754,-0.00247293,-0.0153247,0.0356047,-9.94094e-05,-5.95508e-05,0.0261728,0.019360428757135395,0.03624613741913896,-9.940445904932371e-05,-0.0024698748275356897,-5.954902688631858e-05,-0.015207874319126291
52,88.73,537.021,182.465,-0.000126267,313.041,-0.94752,-0.544688,0.0198165,-0.00256732,-0.0158638,0.0368111,-0.000103512,-6.20175e-05,0.0271498,0.02001415025604758,0.03749701913946413,-0.00010350664281777444,-0.0025640272524571905,-6.201557695462157e-05,-0.015738632675311504
53,91.57,539.861,183.446,-0.000132826,314.71,-0.9541,-0.548466,0.0204569,-0.00266166,-0.0164026,0.0380164,-0.000107611,-6.44829e-05,0.0281263,0.020667576522630737,0.03874826821040611,-0.0001076052101439684,-0.002658120923657803,-6.448082102250563e-05,-0.016268809857467037
54,94.41,542.626,184.4,-0.000139403,316.334,-0.960139,-0.551933,0.0210967,-0.00275595,-0.0169409,0.0392207,-0.000111707,-6.69461e-05,0.0291024,0.02132080858474339,0.039999986320587544,-0.00011170076100530668,-0.0027521558560893444,-6.694385915984036e-05,-0.01679820985632763
55,97.25,545.32,185.329,-0.000145992,317.916,-0.965667,-0.555108,0.0217358,-0.0028502,-0.0174788,0.0404237,-0.000115797,-6.94062e-05,0.030078,0.02197374333658564,0.041251859154664006,-0.00011579029578612232,-0.0028461420362315693,-6.940379144537712e-05,-0.01732693188670742
56,100.1,547.947,186.234,-0.000152586,319.458,-0.970711,-0.558006,0.0223743,-0.0029444,-0.0180163,0.0416257,-0.000119881,-7.18626e-05,0.0310531,0.022626481936328213,0.042504196393266414,-0.0001198738145600231,-0.0029400695055985526,-7.186001794523555e-05,-0.017854976736052297
57,102.9,550.51,187.116,-0.000159178,320.962,-0.975294,-0.56064,0.0230121,-0.00303854,-0.0185533,0.0428266,-0.000123957,-7.43143e-05,0.0320276,0.023278921147254383,0.04375689171307129,-0.00012394931764847517,-0.0030339283094522607,-7.431153876080732e-05,-0.018382247028800758
58,105.8,553.013,187.976,-0.000165763,322.429,-0.979439,-0.563024,0.0236493,-0.00313264,-0.01909,0.0440263,-0.000128024,-7.67608e-05,0.0330015,0.023931162257758487,0.04500983828578242,-0.00012801580527732614,-0.0031277384029639865,-7.67578539651037e-05,-0.018908939926138624
59,108.6,555.459,188.816,-0.000172334,323.862,-0.983166,-0.565168,0.0242859,-0.00322668,-0.0196262,0.0452249,-0.000132081,-7.92013e-05,0.0339749,0.024583204358632038,0.04626313803044346,-0.00013207227768874397,-0.003221479862652088,-7.919816365986598e-05,-0.019434859940793636
60,111.5,557.85,189.636,-0.000178886,325.263,-0.986494,-0.567084,0.0249219,-0.00332067,-0.020162,0.0464224,-0.000136126,-8.16353e-05,0.0349477,0.025235046540445616,0.047516788611708716,-0.00013611673527635926,-0.0033151626730670847,-8.163196792954075e-05,-0.019960106016847834
61,114.3,560.188,190.438,-0.000185413,326.632,-0.98944,-0.568782,0.0255572,-0.00341461,-0.0206973,0.0476188,-0.00014016,-8.40622e-05,0.0359198,0.025886585304887744,0.0487707876902741,-0.00014015017804602792,-0.003408786849089296,-8.405866687222208e-05,-0.02048458098384831
62,117.1,562.477,191.221,-0.0001919,327.971,-0.99202,-0.57027,0.0261919,-0.00350849,-0.0212322,0.048814,-0.00014418,-8.64813e-05,0.0368914,0.026537922200478903,0.050025027920375775,-0.00014416960656327138,-0.00350234244061165,-8.647756060009559e-05,-0.02100838367796032
63,120.0,564.719,191.988,-0.00019803,329.282,-0.994247,-0.571564,0.026826,-0.00360231,-0.0217667,0.0500081,-0.000148186,-8.88921e-05,0.0378623,0.027189056317200366,0.05127961170639184,-0.00014817502099695457,-0.0035958294652989053,-8.888814921437227e-05,-0.021531514877617064
64,122.8,566.915,192.739,0.000164741,330.566,-0.99625,-0.57305,0.0274594,-0.00369608,-0.0223007,0.0512011,-0.000152183,-9.12969e-05,0.0388325,0.027839883960827372,0.05253453669707531,-0.00015217142075463208,-0.003689257903909282,-9.129273256480719e-05,-0.022053877565421875
65,125.7,569.066,193.475,-0.000211722,331.825,-0.998652,-0.574099,0.0280923,-0.00378978,-0.0228343,0.052393,-0.000156177,-9.36898e-05,0.0398021,0.02849060972383244,0.053789800537245025,-0.0001561648050071307,-0.00378260784693063,-9.368541124776808e-05,-0.022575570416321855
66,128.5,571.175,194.197,-0.000218504,333.058,-1.00088,-0.575389,0.0287245,-0.00388342,-0.0233674,0.0535838,-0.00016016,-9.60806e-05,0.040771,0.029141027062557612,0.05504540086779097,-0.00016014717507184528,-0.0038758892760271113,-9.607598440697362e-05,-0.023096496514544262
67,131.3,573.243,194.905,-0.00022538,334.269,-1.00314,-0.576691,0.029356,-0.00397699,-0.0239,0.0547734,-0.000164135,-9.84667e-05,0.0417392,0.029791134871083313,0.0563012296955514,-0.00016412153058775747,-0.003969092248498396,-9.84618523135472e-05,-0.023616656789523516
68,134.2,575.272,195.601,-0.000232287,335.457,-1.00542,-0.578005,0.029987,-0.00407049,-0.0244323,0.055962,-0.000168102,-0.000100848,0.0427068,0.030441138131648504,0.057557495788205015,-0.00016808787165045747,-0.004062216784733397,-0.00010084291501133436,-0.024136247341820405
69,137.0,577.264,196.284,-0.00023924,336.623,-1.00771,-0.579332,0.0306174,-0.00416393,-0.024964,0.0571494,-0.000172063,-0.000103225,0.0436736,0.031090933018955935,0.05881398538895111,-0.00017204819801086568,-0.004155272863549331,-0.00010321967248294595,-0.02465497618282586
70,139.9,579.219,196.955,-0.000246238,337.768,-1.01003,-0.580672,0.0312471,-0.00425728,-0.0254953,0.0583357,-0.000176016,-0.000105598,0.0446397,0.03174041544755957,0.06007080175305024,-0.00017600051009258877,-0.004248230629956162,-0.0001055924247274076,-0.025173039358310834
71,142.7,581.139,197.614,-0.000253284,338.894,-1.01237,-0.582023,0.0318762,-0.00435057,-0.0260262,0.059521,-0.000179963,-0.000107967,0.0456051,0.03238968755004379,0.06132804863453667,-0.00017994680763055992,-0.004341119979629715,-0.00010796117177314102,-0.025690437636190055
72,145.5,583.026,198.263,-0.000260377,340.0,-1.01473,-0.583386,0.0325047,-0.00444379,-0.0265566,0.0607051,-0.000183904,-0.000110333,0.0465698,0.03303874841468013,0.06258551151089753,-0.00018388709069594444,-0.004433930974437561,-0.00011032691353840551,-0.026207074403885033
73,148.4,584.881,198.9,-0.000267519,341.087,-1.01711,-0.584761,0.0331325,-0.00453692,-0.0270865,0.0618881,-0.000187838,-0.000112694,0.0475338,0.03368749376079161,0.06384329400267075,-0.00018782035954734155,-0.0045266437252096114,-0.00011268765026961614,-0.02672295058169394
74,151.2,586.704,199.528,-0.00027471,342.157,-1.01952,-0.586148,0.0337598,-0.00462999,-0.027616,0.06307,-0.000191768,-0.000115053,0.048497,0.03433612934890973,0.06510139371942825,-0.0001917496136922825,-0.004619288119204312,-0.0001150463816573799,-0.02723816436447446
75,154.1,588.497,200.145,-0.000281951,343.209,-1.02194,-0.587546,0.0343864,-0.00472297,-0.028145,0.0642508,-0.000195691,-0.000117408,0.0494595,0.03498444746441298,0.06635980826686483,-0.00019567185376512253,-0.00471183431525557,-0.00011740110795044334,-0.027752619290200564
76,156.9,590.261,200.752,-0.000289244,344.244,-1.02438,-0.588957,0.0350124,-0.00481588,-0.0286735,0.0654305,-0.00019961,-0.00011976,0.0504213,0.03563255056363124,0.06761853524680661,-0.00019959007924930106,-0.004804302243065384,-0.0001197528290574068,-0.028266316274520698
77,159.7,591.997,201.351,-0.000296589,345.263,-1.02684,-0.590378,0.0356378,-0.00490871,-0.0292016,0.0666091,-0.000203524,-0.000122109,0.0513823,0.03628043773395473,0.0688775722572148,-0.00020350329039564574,-0.0048966819718165855,-0.00012210154499947556,-0.02877935335353221
78,162.6,593.706,201.94,-0.000303986,346.267,-1.02933,-0.591811,0.0362626,-0.00500146,-0.0297292,0.0677866,-0.000207433,-0.000124455,0.0523426,0.03692810806259206,0.07013691689219415,-0.00020741148726266534,-0.004988973524476803,-0.00012444725579774385,-0.02929163421512815
79,165.4,595.388,202.52,-0.000311437,347.255,-1.03183,-0.593256,0.0368868,-0.00509413,-0.0302564,0.0689631,-0.000211338,-0.000126799,0.0533021,0.03757556063657086,0.07139667388165893,-0.00021131566969789795,-0.005081176923989794,-0.00012679096134649015,-0.02980325679000917
80,168.3,597.045,203.093,-0.000318942,348.228,-1.03435,-0.594712,0.0375104,-0.00518672,-0.0307831,0.0701384,-0.000215238,-0.00012914,0.0542608,0.038222794542741356,0.07265662665868722,-0.00021521483796338448,-0.005173292193276224,-0.00012913166178907254,-0.030314124865740144
81,171.1,598.677,203.656,-0.000326502,349.188,-1.03689,-0.596179,0.0381334,-0.00527923,-0.0313093,0.0713126,-0.000219135,-0.000131479,0.0552188,0.0388698088677768,0.07391687981954309,-0.00021911099167948311,-0.005265319355233333,-0.00013147035701499554,-0.030824239350344507
82,173.9,600.286,204.212,-0.000334118,350.133,-1.03945,-0.597657,0.0387557,-0.00537166,-0.0318351,0.0724858,-0.000223028,-0.000133815,0.056176,0.0395164987465213,0.07517753846070896,-0.000223003131104349,-0.005357258432735379,-0.00013380604717216915,-0.03133369801687347
83,176.8,601.87,204.76,-0.000341791,351.065,-1.04203,-0.599146,0.0393775,-0.005464,-0.0323604,0.0736579,-0.000226918,-0.00013615,0.0571325,0.04016307110395534,0.07643849289152271,-0.00022689225605787566,-0.005449099503124333,-0.00013614073200929333,-0.031842404801770474
84,179.6,603.433,205.301,-0.000349521,351.985,-1.04463,-0.600646,0.0399987,-0.00555627,-0.0328852,0.0748288,-0.000230804,-0.000138482,0.0580881,0.04080942113926134,0.07769963291318915,-0.00023077736680576777,-0.005540862481163034,-0.0001384724118104197,-0.03235036060846863
85,182.5,604.973,205.835,-0.000357309,352.891,-1.04725,-0.602158,0.0406192,-0.00564844,-0.0334096,0.0759988,-0.000234687,-0.000140813,0.059043,0.04145544379287869,0.0789612794029717,-0.0002346594631601473,-0.005632517555879124,-0.0001408030863148113,-0.03285766305303883
86,185.3,606.493,206.361,-0.000365157,353.785,-1.04989,-0.60368,0.0412391,-0.00574054,-0.0339335,0.0771676,-0.000238568,-0.000143141,0.0599972,0.04210124216701172,0.08022310661451248,-0.00023853954491748208,-0.005724094583825501,-0.00014313075581584567,-0.033364216220177156
87,188.1,607.991,206.881,-0.000373064,354.668,-1.05254,-0.605213,0.0418585,-0.00583255,-0.034457,0.0783353,-0.000242446,-0.000145469,0.0609505,0.04274691962207444,0.08148521987752488,-0.00024241661234347678,-0.005815573701321464,-0.00014545841989799246,-0.033870117621740414
88,191.0,609.47,207.394,-0.000381031,355.539,-1.05522,-0.606756,0.0424772,-0.00592447,-0.0349799,0.079502,-0.000246321,-0.000147794,0.0619031,0.043392266758795595,0.08274772502272354,-0.0002462906654731034,-0.005906954933840858,-0.00014778307900475962,-0.034375174878508274
89,193.8,610.929,207.9,-0.00038906,356.398,-1.05791,-0.608311,0.0430954,-0.00601631,-0.0355025,0.0806676,-0.000250194,-0.000150119,0.0628549,0.0440374912764554,0.08401051158004469,-0.00025016270409117247,-0.005998248246846916,-0.00015010773270662803,-0.03487967857381913
90,196.7,612.369,208.4,-0.000397151,357.247,-1.06062,-0.609876,0.0437129,-0.00610806,-0.0360245,0.0818321,-0.000254065,-0.000152441,0.0638059,0.044682383517306246,0.08527357709794448,-0.0002540327282208876,-0.0060894437239137345,-0.00015242938146109442,-0.035383339914557
91,199.5,613.79,208.894,-0.000405305,358.085,-1.06335,-0.611452,0.0443299,-0.00619973,-0.0365461,0.0829956,-0.000257933,-0.000154763,0.0647561,0.04532715143838506,0.0865370277747981,-0.00025789973814349665,-0.0061805513286266045,-0.00015475102482465086,-0.03588635276730101
92,202.3,615.193,209.382,-0.000413522,358.913,-1.0661,-0.613038,0.0449462,-0.00629131,-0.0370672,0.084158,-0.0002618,-0.000157084,0.0657056,0.045971585123659287,0.08780075275054688,-0.0002617657333703338,-0.00627156114633276,-0.0001570716629544222,-0.036388621511387
93,205.2,616.579,209.864,-0.000421803,359.73,-1.06887,-0.614635,0.045562,-0.00638281,-0.0375879,0.0853193,-0.000265666,-0.000159404,0.0666542,0.04661589278774736,0.08906474956241084,-0.0002656307139130565,-0.0063624831387433245,-0.00015939129585740286,-0.036890243347587504
94,208.0,617.948,210.341,-0.00043015,360.538,-1.07165,-0.616242,0.0461771,-0.00647421,-0.0381081,0.0864795,-0.00026953,-0.000161722,0.0676021,0.04725986425652251,0.09032901574384966,-0.00026949368005269037,-0.006453297457506779,-0.00016170892370226397,-0.03739112275296941
95,210.9,619.3,210.812,-0.000438562,361.336,-1.07446,-0.61786,0.0467917,-0.00656553,-0.0386278,0.0876387,-0.000273392,-0.00016404,0.0685491,0.047903708002010825,0.09159365798392938,-0.00027335463181255015,-0.006544023999746074,-0.00016402654617475587,-0.03789126061439463
96,213.7,620.636,211.277,-0.000447041,362.124,-1.07728,-0.619488,0.0474056,-0.00665677,-0.0391471,0.0887968,-0.000277254,-0.000166357,0.0694954,0.04854721359218428,0.09285856490221756,-0.0002772155686615596,-0.006634662787991852,-0.0001663431634414403,-0.03839075397808078
97,216.5,621.956,211.738,-0.000455587,362.904,-1.08012,-0.621126,0.048019,-0.00674791,-0.0396659,0.0899539,-0.000281114,-0.000168674,0.0704409,0.04919058975629831,0.09412384343338887,-0.0002810744911617702,-0.006725193979256416,-0.00016865977534052945,-0.03888950746707509
98,219.4,623.26,212.193,-0.000464201,363.674,-1.08298,-0.622775,0.0486318,-0.00683897,-0.0401842,0.0911099,-0.000284973,-0.00017099,0.0713856,0.04983373078798681,0.09538938193672086,-0.00028493239905147405,-0.006815637465138136,-0.00017097538204302598,-0.039387521963749506
99,222.2,624.55,212.643,-0.000472883,364.436,-1.08585,-0.624434,0.049244,-0.00692993,-0.0407021,0.0922649,-0.000288832,-0.000173305,0.0723295,0.050476635771111056,0.09665528759264497,-0.00028879029205353124,-0.0069059734062134615,-0.0001732899835559243,-0.039884894360425305
100,225.1,625.824,213.088,-0.000481635,365.19,-1.08874,-0.626103,0.0498556,-0.00702082,-0.0412195,0.0934188,-0.00029269,-0.00017562,0.0732726,0.051119303789396,0.0979214485000437,-0.00029264717046062483,-0.006996231620443827,-0.0001756045797104422,-0.04038152942551265
101,227.9,627.085,213.529,-0.000490458,365.935,-1.09165,-0.627782,0.0504666,-0.00711161,-0.0417365,0.0945716,-0.000296548,-0.000177935,0.0742149,0.0517617339264318,0.09918786216646236,-0.00029650403398795433,-0.007086382340121378,-0.0001779191705066907,-0.04087752394916744
102,230.7,628.331,213.965,-0.000499351,366.672,-1.09458,-0.629472,0.0510771,-0.00720231,-0.042253,0.0957234,-0.000300405,-0.00018025,0.0751565,0.05240403050607578,0.1004546361411911,-0.00030035988293586335,-0.007176435521269453,-0.00018023375594466984,-0.0413727827964403
103,233.6,629.563,214.396,-0.000508316,367.401,-1.09753,-0.631171,0.0516869,-0.00729292,-0.042769,0.0968742,-0.000304262,-0.000182564,0.0760972,0.05304598219505574,0.10172176830446644,-0.0003042157170118909,-0.007266391188943899,-0.00018254733620692853,-0.04186730684234086
104,236.4,630.782,214.823,-0.000517353,368.122,-1.10049,-0.632881,0.0522962,-0.00738345,-0.0432846,0.0980239,-0.000308119,-0.000184878,0.0770371,0.05368779862152562,0.10298914623408617,-0.00030807153621592587,-0.007356259294608258,-0.00018486091111558078,-0.04236119272421124
105,239.3,631.988,215.245,-0.000526463,368.836,-1.10347,-0.6346,0.0529049,-0.00747388,-0.0437997,0.0991725,-0.000311975,-0.000187193,0.0779762,0.054329373628090094,0.10425676742293666,-0.0003119263408599693,-0.007446020009488463,-0.00018717548048352572,-0.04285434545145017
106,242.1,633.18,215.663,-0.000535648,369.542,-1.10647,-0.63633,0.053513,-0.00756423,-0.0443143,0.10032,-0.000315832,-0.000189507,0.0789146,0.05497070629762835,0.105524629360219,-0.0003157821303242381,-0.007535693210532712,-0.0001894890446826336,-0.04334676589463449
107,244.9,634.361,216.077,-0.000544907,370.242,-1.10949,-0.63807,0.0541205,-0.00765449,-0.0448285,0.101467,-0.00031969,-0.000191822,0.0798521,0.05561179571289765,0.10679339360729112,-0.0003196389045970749,-0.007625268996247492,-0.00019180360333637125,-0.04383855053894359
108,247.8,635.529,216.487,-0.000554241,370.934,-1.11252,-0.639819,0.0547274,-0.00774465,-0.0453423,0.102612,-0.000323547,-0.000194136,0.0807888,0.05625264095653493,0.10806139783686097,-0.00032349466431402796,-0.007714737468695554,-0.0001941171568260458,-0.044329700104548286
109,250.6,636.685,216.893,-0.000563651,371.619,-1.11557,-0.641578,0.0553338,-0.00783473,-0.0458555,0.103757,-0.000327406,-0.000196451,0.0817248,0.0568933468003896,0.10933085476278337,-0.0003273524085045665,-0.007804118499362356,-0.0001964317047657982,-0.04482002427451093
110,253.5,637.829,217.295,-0.000573139,372.297,-1.11864,-0.643348,0.0559396,-0.00792472,-0.0463684,0.1049,-0.000331264,-0.000198767,0.0826599,0.05753380676561748,0.11059954484803747,-0.0003312091381393323,-0.007893402189358634,-0.000198747247148523,-0.045309810467654366
111,256.3,638.961,217.693,-0.000582704,372.968,-1.12172,-0.645127,0.0565448,-0.00801462,-0.0468807,0.106043,-0.000335124,-0.000201082,0.0835943,0.05817401993443627,0.1118696858751147,-0.00033506785222481295,-0.007982588563514192,-0.00020106178436962718,-0.04579877299330659
112,259.1,640.082,218.088,-0.000592347,373.633,-1.12482,-0.646915,0.0571494,-0.00810443,-0.0473926,0.107184,-0.000338984,-0.000203398,0.0845278,0.05881398538895111,0.11313905322305651,-0.0003389265514155415,-0.008071677646630082,-0.00020337731602915188,-0.04628710360252841
113,262.0,641.193,218.479,-0.000602069,374.292,-1.12794,-0.648714,0.0577534,-0.00819414,-0.0479041,0.108324,-0.000342845,-0.000205715,0.0854606,0.059453702211157866,0.11440875533642658,-0.0003427862353689859,-0.008160659545085713,-0.0002056938421202137,-0.046774803009279275
114,264.8,642.292,218.866,-0.000611871,374.944,-1.13108,-0.650522,0.0583569,-0.00828377,-0.048415,0.109464,-0.000346707,-0.000208032,0.0863925,0.06009327549226828,0.11567990573557219,-0.0003466469040737108,-0.008249554121300684,-0.00020801036284379126,-0.047261681378752085
115,267.7,643.38,219.249,-0.000621754,375.591,-1.13423,-0.65234,0.0589598,-0.00837331,-0.0489256,0.110602,-0.000350571,-0.00021035,0.0873237,0.060732598432597484,0.11695027216970177,-0.00035050955716731114,-0.008338351480707495,-0.00021032787798980213,-0.04774802539004741
116,270.5,644.458,219.629,-0.000631718,376.231,-1.1374,-0.654168,0.0595622,-0.00846276,-0.0494357,0.111739,-0.000354435,-0.000212669,0.0882541,0.06137177625092294,0.11822096688220984,-0.00035437219533573927,-0.008427051647993733,-0.00021264638755114085,-0.048233645254419755
117,273.3,645.526,220.006,-0.000641764,376.865,-1.14058,-0.656006,0.0601639,-0.00855212,-0.0499453,0.112876,-0.000358301,-0.000214988,0.0891836,0.06201059581828661,0.11949310719627482,-0.00035823681786262274,-0.008515654647817228,-0.0002149648917358915,-0.0487185418266578
118,276.2,646.584,220.379,-0.000651893,377.494,-1.14378,-0.657853,0.0607651,-0.00864138,-0.0504545,0.114011,-0.000362168,-0.000217309,0.0901124,0.0626492685542801,0.12076445322533269,-0.0003621024250864968,-0.008604150590850623,-0.00021728539010945624,-0.049202811039754435
119,279.0,647.632,220.749,-0.000662106,378.117,-1.147,-0.659709,0.0613657,-0.00873056,-0.0509632,0.115145,-0.000366037,-0.00021963,0.0910404,0.06328768740296331,0.12203612101465078,-0.0003659700166304125,-0.008692559330496619,-0.00021960588309710705,-0.049686358569036804
120,281.9,648.67,221.116,-0.000672403,378.734,-1.15024,-0.661575,0.0619658,-0.00881965,-0.0514714,0.116278,-0.000369907,-0.000221952,0.0919676,0.06392595783806332,0.12330810838453599,-0.00036983859284067666,-0.008780870976485278,-0.00022192737047699307,-0.05016918526495706
121,284.0,649.449,221.391,-0.000683517,379.197,-1.1527,-0.662992,0.0624188,-0.0088869,-0.0518552,0.117134,-0.000372831,-0.000223707,0.0926676,0.0644080254770405,0.1242700717869103,-0.0003727615071594803,-0.008847528221537115,-0.00022368197945477064,-0.05053366038440288
