,Time,S11,S22,S33,S12,S13,S23,LE11,LE22,LE33,LE12,LE13,LE23,SDV_EPBAR,E11,E12,E13,E22,E23,E33
0,0.000284,0.0015581,0.000519365,0.0,0.000899567,1.32028e-20,2.67023e-20,6.7501e-09,2.50301e-10,-3.0004e-09,1.1258e-08,6.18106e-26,5.13348e-25,0.0,6.750100034480511e-09,1.1258000087721598e-08,0.0,2.5030089112476617e-10,0.0,-3.0004000395322805e-09
1,0.000568,0.00311619,0.00103873,2.1684e-19,0.00179913,-2.79039e-28,-1.61103e-28,1.35001e-08,5.00425e-10,-6.00057e-09,2.25162e-08,2.06826e-25,-3.58238e-25,0.0,1.3500100148888805e-08,2.2516200237632233e-08,0.0,5.00425034744012e-10,0.0,-6.000569929831556e-09
2,0.000994,0.00545333,0.00181778,2.1684e-19,0.00314848,-6.04799e-21,-2.25714e-20,2.36252e-08,8.75688e-10,-1.05009e-08,3.94034e-08,-4.13622e-25,7.16424e-25,0.0,2.3625200240573463e-08,3.9403400764470575e-08,0.0,8.756879665838824e-10,0.0,-1.0500899927379237e-08
3,0.001633,0.00895905,0.00298635,4.33681e-19,0.00517251,-5.11908e-20,-1.04754e-20,3.88125e-08,1.4375e-09,-1.725e-08,6.47354e-08,3.9316e-32,2.26991e-32,0.0,3.8812500768869995e-08,6.473540214990692e-08,0.0,1.4374998968946784e-09,0.0,-1.7249999872959165e-08
4,0.0025915,0.0142176,0.00473921,-1.30104e-18,0.00820854,3.90948e-20,-3.46674e-20,6.15937e-08,2.28125e-09,-2.7375e-08,1.02732e-07,2.86544e-24,1.65436e-24,0.0,6.159370191660685e-08,1.027320053470504e-07,0.0,2.281250077729169e-09,0.0,-2.7374999600482397e-08
5,0.0040292,0.0221055,0.00736849,-1.30104e-18,0.0127626,-7.53827e-20,-1.00761e-19,9.57656e-08,3.54688e-09,-4.25625e-08,1.59728e-07,2.30786e-31,1.33244e-31,0.0,9.576560455748506e-08,1.597280128162737e-07,0.0,3.5468799008953056e-09,0.0,-4.256249908074494e-08
6,0.0061859,0.0339373,0.0113124,-4.77049e-18,0.0195937,1.20526e-19,8.8665e-20,1.47024e-07,5.44671e-09,-6.53456e-08,2.45219e-07,-6.61761e-24,1.14621e-23,0.0,1.4702401074373483e-07,2.452190299706558e-07,0.0,5.446709971934638e-09,0.0,-6.534559782167548e-08
7,0.0094208,0.0516849,0.0172283,7.37257e-18,0.0298403,1.86619e-19,-2.58125e-20,2.2391e-07,8.29297e-09,-9.95156e-08,3.7346e-07,-6.95067e-31,-4.01297e-31,0.0,2.2391002496569e-07,3.734600697580248e-07,0.0,8.292970088419338e-09,0.0,-9.951559509779884e-08
8,0.014273,0.0783064,0.0261021,-1.30104e-18,0.0452102,1.86619e-19,-2.58125e-20,3.39241e-07,1.25671e-08,-1.50777e-07,5.65816e-07,2.64704e-23,-4.58482e-23,0.0,3.392410574676319e-07,5.658161601473921e-07,0.0,1.2567100027283118e-08,0.0,-1.5077698867216327e-07
9,0.021552,0.118239,0.0394129,1.25767e-17,0.0682651,-8.0004e-19,6.25633e-19,5.12236e-07,1.89735e-08,-2.27663e-07,8.54355e-07,-6.61759e-24,1.1462e-23,0.0,5.122361312892565e-07,8.543553648987512e-07,0.0,1.8973500104380037e-08,0.0,-2.276629741393421e-07
10,0.03247,0.178137,0.059379,-1.30104e-18,0.102847,-4.23358e-20,-1.58e-19,7.71729e-07,2.8587e-08,-3.42996e-07,1.28716e-06,1.86326e-30,1.07575e-30,0.0,7.717292977993395e-07,1.2871608283671065e-06,0.0,2.858700032248862e-08,0.0,-3.429959412049044e-07
11,0.048847,0.267985,0.0893282,-4.29344e-17,0.154721,2.05368e-18,4.41588e-19,1.16097e-06,4.30043e-08,-5.15992e-07,1.93637e-06,4.58471e-23,2.64698e-23,0.0,1.1609706738191505e-06,1.9363718748444114e-06,0.0,4.300430100911967e-08,0.0,-5.159918669006558e-07
12,0.073412,0.402756,0.134252,-1.51788e-17,0.232531,2.58243e-18,-4.74234e-19,1.74483e-06,6.46307e-08,-7.75487e-07,2.91018e-06,4.93934e-23,-3.26124e-23,0.0,1.744831522154655e-06,2.910184234483637e-06,0.0,6.463070212348043e-08,0.0,-7.754866993003873e-07
13,0.1103,0.604912,0.201637,-1.51788e-17,0.349246,1.27953e-18,-2.44755e-18,2.62061e-06,9.70596e-08,-1.16471e-06,4.37091e-06,6.3275e-30,3.65319e-30,0.0,2.62061343381248e-06,4.370919552521002e-06,0.0,9.705960479777787e-08,0.0,-1.1647093217659332e-06
14,0.1655,0.908146,0.302715,4.03323e-17,0.524319,-4.21537e-18,-5.62004e-18,3.93429e-06,1.45719e-07,-1.74858e-06,6.56199e-06,-9.87872e-23,6.52263e-23,0.0,3.934297739371928e-06,6.562011529931411e-06,0.0,1.4571901063575865e-07,0.0,-1.748578471238993e-06
15,0.2484,1.363,0.454332,-2.09468e-16,0.786926,1.22694e-17,3.89742e-18,5.90479e-06,2.18705e-07,-2.62436e-06,9.8486e-06,7.75059e-23,2.8927e-22,0.0,5.904807433232406e-06,9.848648497623458e-06,0.0,2.1870502386889257e-07,0.0,-2.624356556402141e-06
16,0.3728,2.04527,0.681756,2.34621e-16,1.18084,-2.38375e-18,-4.56255e-18,8.86055e-06,3.28182e-07,-3.93804e-06,1.47785e-05,-2.4013e-22,8.39438e-22,0.0,8.860589254755524e-06,1.4778609202625859e-05,0.0,3.281820537548441e-07,0.0,-3.938032245964784e-06
17,0.5593,3.06867,1.02289,4.56666e-16,1.7717,1.53658e-17,1.54539e-17,1.32942e-05,4.92389e-07,-5.90853e-06,2.21733e-05,1.55012e-22,5.78537e-22,0.0,1.3294288368159712e-05,2.2173545829451413e-05,0.0,4.923891212538223e-07,0.0,-5.908512544672284e-06
18,0.8392,4.60377,1.53459,2.34621e-16,2.65799,5.31314e-17,1.77204e-17,1.99445e-05,7.38697e-07,-8.86424e-06,3.32654e-05,1.58058e-21,-1.04362e-21,0.0,1.9944698892881974e-05,3.326595329955495e-05,0.0,7.38697272906208e-07,0.0,-8.864200712777048e-06
19,1.259,6.90638,2.30213,-1.31969e-15,3.9874,2.38248e-17,8.00221e-19,2.99199e-05,1.10814e-06,-1.32977e-05,4.99034e-05,-1.31371e-26,-7.5847e-27,0.0,2.992034760462836e-05,4.990464519538662e-05,0.0,1.1081406139368255e-06,0.0,-1.3297611585971758e-05
20,1.888,10.3602,3.45341,-4.65036e-15,5.98148,-2.24011e-17,1.31867e-17,4.48827e-05,1.66234e-06,-1.99479e-05,7.48599e-05,-3.16123e-21,2.08725e-21,0.0,4.4883707243537074e-05,7.486270207235357e-05,0.0,1.6623413816585497e-06,0.0,-1.994770104196686e-05
21,2.833,15.5409,5.18029,-2.86312e-14,8.97252,5.76643e-17,-5.78126e-17,6.73263e-05,2.49357e-06,-2.99228e-05,0.000112294,-7.33604e-22,-4.23546e-22,0.0,6.732856646629592e-05,0.00011230030520725798,0.0,2.4935731088859825e-06,0.0,-2.9922352317468537e-05
22,4.249,93.5787,31.1929,-1.03265e-09,54.0277,3.28372e-16,-5.26719e-16,0.000405403,1.5015e-05,-0.000180179,0.000676171,6.77731e-21,-1.17391e-20,0.0,0.00040548518690219915,0.0006763996551444329,0.0,1.5015112725613733e-05,0.0,-0.00018016276873877857
23,6.374,211.097,70.3658,-9.04826e-07,121.877,5.76346e-17,-5.78297e-17,0.000914519,3.38711e-05,-0.000406453,0.00152533,-4.01543e-25,-2.31831e-25,0.0,0.0009149373000056915,0.0015264939075101402,0.0,3.3871673632113186e-05,0.0,-0.00040637040916957634
24,9.214,362.755,120.989,0.000497368,209.498,-0.00843506,-0.0048684,0.00159354,5.50562e-05,-0.000717185,0.00266306,-1.0749e-07,-6.20895e-08,3.40896e-05,0.0015948103595657681,0.002666609094065908,-1.0748999423881855e-07,5.505771562042128e-05,-6.208949809849429e-08,-0.0007169278843081051
25,12.05,380.382,127.282,9.00101e-05,220.036,-0.136815,-0.0788923,0.00225633,-3.20569e-05,-0.0012468,0.0038891,-2.47677e-06,-1.44888e-06,0.000940203,0.002258877428120476,0.0038966723627813504,-2.476766932768548e-06,-3.205638618308804e-05,-1.4488789503719346e-06,-0.0012460230678066342
26,14.89,394.861,132.454,8.08129e-05,228.695,-0.242054,-0.139513,0.00291781,-0.000121417,-0.00178109,0.00511637,-5.12009e-06,-3.0079e-06,0.00186619,0.002922070950805322,0.005129480971645561,-5.120076892350944e-06,-0.00012140962925433207,-3.0078954762480237e-06,-0.001779504800473175
27,17.73,407.19,136.849,3.1386e-05,236.061,-0.328314,-0.189163,0.00357817,-0.000212266,-0.0023184,0.00634411,-7.96775e-06,-4.69594e-06,0.00280547,0.0035845792925073283,0.006364276489432941,-7.967718257617662e-06,-0.00021224347316650682,-4.695928974118857e-06,-0.002315714586408446
28,20.57,417.951,140.679,1.11964e-05,242.483,-0.400595,-0.230741,0.00423749,-0.000304129,-0.00285776,0.00757191,-1.09942e-05,-6.49599e-06,0.00375418,0.0042464808558180245,0.007600649402119464,-1.0994139563957894e-05,-0.0003040827574637417,-6.495968901121252e-06,-0.0028536804909023994
29,23.41,427.515,144.077,1.30652e-06,248.187,-0.462251,-0.266188,0.00489583,-0.000396716,-0.00339856,0.00879951,-1.41761e-05,-8.3929e-06,0.00470983,0.0049078341578046025,0.008838339498072667,-1.4175999519583371e-05,-0.0003966373186128358,-8.392864779716014e-06,-0.0033927914317554153
30,26.25,436.136,147.135,-4.85749e-06,253.324,-0.515597,-0.296844,0.00555324,-0.000489831,-0.00394036,0.0100267,-1.74927e-05,-1.03735e-05,0.00567076,0.005568687819159868,0.010077135783659763,-1.74925470035614e-05,-0.0004897110523811588,-1.037344619547742e-05,-0.0039326069681236975
31,29.09,443.994,149.918,-9.63937e-06,258.002,-0.562293,-0.323668,0.00620976,-0.000583341,-0.00448289,0.0112534,-2.09262e-05,-1.24264e-05,0.00663575,0.00622908053087845,0.011316957695422403,-2.092598104863619e-05,-0.0005831708897179322,-1.242632279263578e-05,-0.0044728568467304886
32,31.93,451.219,152.473,-1.39695e-05,262.301,-0.60356,-0.347366,0.00686543,-0.000677152,-0.00502591,0.0124794,-2.44612e-05,-1.4542e-05,0.00760394,0.006889051089914666,0.012557592639379944,-2.4460900827305565e-05,-0.0006769227843252956,-1.4541894265640565e-05,-0.005013301246666546
33,34.77,457.912,154.837,-1.8241e-05,266.28,-0.64032,-0.36847,0.00752026,-0.000771193,-0.00556926,0.0137046,-2.80845e-05,-1.67122e-05,0.00857465,0.007548608172553983,0.013798938495069413,-2.8084105634151868e-05,-0.0007708957071066447,-1.6712060351919966e-05,-0.005553780421457266
34,37.61,464.15,157.037,-2.26237e-05,269.986,-0.673284,-0.38739,0.00817428,-0.000865409,-0.00611281,0.0149291,-3.17847e-05,-1.89297e-05,0.00954738,0.008207780645764995,0.01504109565076761,-3.178419487182005e-05,-0.0008650346416301247,-1.892952083437649e-05,-0.006094164787843415
35,40.45,469.996,159.096,-2.71882e-05,273.456,-0.703011,-0.404449,0.0088275,-0.000959762,-0.00665647,0.0161528,-3.55521e-05,-2.11885e-05,0.0105217,0.00886657727838136,0.01628396173203428,-3.555146803158049e-05,-0.0009593015757627388,-2.118827552533009e-05,-0.0066343647783460025
36,43.29,475.499,161.031,-3.19593e-05,276.721,-0.729947,-0.419903,0.00947995,-0.00105422,-0.00720014,0.0173755,-3.9378e-05,-2.34834e-05,0.0114973,0.009525027056147106,0.017527332111622718,-3.937722469671279e-05,-0.0010536645053175198,-2.348312426714294e-05,-0.0071742810917970745
37,46.13,480.7,162.859,-3.69399e-05,279.805,-0.754452,-0.433961,0.0101316,-0.00114875,-0.00774377,0.0185974,-4.32548e-05,-2.58096e-05,0.0124739,0.01018309843284726,0.01877140867251681,-4.325386452463942e-05,-0.0011480904392996427,-2.5809266935183928e-05,-0.007713864257280156
38,48.97,485.631,164.589,-4.21223e-05,282.727,-0.776824,-0.446794,0.0107826,-0.00124334,-0.00828729,0.0198183,-4.71761e-05,-2.81632e-05,0.0134514,0.010840941734688858,0.02001598628317036,-4.717498722528468e-05,-0.0012425673730679376,-2.8162803420772597e-05,-0.008253045076726084
39,51.81,490.322,166.234,-4.7494e-05,285.505,-0.797306,-0.458541,0.0114328,-0.00133797,-0.00883067,0.0210382,-5.1136e-05,-3.05405e-05,0.0144294,0.011498404232900494,0.02126106306501474,-5.113469257700398e-05,-0.0013370753172035066,-3.054003364366675e-05,-0.008791794151100318
40,54.65,494.797,167.8,-5.30403e-05,288.154,-0.816104,-0.469323,0.0120823,-0.00143262,-0.00937386,0.0222571,-5.51293e-05,-3.29383e-05,0.0154078,0.012155585843074856,0.0225066371356879,-5.512778040805966e-05,-0.0014315942898438516,-3.293775754009687e-05,-0.009330062332253752
41,57.49,499.075,169.297,-5.87463e-05,290.684,-0.833393,-0.479238,0.012731,-0.00152729,-0.00991683,0.023475,-5.91514e-05,-3.53539e-05,0.0163866,0.012812384181119851,0.02375270660903861,-5.914965059039545e-05,-0.0015261242861643876,-3.535327505821417e-05,-0.00986782038185341
42,60.33,503.175,170.729,-6.45971e-05,293.108,-0.849319,-0.488371,0.0133791,-0.00162196,-0.0104596,0.0246919,-6.3198e-05,-3.77847e-05,0.0173655,0.013469000640888185,0.024999269595129325,-6.319600304849349e-05,-0.001620645333753834,-3.778398616716139e-05,-0.010405088605258128
43,63.17,507.111,172.103,-7.05783e-05,295.434,-0.86401,-0.496796,0.0140264,-0.00171663,-0.011002,0.0259077,-6.72655e-05,-4.02283e-05,0.0183445,0.014125231491204593,0.02624622157561185,-6.726323772698883e-05,-0.0017151574334594022,-4.0227490852751124e-05,-0.010941699343210654
44,66.01,510.898,173.423,-7.66764e-05,297.671,-0.877575,-0.504575,0.0146731,-0.00181128,-0.0115442,0.0271225,-7.13505e-05,-4.26828e-05,0.0193236,0.014781278388309671,0.027493663028111737,-7.134795461360977e-05,-0.0018096406223206962,-4.268188910228066e-05,-0.011477821398003685
45,68.85,514.547,174.694,-8.28785e-05,299.824,-0.890109,-0.511763,0.015319,-0.00190592,-0.012086,0.0283363,-7.54499e-05,-4.51463e-05,0.0203026,0.015436937338284107,0.028741592051203746,-7.544705372786176e-05,-0.0019041048878126743,-4.514528092114389e-05,-0.012013257651591114
46,71.69,518.068,175.919,-8.91726e-05,301.902,-0.901694,-0.518408,0.0159643,-0.00200054,-0.0126275,0.0295489,-7.95609e-05,-4.7617e-05,0.0212814,0.016092410259541223,0.029989800741707207,-7.955773511547637e-05,-0.0019985402536008,-4.7615866328620804e-05,-0.012548107648866935
47,74.53,521.471,177.102,-9.55473e-05,303.908,-0.912405,-0.524552,0.0166089,-0.00209512,-0.0131687,0.0307605,-8.36809e-05,-5.00933e-05,0.02226,0.016747594570411417,0.031238492689113384,-8.367739885117853e-05,-0.002092926768054837,-5.0092045351557424e-05,-0.01308237202802598
48,77.37,524.763,178.246,-0.000101992,305.849,-0.922306,-0.530231,0.0172528,-0.00218968,-0.0137095,0.031971,-8.78076e-05,-5.2574e-05,0.0232384,0.01740248916724374,0.03248756273163411,-8.780374502548316e-05,-0.0021872843996004754,-5.257261801150381e-05,-0.013615952787991104
49,80.21,527.953,179.352,-0.000108497,307.728,-0.931453,-0.535479,0.0178961,-0.0022842,-0.01425,0.0331804,-9.19388e-05,-5.50576e-05,0.0242165,0.018057194751998074,0.03373700857761319,-9.193457375800129e-05,-0.0022815932003749095,-5.5056084358184876e-05,-0.014148949310223369
50,83.05,531.047,180.424,-0.000115052,309.549,-0.939897,-0.540324,0.0185386,-0.00237869,-0.0147901,0.0343887,-9.60725e-05,-5.75428e-05,0.0251942,0.01871150667482291,0.03498682793137964,-9.606788518512488e-05,-0.0023758631587792456,-5.7541144444783754e-05,-0.014681263698260394
51,85.89,534.051,181.464,-0.00012165,311.317,-0.947684,-0.544793,0.0191806,-0.00247313,-0.0153298,0.0355959,-0.000100207,-6.00287e-05,0.0261716,0.019365729445146806,0.036237018493253004,-0.0001002019794462683,-0.0024700743335406283,-6.00268983136365e-05,-0.01521289674616011
52,88.73,536.97,182.474,-0.00012828,313.034,-0.954855,-0.548908,0.0198218,-0.00256753,-0.0158691,0.036802,-0.00010434,-6.25141e-05,0.0271485,0.020019556345370226,0.0374875779595476,-0.0001043345567715015,-0.0025642367139894207,-6.251214603436583e-05,-0.015743849246734443
53,91.57,539.81,183.455,-0.000134936,314.703,-0.961445,-0.552692,0.0204625,-0.00266189,-0.016408,0.038007,-0.000108471,-6.49981e-05,0.028125,0.020673292277063382,0.03873850402257695,-0.00010846511723372476,-0.002658350312263691,-6.499598766929182e-05,-0.016274121991550983
54,94.41,542.575,184.409,-0.00014161,316.328,-0.967489,-0.556162,0.0211024,-0.0027562,-0.0169465,0.0392108,-0.000112597,-6.74798e-05,0.0291011,0.021326630129943958,0.03998969037168809,-0.00011259066119562178,-0.002752405168019334,-6.747752328950529e-05,-0.016803715770935757
55,97.25,545.269,185.338,-0.000148294,317.909,-0.973015,-0.559336,0.0217417,-0.00285046,-0.0174845,0.0404136,-0.000116718,-6.99583e-05,0.0300766,0.021979772999458858,0.041241342563995476,-0.00011671118871925401,-0.002846401296200951,-6.99558529752009e-05,-0.017332533107232262
56,100.1,547.895,186.243,-0.000154982,319.451,-0.978051,-0.56223,0.0223804,-0.00294468,-0.0180222,0.0416153,-0.000120832,-7.24328e-05,0.0310516,0.02263271997689431,0.04249335440600266,-0.00012082470010787993,-0.002940348682339944,-7.243017680802488e-05,-0.017860771374595186
57,102.9,550.458,187.125,-0.000161668,320.955,-0.982621,-0.564857,0.0230185,-0.00303884,-0.0185595,0.0428158,-0.000124937,-7.49025e-05,0.0320261,0.02328547015330651,0.043745619199512475,-0.0001249291956979537,-0.0030342273992288726,-7.489969487772807e-05,-0.018388333040002425
58,105.8,552.961,187.985,-0.000168344,322.422,-0.986748,-0.56723,0.0236559,-0.00313296,-0.0190963,0.0440152,-0.000129034,-7.73668e-05,0.033,0.023937920225730824,0.0449982387409551,-0.00012902567547146138,-0.003128057402036699,-7.736380726630632e-05,-0.018915120780347405
59,108.6,555.406,188.825,-0.000175006,323.855,-0.990453,-0.569362,0.0242926,-0.00322702,-0.0196327,0.0452135,-0.00013312,-7.9825e-05,0.0339733,0.02459006908909811,0.0462512106986559,-0.00013311113992586776,-0.003221818767291218,-7.982181406940292e-05,-0.019441233593489593
60,111.5,557.797,189.645,-0.000181647,325.255,-0.993753,-0.571262,0.0249288,-0.00332102,-0.0201686,0.0464107,-0.000137194,-8.22764e-05,0.034946,0.025242120686672642,0.047504532736978966,-0.00013718458933353883,-0.003315511512699154,-8.227301538976661e-05,-0.019966574258803105
61,114.3,560.135,190.447,-0.00018826,326.625,-0.996667,-0.572941,0.0255643,-0.00341498,-0.0207041,0.0476067,-0.000141256,-8.47205e-05,0.0359181,0.025893869125500846,0.048758097640518194,-0.000141246023840913,-0.0034091555877698854,-8.471691131972658e-05,-0.02049124166605143
62,117.1,562.424,191.23,-0.000194826,327.964,-0.99921,-0.574409,0.0261992,-0.00350888,-0.0212392,0.0488016,-0.000145305,-8.71566e-05,0.0368896,0.0265454159546632,0.05001200769075531,-0.00014529444373967415,-0.0035027310746222895,-8.715280197379993e-05,-0.021015236595289477
63,120.0,564.666,191.997,-0.000200207,329.275,-1.00139,-0.575687,0.0268335,-0.00360272,-0.0217739,0.0499954,-0.000149339,-8.95843e-05,0.0378605,0.02719676026401263,0.0512662605401033,-0.00014932784948651356,-0.003596237990925122,-8.958028744643354e-05,-0.021538559825348025
64,122.8,566.862,192.748,0.000154515,330.559,-1.00343,-0.577181,0.0274671,-0.00369651,-0.022308,0.0511881,-0.000153365,-9.20062e-05,0.0388307,0.02784779835840423,0.052520853837036974,-0.00015335324018950214,-0.0036896863174362693,-9.200196755931866e-05,-0.022061016546058188
65,125.7,569.012,193.484,-0.000214946,331.817,-1.00586,-0.578248,0.0281001,-0.00379023,-0.0228418,0.0523796,-0.000157388,-9.44164e-05,0.0398002,0.028498631981874967,0.053775679848526714,-0.00015737561515838383,-0.0037830561446561273,-9.441194291193167e-05,-0.02258290107205363
66,128.5,571.121,194.206,-0.000221833,333.051,-1.00812,-0.579554,0.0287325,-0.00388389,-0.0233751,0.0535701,-0.000161399,-9.68245e-05,0.040769,0.029149260223706674,0.05503094684480936,-0.0001613859758820002,-0.0038763574542490797,-9.681981265929895e-05,-0.023104018642560842
67,131.3,573.189,194.915,-0.000228815,334.261,-1.0104,-0.580873,0.0293643,-0.00397747,-0.0239079,0.0547594,-0.000165403,-9.92278e-05,0.0417372,0.029799682172974018,0.0562864415818527,-0.0001653893216778668,-0.003969570343219542,-9.922287708463706e-05,-0.02362437018746688
68,134.2,575.218,195.61,-0.000235829,335.449,-1.01271,-0.582204,0.0299955,-0.00407099,-0.0244403,0.0559476,-0.000169399,-0.000101626,0.0427047,0.03044989691854738,0.057542267069912834,-0.0001693846527994758,-0.004062714753500507,-0.00010162083625298024,-0.024144054220614275
69,137.0,577.209,196.293,-0.00024289,336.616,-1.01504,-0.583548,0.030626,-0.00416444,-0.0249722,0.0571348,-0.000173389,-0.000104021,0.0436715,0.03109980043910987,0.05879852681761233,-0.00017337396899597124,-0.004155780744230619,-0.00010401559000328131,-0.02466297397923023
70,139.9,579.164,196.965,-0.000249998,337.761,-1.01738,-0.584904,0.0312559,-0.00425782,-0.0255037,0.0583208,-0.000177371,-0.000106411,0.0446376,0.03174949480316469,0.0600550068157768,-0.00017735527069406842,-0.004248768335766484,-0.00010640533855033052,-0.025181227870388345
71,142.7,581.084,197.624,-0.000257153,338.886,-1.01975,-0.586272,0.0318852,-0.00435113,-0.0260347,0.0595057,-0.000181347,-0.000108797,0.0456029,0.03239897909904377,0.06131181043961509,-0.00018133055762670214,-0.004341677548446277,-0.00010879108182093589,-0.025698719232273404
72,145.5,582.971,198.273,-0.000264358,339.992,-1.02214,-0.587652,0.0325139,-0.00444436,-0.0265653,0.0606894,-0.000185316,-0.00011118,0.0465676,0.03304825241488407,0.06256882904932426,-0.00018529883005058423,-0.004434498446935109,-0.0001111738197328016,-0.02621554636548462
73,148.4,584.825,198.91,-0.000271612,341.08,-1.02456,-0.589045,0.0331419,-0.00453751,-0.0270954,0.0618721,-0.00018928,-0.000113559,0.0475315,0.033697210468901506,0.06382627264613805,-0.00018926208767089392,-0.004527231054316405,-0.00011355255242073703,-0.026731612708887242
74,151.2,586.648,199.538,-0.000278917,342.149,-1.02699,-0.590449,0.0337694,-0.00463059,-0.027625,0.0630537,-0.000193238,-0.000115934,0.0484947,0.03434605902341392,0.0650840327082034,-0.0001932193307401242,-0.004619885347452168,-0.00011592727991349694,-0.027246919181598384
75,154.1,588.441,200.155,-0.000286273,343.201,-1.02944,-0.591865,0.0343962,-0.0047236,-0.0281542,0.0642342,-0.00019719,-0.000118307,0.0494571,0.034994590361698164,0.06634210684096997,-0.00019717055932977345,-0.004712461346602526,-0.00011830000200285795,-0.027761563924957766
76,156.9,590.205,200.763,-0.000293681,344.237,-1.03191,-0.593293,0.0350224,-0.00481652,-0.0286829,0.0654136,-0.000201138,-0.000120676,0.0504188,0.03564290694091876,0.06760049264602119,-0.00020111777310860557,-0.004804939168108091,-0.00012066871894433895,-0.028275450528216672
77,159.7,591.94,201.361,-0.000301142,345.256,-1.03441,-0.594732,0.035648,-0.00490937,-0.0292112,0.0665919,-0.00020508,-0.000123042,0.0513798,0.03629100784832717,0.06885918772107957,-0.00020505897253420002,-0.004897338739789814,-0.0001230344306435427,-0.028788677026986176
78,162.6,593.649,201.951,-0.000308657,346.259,-1.03692,-0.596183,0.036273,-0.00500214,-0.029739,0.0677691,-0.000209018,-0.000125406,0.05234,0.03693889217099322,0.07011818966001226,-0.00020899615725966658,-0.004989650131744794,-0.00012539813699619096,-0.029301147110499692
79,165.4,595.331,202.531,-0.000316227,347.247,-1.03945,-0.597646,0.0368974,-0.00509483,-0.0302663,0.0689452,-0.000212952,-0.000127767,0.0532994,0.037586558995804875,0.07137749605283861,-0.00021292932733218972,-0.00508187336692234,-0.00012775883814442057,-0.02981286169022257
80,168.3,596.988,203.103,-0.000323852,348.221,-1.04201,-0.59912,0.0375212,-0.00518743,-0.0307932,0.0701202,-0.000216882,-0.000130125,0.0542581,0.038234007409471804,0.07263710448573435,-0.00021685848279917597,-0.005173998519987899,-0.00013011653410932578,-0.030323918643620384
81,171.1,598.62,203.667,-0.000331534,349.18,-1.04458,-0.600605,0.0381443,-0.00527996,-0.0313196,0.0712942,-0.000220807,-0.000132481,0.0552161,0.03888113261040749,0.0738971199307461,-0.0002207826239284394,-0.005266045511285289,-0.00013247222477974496,-0.030834221809269535
82,173.9,600.227,204.223,-0.000339272,350.126,-1.04717,-0.602102,0.0387669,-0.0053724,-0.0318456,0.072467,-0.000224729,-0.000134835,0.0561732,0.03952814139650607,0.07515732531299002,-0.00022470375032968004,-0.005357994468091931,-0.00013482591016988899,-0.03134386895964669
83,176.8,601.812,204.772,-0.000347069,351.058,-1.04978,-0.603609,0.0393888,-0.00546477,-0.032371,0.0736387,-0.000228648,-0.000137187,0.0571296,0.04017482501306846,0.07641782547086717,-0.00022862186203809198,-0.00544986530702285,-0.00013717759029374665,-0.0318526672178886
84,179.6,603.374,205.313,-0.000354924,351.977,-1.05242,-0.605128,0.0400102,-0.00555704,-0.032896,0.0748094,-0.000232563,-0.000139536,0.0580853,0.0408213905164283,0.07767872574311085,-0.00023253595932171134,-0.005541628214404182,-0.00013952626530511214,-0.032360811168140824
85,182.5,604.915,205.846,-0.000362839,352.884,-1.05507,-0.606658,0.0406309,-0.00564924,-0.0334206,0.075979,-0.000236476,-0.000141884,0.0590401,0.041467628892853714,0.07893991618113616,-0.00023644804175448897,-0.00563331304954684,-0.0001418739349412501,-0.03286830156023346
86,185.3,606.434,206.373,-0.000370814,353.778,-1.05774,-0.608199,0.041251,-0.00574135,-0.0339447,0.0771475,-0.000240385,-0.000144231,0.0599942,0.04211364324557976,0.08020139434827867,-0.00024035610984074474,-0.0057248999469826645,-0.000144220599209266,-0.0333750424803283
87,188.1,607.932,206.892,-0.00037885,354.661,-1.06043,-0.609751,0.0418705,-0.00583338,-0.0344683,0.078315,-0.000244292,-0.000146575,0.0609475,0.04275943266018811,0.08146326595039466,-0.0002442621631389974,-0.0058163988740527195,-0.00014656425840942067,-0.03388103482772897
88,191.0,609.41,207.405,-0.000386948,355.532,-1.06313,-0.611314,0.0424895,-0.00592532,-0.0349914,0.0794813,-0.000248196,-0.000148918,0.0619,0.043405100562604604,0.08272531237678704,-0.0002481652019207248,-0.0059077999125701774,-0.00014890691226498998,-0.03438627950014539
89,193.8,610.869,207.912,-0.000395108,356.391,-1.06586,-0.612888,0.0431078,-0.00601717,-0.0355141,0.0806466,-0.000252099,-0.00015126,0.0628518,0.044050437421613076,0.08398774759832417,-0.00025206722571713414,-0.00599910308798568,-0.0001512485607828573,-0.03489087390461476
90,196.7,612.309,208.412,-0.000403332,357.24,-1.06861,-0.614473,0.0437255,-0.00610894,-0.0360363,0.0818108,-0.000255999,-0.0001536,0.0638027,0.04469554659826569,0.08525046101693956,-0.00025596623505197424,-0.006090318364818326,-0.00015358820412392227,-0.03539472232398966
91,199.5,613.73,208.906,-0.00041162,358.078,-1.07137,-0.616068,0.0443427,-0.00620063,-0.0365581,0.0829739,-0.000259897,-0.00015594,0.0647529,0.045340531711557164,0.08651345017711343,-0.00025986322970028564,-0.006181445765727878,-0.00015592784199014442,-0.0358979220616521
92,202.3,615.133,209.394,-0.000419973,358.906,-1.07415,-0.617674,0.0449592,-0.00629223,-0.0370794,0.084136,-0.000263793,-0.000158278,0.0657023,0.04598518284265096,0.08777682139723231,-0.00026375820968571606,-0.006272475376076003,-0.00015826547469810492,-0.03640037749849312
93,205.2,616.519,209.877,-0.000428391,359.723,-1.07696,-0.61929,0.0455751,-0.00638374,-0.0376002,0.085297,-0.000267687,-0.000160615,0.0666509,0.0466296035457483,0.08904046368928409,-0.0002676511750316912,-0.00636340722120432,-0.00016060210210133707,-0.03690208952474017
94,208.0,617.887,210.353,-0.000436876,360.531,-1.07977,-0.620917,0.0461905,-0.00647516,-0.0381206,0.086457,-0.000271581,-0.000162951,0.0675987,0.04727389763272716,0.09030448361698307,-0.00027154412521845916,-0.0064542413264260245,-0.00016293772420683528,-0.03740315528873139
95,210.9,619.239,210.824,-0.000445428,361.329,-1.08261,-0.622555,0.0468052,-0.0065665,-0.0386405,0.0876158,-0.000275473,-0.000165286,0.0685457,0.04791785479755961,0.09156866077538073,-0.0002754350607969691,-0.006544987651575407,-0.00016527234102159394,-0.03790347931779603
96,213.7,620.575,211.29,-0.000454048,362.118,-1.08547,-0.624203,0.0474194,-0.00665775,-0.0391599,0.0887737,-0.000279363,-0.000167621,0.069492,0.04856168364357494,0.09283332016094614,-0.00027932398179053575,-0.00663563628554531,-0.00016760695238504653,-0.03840306249765524
97,216.5,621.894,211.751,-0.000462737,362.897,-1.08834,-0.625862,0.0480329,-0.00674891,-0.0396789,0.0899304,-0.000283253,-0.000169955,0.0704374,0.04920517360685328,0.09409813182518079,-0.0002832128876564255,-0.006726187253565774,-0.00016994055846708545,-0.038902001822264665
98,219.4,623.199,212.206,-0.000471495,363.668,-1.09124,-0.627531,0.0486459,-0.00683998,-0.0401974,0.0910861,-0.000287142,-0.000172289,0.0713821,0.049848533547949936,0.09536331197966441,-0.00028710077868143724,-0.006816640580837863,-0.00017227415910248123,-0.03940020196477134
99,222.2,624.488,212.656,-0.000480323,364.43,-1.09415,-0.62921,0.0492583,-0.00693097,-0.0407155,0.0922408,-0.00029103,-0.000174622,0.0723259,0.050491657694409,0.09662885851868541,-0.0002909876548775614,-0.006907006223464074,-0.00017460675446590024,-0.03989775981664212
100,225.1,625.762,213.102,-0.000489222,365.183,-1.09708,-0.6309,0.0498701,-0.00702186,-0.041233,0.0933944,-0.000294918,-0.000176955,0.073269,0.051134545129800424,0.09789465954352705,-0.00029487451596144076,-0.006997264343825971,-0.00017693934438733905,-0.04039448418742053
101,227.9,627.022,213.542,-0.000498193,365.928,-1.10002,-0.6326,0.0504813,-0.00711267,-0.0417502,0.0945469,-0.000298805,-0.000179287,0.0742112,0.051777194937558724,0.09916071256156567,-0.0002987603622320867,-0.00708743482799834,-0.00017927092904623798,-0.04089066383708073
102,230.7,628.268,213.978,-0.000507237,366.665,-1.10299,-0.634311,0.0510919,-0.00720339,-0.0422668,0.0956984,-0.000302692,-0.00018162,0.0751527,0.05241960620098696,0.10042712511917684,-0.0003026461933984814,-0.007177507770140146,-0.00018160350808615888,-0.041386011760757624
103,233.6,629.5,214.41,-0.000516354,367.395,-1.10597,-0.636031,0.0517019,-0.00729402,-0.042783,0.0968488,-0.000306579,-0.000183952,0.0760934,0.05306177800325673,0.10169378492694192,-0.000306532009460625,-0.007267483195312785,-0.00018393508186820284,-0.04188072060614845
104,236.4,630.719,214.837,-0.000525544,368.116,-1.10897,-0.637762,0.0523114,-0.00738456,-0.0432988,0.0979982,-0.000310465,-0.000186284,0.0770333,0.0537038147977873,0.10296079977728145,-0.000310416810729075,-0.0073573611285490115,-0.00018626665021292954,-0.042374791098725884
105,239.3,631.924,215.259,-0.00053481,368.83,-1.11199,-0.639502,0.0529203,-0.00747501,-0.043814,0.0991466,-0.000314352,-0.000188616,0.0779723,0.05434561042546693,0.10422816754303033,-0.00031430259658693505,-0.007447141594852158,-0.00018859821312056102,-0.04286803253644733
106,242.1,633.117,215.678,-0.000544151,369.536,-1.11502,-0.641253,0.0535285,-0.00756538,-0.0443289,0.100294,-0.000318239,-0.000190948,0.0789106,0.05498705847030516,0.10549588609351979,-0.00031818836734076594,-0.007536834543829252,-0.00019092977059087524,-0.04336073292989284
107,244.9,634.297,216.092,-0.000553568,370.235,-1.11808,-0.643014,0.0541362,-0.00765565,-0.0448432,0.10144,-0.000322126,-0.00019328,0.0798481,0.05562836894819001,0.10676351058908629,-0.0003220741229905677,-0.007626420150267821,-0.00019326132262409423,-0.043852606008942696
108,247.8,635.465,216.502,-0.000563062,370.927,-1.12115,-0.644785,0.0547434,-0.00774583,-0.0453571,0.102585,-0.000326014,-0.000195613,0.0807848,0.0562695411339913,0.10803148058300405,-0.0003259608632105726,-0.007715908364614443,-0.0001955938690244574,-0.0443438439203222
109,250.6,636.62,216.908,-0.000572634,371.612,-1.12423,-0.646566,0.0553499,-0.00783593,-0.0458706,0.10373,-0.000329902,-0.000197946,0.0817207,0.05691036292025231,0.10930090323405217,-0.00032984758831899885,-0.007805309133705696,-0.00019792640998306243,-0.0448344473832496
110,253.5,637.764,217.31,-0.000582284,372.291,-1.12734,-0.648357,0.0559559,-0.00792593,-0.0463835,0.104873,-0.000333791,-0.000200279,0.0826558,0.05755104470715655,0.11056955906513655,-0.0003337352979820851,-0.007894602637615433,-0.0002002589454999093,-0.04532422618067733
111,256.3,638.897,217.708,-0.000592014,372.962,-1.13046,-0.650158,0.0565612,-0.00801585,-0.0468961,0.106015,-0.00033768,-0.000202613,0.0835901,0.05819137413066722,0.11183855395975906,-0.0003376229925258212,-0.007983808744179699,-0.000202592475372243,-0.0458134675790538
112,259.1,640.018,218.103,-0.000601824,373.627,-1.1336,-0.651969,0.0571661,-0.00810567,-0.0474081,0.107156,-0.000341571,-0.000204947,0.0845236,0.058831667730154136,0.11310788576591269,-0.0003415126712674743,-0.008072907636987314,-0.00020492599979815562,-0.04630188603785834
113,262.0,641.127,218.494,-0.000611715,374.286,-1.13676,-0.65379,0.0577703,-0.0081954,-0.0479197,0.108296,-0.000345462,-0.000207282,0.0854563,0.05947160713002142,0.11437755232812119,-0.00034540233487434513,-0.008161909261867328,-0.00020726051857045125,-0.04678967320636451
114,264.8,642.226,218.881,-0.000621687,374.939,-1.13993,-0.65562,0.0583739,-0.00828505,-0.0484309,0.109435,-0.000349355,-0.000209617,0.0863882,0.060111297231136174,0.11564755148744488,-0.00034929398264793576,-0.008250823561058884,-0.00020959503189155182,-0.04727682979758796
115,267.7,643.315,219.265,-0.000631742,375.585,-1.14312,-0.657461,0.058977,-0.0083746,-0.0489416,0.110573,-0.000353248,-0.000211953,0.0873193,0.06075084319019486,0.11691788108148193,-0.000353185615271423,-0.008339630723409042,-0.00021193053954970953,-0.04776326129975361
116,270.5,644.393,219.645,-0.000641879,376.225,-1.14633,-0.659311,0.0595795,-0.00846407,-0.0494518,0.11171,-0.000357143,-0.00021429,0.0882496,0.06139013814148209,0.11818853894437775,-0.0003570792320304328,-0.008428350607705304,-0.00021426704153781895,-0.0482489685693781
117,273.3,645.46,220.022,-0.000652101,376.859,-1.14955,-0.661171,0.0601815,-0.00855344,-0.0499616,0.112846,-0.00036104,-0.000216628,0.0891792,0.06202928736925828,0.11945952290682582,-0.00036097483290220556,-0.00851696340628938,-0.0002166045378489967,-0.048734047588053775
118,276.2,646.518,220.395,-0.000662407,377.488,-1.15279,-0.66304,0.0607829,-0.00864273,-0.0504709,0.113981,-0.000364937,-0.000218966,0.0901079,0.06266818387960638,0.12073083079607505,-0.00036487041859267766,-0.008605488974343878,-0.00021894202869499058,-0.049218403985790915
119,279.0,647.566,220.765,-0.000672799,378.111,-1.15605,-0.66492,0.0613837,-0.00873192,-0.0509798,0.115115,-0.000368837,-0.000221306,0.0910358,0.06330682675359012,0.12200246043593155,-0.0003687689879957601,-0.008693907507699272,-0.00022128151363343118,-0.049702133644551116
120,281.9,648.604,221.132,-0.000683277,378.728,-1.15933,-0.666809,0.0619839,-0.00882102,-0.0514882,0.116248,-0.000372738,-0.000223646,0.0919629,0.06394521507217776,0.12327440964676817,-0.00037266854182183007,-0.00878222894576186,-0.0002236209930975841,-0.05018514228860527
121,284.0,649.382,221.408,-0.000694574,379.191,-1.16182,-0.668243,0.062437,-0.00888828,-0.0518721,0.117103,-0.000375685,-0.000225415,0.0926629,0.06442739787939256,0.12423521995489128,-0.0003756144392269567,-0.008848896011004359,-0.00022538959594764485,-0.050549706229954694
