,Time,S11,S22,S33,S12,S13,S23,LE11,LE22,LE33,LE12,LE13,LE23,SDV_EPBAR,E11,E12,E13,E22,E23,E33
0,0.0002895,0.00103873,0.00103873,-7.79048e-12,0.00103873,1.16838e-20,-1.40206e-19,3.50028e-09,3.50028e-09,-3.00057e-09,1.29994e-08,2.92329e-25,-2.04706e-24,0.0,3.500280065793504e-09,1.2999400000879291e-08,0.0,3.500280065793504e-09,0.0,-3.0005700146773506e-09
1,0.000579,0.00207746,0.00207746,1.0842e-19,0.00207746,-2.92095e-20,-1.75257e-20,7e-09,7e-09,-6e-09,2.6e-08,8.85256e-33,8.85256e-33,0.0,7.000000135093387e-09,2.6000000374892807e-08,0.0,7.000000135093387e-09,0.0,-5.999999941330714e-09
2,0.0010132,0.00363556,0.00363556,3.25261e-19,0.00363556,-1.75257e-20,-5.25772e-20,1.22503e-08,1.22503e-08,-1.05005e-08,4.54995e-08,1.99601e-32,1.99601e-32,0.0,1.2250300107652379e-08,4.549950105570133e-08,0.0,1.2250300107652379e-08,0.0,-1.0500499914023464e-08
3,0.0016646,0.0059727,0.0059727,7.58942e-19,0.0059727,-4.08934e-20,-7.59448e-20,2.01253e-08,2.01253e-08,-1.72507e-08,7.47493e-08,-1.75478e-24,5.84952e-25,0.0,2.0125300093098986e-08,7.474930274753433e-08,0.0,2.0125300093098986e-08,0.0,-1.725069986857619e-08
4,0.0026417,0.00947841,0.00947841,-1.40946e-18,0.00947841,-1.75257e-20,-9.93124e-20,3.19379e-08,3.19379e-08,-2.73759e-08,1.18624e-07,-2.02125e-28,-4.67905e-24,0.0,3.1937900546452624e-08,1.1862400706164067e-07,0.0,3.1937900546452624e-08,0.0,-2.737589965828846e-08
5,0.0041073,0.014737,0.014737,3.25261e-19,0.014737,-1.57732e-19,-1.46048e-19,4.9657e-08,4.9657e-08,-4.2564e-08,1.84436e-07,-7.01885e-24,2.33955e-24,0.0,4.965700117764982e-08,1.8443601690343314e-07,0.0,4.965700117764982e-08,0.0,-4.256399910307351e-08
6,0.0063057,0.0226248,0.0226248,-5.74627e-18,0.0226248,-3.91408e-19,-1.92783e-19,7.62344e-08,7.62344e-08,-6.53437e-08,2.83156e-07,-4.67924e-24,-4.67924e-24,0.0,7.62344030125206e-08,2.831560401705957e-07,0.0,7.62344030125206e-08,0.0,-6.534369789701344e-08
7,0.0096033,0.0344566,0.0344566,6.39679e-18,0.0344566,-3.91408e-19,-5.66665e-19,1.16102e-07,1.16102e-07,-9.95172e-08,4.31233e-07,-4.67931e-24,-1.40377e-23,0.0,1.1610200667533377e-07,4.312330930122954e-07,0.0,1.1610200667533377e-07,0.0,-9.951719504019962e-08
8,0.01455,0.0522043,0.0522043,2.92735e-18,0.0522043,-3.91408e-19,-3.79724e-19,1.75905e-07,1.75905e-07,-1.50778e-07,6.53347e-07,3.15274e-30,3.15274e-30,0.0,1.7590501544262338e-07,6.533472134417906e-07,0.0,1.7590501544262338e-07,0.0,-1.5077798865004155e-07
9,0.021969,0.0788258,0.0788258,9.86624e-18,0.0788258,-9.5223e-19,-1.31443e-18,2.65605e-07,2.65605e-07,-2.27663e-07,9.86524e-07,-1.87167e-23,-2.51715e-28,0.0,2.6560503529893253e-07,9.865244865459033e-07,0.0,2.6560503529893253e-07,0.0,-2.276629741393421e-07
10,0.033099,0.118758,0.118758,9.86624e-18,0.118758,-1.32611e-18,-5.66664e-19,4.00157e-07,4.00157e-07,-3.42994e-07,1.48629e-06,1.76041e-29,1.76041e-29,0.0,4.0015708013818596e-07,1.4862911046353844e-06,0.0,4.0015708013818596e-07,0.0,-3.4299394113812554e-07
11,0.049793,0.178656,0.178656,-1.09504e-17,0.178656,-2.44776e-18,-1.68831e-18,6.01985e-07,6.01985e-07,-5.1599e-07,2.23593e-06,3.74338e-23,-3.74336e-23,0.0,6.019851812588684e-07,2.2359324995946395e-06,0.0,6.019851812588684e-07,0.0,-5.159898668338769e-07
12,0.074834,0.268504,0.268504,-3.8706e-17,0.268504,-6.18657e-18,-2.43607e-18,9.04725e-07,9.04725e-07,-7.75482e-07,3.3604e-06,-1.87168e-23,-1.87168e-23,0.0,9.047254092564572e-07,3.3604056461911114e-06,0.0,9.047254092564572e-07,0.0,-7.754816992999736e-07
13,0.1124,0.403275,0.403275,3.06829e-17,0.403275,-9.52219e-19,-4.67936e-18,1.35884e-06,1.35884e-06,-1.16472e-06,5.04709e-06,7.48679e-23,-7.48674e-23,0.0,1.3588409231157783e-06,5.04710273663278e-06,0.0,1.3588409231157783e-06,0.0,-1.1647193217667606e-06
14,0.1687,0.605431,0.605431,2.92735e-18,0.605431,-5.43879e-18,-9.16592e-18,2.04e-06,2.04e-06,-1.74858e-06,7.57713e-06,8.13419e-28,-1.49735e-22,0.0,2.04000208081645e-06,7.5771587064732415e-06,0.0,2.04000208081645e-06,0.0,-1.748578471238993e-06
15,0.2533,0.908664,0.908664,-5.25838e-17,0.908664,-2.48806e-17,-1.36524e-17,3.06175e-06,3.06175e-06,-2.62436e-06,1.13722e-05,-4.49205e-22,1.49737e-22,0.0,3.061754687117002e-06,1.1372264663744858e-05,0.0,3.061754687117002e-06,0.0,-2.624356556402141e-06
16,0.38,1.36351,1.36351,5.02528e-16,1.36351,-2.48804e-17,-2.56165e-17,4.59436e-06,4.59436e-06,-3.93804e-06,1.70647e-05,-5.98942e-22,7.28744e-27,0.0,4.594370554000804e-06,1.7064845602821066e-05,0.0,4.594370554000804e-06,0.0,-3.938032245964784e-06
17,0.5702,2.04578,2.04578,5.02528e-16,2.04578,-4.28265e-17,-3.15983e-17,6.89327e-06,6.89327e-06,-5.90853e-06,2.56035e-05,8.98431e-22,-1.49735e-21,0.0,6.893293758691854e-06,2.560382777239134e-05,0.0,6.893293758691854e-06,0.0,-5.908512544672284e-06
18,0.8554,3.06918,3.06918,3.91505e-16,3.06918,-6.07721e-17,-4.95439e-17,1.03416e-05,1.03416e-05,-8.86425e-06,3.84116e-05,-1.19787e-21,2.48958e-26,0.0,1.0341653474466028e-05,3.841233773504982e-05,0.0,1.0341653474466028e-05,0.0,-8.864210712666853e-06
19,1.283,4.60425,4.60425,-1.16281e-15,4.60425,-6.07715e-17,-1.68644e-18,1.5514e-05,1.5514e-05,-1.32978e-05,5.76235e-05,2.99498e-22,-8.98403e-22,0.0,1.551412034261901e-05,5.762516026575071e-05,0.0,1.551412034261901e-05,0.0,-1.3297711584647764e-05
20,1.925,6.90682,6.90682,-4.49348e-15,6.90682,-1.44518e-16,-6.15046e-17,2.32725e-05,2.32725e-05,-1.99479e-05,8.64408e-05,-2.39571e-21,-2.39571e-21,0.0,2.327277080671486e-05,8.644453611372782e-05,0.0,2.327277080671486e-05,0.0,-1.994770104196686e-05
21,2.888,10.3606,10.3606,-2.98066e-14,10.3606,-2.16295e-16,-1.81138e-16,3.491e-05,3.491e-05,-2.99229e-05,0.000129666,-2.39552e-21,-4.79136e-21,0.0,3.491060936111623e-05,0.00012967440699918065,0.0,3.491060936111623e-05,0.0,-2.992245231447921e-05
22,4.332,62.3858,62.3858,-1.03267e-09,62.3858,-1.36348e-15,-2.85975e-15,0.000210209,0.000210209,-0.000180179,0.000780776,-1.9149e-20,-1.9149e-20,0.0,0.00021023109546014496,0.0007810808849249007,0.0,0.00021023109546014496,0.0,-0.00018016276873877857
23,6.498,140.732,140.732,-9.04826e-07,140.732,-3.27344e-15,-5.53541e-15,0.000474195,0.000474195,-0.000406453,0.0017613,-3.82507e-20,-7.65986e-20,0.0,0.0004743074482225218,0.001762851999890458,0.0,0.0004743074482225218,0.0,-0.00040637040916957634
24,9.393,243.301,243.292,5.20343e-05,243.297,0.000509547,0.000509448,0.000825093,0.000825154,-0.000713346,0.00307387,6.44797e-09,6.44986e-09,2.02781e-05,0.0008254334828663445,0.0030785991827779746,6.4479699357633535e-09,0.0008254945332195618,6.449859979440475e-09,-0.0007130916292306111
25,12.29,255.454,255.345,0.0860219,255.469,0.0134109,0.0133806,0.00110304,0.00110755,-0.00122692,0.00452594,2.43054e-07,2.46038e-07,0.000930792,0.0011036485723601164,0.004536197535600417,2.430540295694783e-07,0.0011081635599965445,2.4603803017164694e-07,-0.001226167641382836
26,15.18,265.469,265.292,0.000146264,265.381,0.0247309,0.0246902,0.00137946,0.00138854,-0.00174606,0.00597891,5.20987e-07,5.30027e-07,0.00186181,0.0013804118925946351,0.005996819357415362,5.20987135654849e-07,0.0013895044680150015,5.300271403996248e-07,-0.0017445365240605915
27,18.08,273.964,273.725,-1.16502e-06,273.845,0.0335669,0.0334998,0.00165425,0.00166785,-0.00226757,0.00743317,8.1336e-07,8.30258e-07,0.00280643,0.0016556190263312676,0.007460864585118188,8.133603308646542e-07,0.0016692416353834005,8.302583447417078e-07,-0.002265001005306022
28,20.97,281.37,281.077,6.74863e-06,281.224,0.0409672,0.0408734,0.00192794,0.00194605,-0.00279103,0.00888764,1.1242e-06,1.15053e-06,0.00376071,0.0019297996712412946,0.008927252338819525,1.1242006319189812e-06,0.0019479447842167819,1.1505306618531108e-06,-0.002787138696859315
29,23.87,287.946,287.608,3.07992e-06,287.777,0.0472811,0.0471614,0.00220072,0.00222333,-0.00331585,0.0103419,1.45116e-06,1.48819e-06,0.00472211,0.002203143361646509,0.010395562278238124,1.451161052878902e-06,0.002225803430889295,1.4881911074571263e-06,-0.0033103586405734964
30,26.76,293.869,293.49,1.35449e-06,293.679,0.0527474,0.0526029,0.00247273,0.00249982,-0.00384163,0.0117958,1.79212e-06,1.84091e-06,0.00568889,0.002475789718259236,0.011865644803768172,1.7921216057814604e-06,0.0025029471552484583,1.8409116944173576e-06,-0.0038342603796100994
31,29.66,299.262,298.847,4.90832e-07,299.054,0.057537,0.0573689,0.00274408,0.00277562,-0.00436808,0.0132489,2.14526e-06,2.20669e-06,0.00665985,0.0027478484336962428,0.013337055566815526,2.14526230113421e-06,0.0027794755995933507,2.206692434780777e-06,-0.004358553813985089
32,32.55,304.218,303.771,3.02291e-08,303.994,0.0617753,0.0615852,0.00301484,0.0030508,-0.004895,0.0147013,2.50903e-06,2.58383e-06,0.00763407,0.003019389200668021,0.014809895623861369,2.509033147690687e-06,0.0030554584264244067,2.5838333381766887e-06,-0.004883039011804202
33,35.45,308.806,308.329,-2.31759e-07,308.568,0.065557,0.0653464,0.00328505,0.00332542,-0.00542222,0.0161528,2.88207e-06,2.97087e-06,0.00861088,0.003290451690072249,0.01628396173203428,2.882074153109926e-06,0.0033309553431677408,2.9708744131440312e-06,-0.0054075462984611855
34,38.34,313.08,312.577,-3.92905e-07,312.828,0.0689551,0.0687252,0.00355477,0.00359951,-0.00594962,0.0176034,3.26324e-06,3.36659e-06,0.00958975,0.0035610956881111377,0.017759253016994325,3.26324532440303e-06,0.0036059960159449123,3.3665956669093333e-06,-0.005931956059533894
35,41.24,317.082,316.555,-5.02412e-07,316.819,0.0720266,0.0717788,0.00382401,0.00387312,-0.00647711,0.0190529,3.65154e-06,3.76989e-06,0.0105703,0.0038313308549395853,0.01923556475268895,3.65154666681633e-06,0.0038806302221341404,3.7698971060429187e-06,-0.0064561787387662495
36,44.13,320.848,320.299,-5.86002e-07,320.574,0.0748172,0.0745527,0.00409282,0.00414627,-0.00700461,0.0205013,4.04609e-06,4.17986e-06,0.0115521,0.004101207026068643,0.020712895169094914,4.0460981853840394e-06,0.004154877669919177,4.17986873557652e-06,-0.006980134898894819
37,47.03,324.405,323.835,-6.57487e-07,324.12,0.0773637,0.0770836,0.00436121,0.00441898,-0.00753206,0.0219486,4.44615e-06,4.59569e-06,0.012535,0.004370733916565284,0.022191242490256835,4.446159884041734e-06,0.004428758089875862,4.595700560106053e-06,-0.007503765120222661
38,49.92,327.777,327.188,-7.244e-07,327.482,0.0796962,0.0794017,0.0046292,0.00469128,-0.00805939,0.0233947,4.85105e-06,5.01667e-06,0.0135186,0.0046399312990399455,0.023670502567234353,4.851061766286691e-06,0.0047023012819191745,5.016682583569576e-06,-0.008027000188862599
39,52.82,330.983,330.375,-7.90856e-07,330.679,0.0818398,0.0815318,0.00489681,0.00496317,-0.00858658,0.0248397,5.2602e-06,5.44217e-06,0.0145029,0.00490881896796469,0.025150775683199678,5.260213834956673e-06,0.0049755069298735854,5.442184808579498e-06,-0.00854982060967513
40,55.71,334.04,333.415,-8.59064e-07,333.727,0.0838153,0.0834949,0.00516404,0.00523467,-0.00911358,0.0262834,5.67308e-06,5.87164e-06,0.0154877,0.005177396636064202,0.02663185471770735,5.673096092007057e-06,0.005248394822860103,5.871657238198935e-06,-0.009072177201162712
41,58.61,336.961,336.321,-9.30157e-07,336.641,0.0856405,0.0853086,0.00543092,0.0055058,-0.00964036,0.027726,6.08923e-06,6.30459e-06,0.0164728,0.005445694179710081,0.028113942604285347,6.089248539398184e-06,0.005520984772134918,6.304609873941658e-06,-0.00959404069396319
42,61.5,339.759,339.104,-1.00465e-06,339.432,0.0873303,0.0869877,0.00569744,0.00577656,-0.0101669,0.0291672,6.50823e-06,6.74058e-06,0.017458,0.005713701279162597,0.02959672865734353,6.5082511786496156e-06,0.005793276495162036,6.7406027177696615e-06,-0.010115391779630722
43,64.4,342.445,341.776,-1.08269e-06,342.111,0.0888977,0.0885451,0.00596361,0.00604697,-0.0106932,0.0306073,6.9297e-06,7.17921e-06,0.0184434,0.005981427723825483,0.031080519053122924,6.929724010396043e-06,0.006065289830964549,7.179235770538028e-06,-0.010636230978079753
44,67.29,345.028,344.346,-1.16425e-06,344.687,0.0903537,0.0899919,0.00622946,0.00631703,-0.0112191,0.032046,7.35332e-06,7.62013e-06,0.0194288,0.00624890343902007,0.0325650022027828,7.353347035721214e-06,0.006337024513819012,7.620159033328022e-06,-0.011156400593619331
45,70.19,347.516,346.821,-1.24916e-06,347.168,0.0917079,0.0913376,0.00649497,0.00658674,-0.0117448,0.0334835,7.77878e-06,8.06302e-06,0.0204142,0.006516108056551229,0.034050381754218595,7.778810254821522e-06,0.006608480278222251,8.063052506335211e-06,-0.011676099059116818
46,73.08,349.916,349.209,-1.33721e-06,349.562,0.0929689,0.0925908,0.00676016,0.00685612,-0.0122702,0.0349197,8.2058e-06,8.50757e-06,0.0213994,0.0067830614583686,0.03553655187580196,8.2058336676738e-06,0.0068796769964853954,8.507606189533945e-06,-0.012195228049543538
47,75.98,352.234,351.516,-1.42817e-06,351.875,0.094144,0.0937587,0.00702503,0.00712517,-0.0127952,0.0363546,8.63412e-06,8.95353e-06,0.0223844,0.0070497634069706105,0.03702350983694824,8.634157274034493e-06,0.0071506144198039134,8.95357008290354e-06,-0.012713689446792409
48,78.87,354.477,353.748,-1.52179e-06,354.113,0.0952398,0.0948479,0.00728958,0.00739389,-0.0133198,0.0377882,9.06352e-06,9.40066e-06,0.0233691,0.007316213665033766,0.038511252900075954,9.063561073885396e-06,0.00742129229956201,9.400704186424136e-06,-0.013231484015917894
49,81.77,356.649,355.91,-1.61782e-06,356.28,0.096262,0.0958641,0.00755383,0.0076623,-0.0138441,0.0392205,9.49378e-06,9.84872e-06,0.0243536,0.007582432147062557,0.03999977832061097,9.493825066098083e-06,0.007691730541169006,9.84876849874361e-06,-0.013748711145908032
50,84.66,358.755,358.006,-1.71603e-06,358.381,0.0972159,0.0968124,0.00781777,0.00793039,-0.0143681,0.0406515,9.92471e-06,1.02975e-05,0.0253377,0.007848408553565722,0.0414890833469892,9.9247592499907e-06,0.007961918832980919,1.0297553019400496e-05,-0.014265371444447505
51,87.56,360.799,360.041,-1.8162e-06,360.42,0.098106,0.0976974,0.0080814,0.00819817,-0.0148916,0.0420812,1.03561e-05,1.07468e-05,0.0263215,0.008114142655714307,0.04297916522066192,1.0356153624657694e-05,0.008231867017355343,1.074685774704598e-05,-0.014781268474666764
52,90.45,362.784,362.018,-1.91811e-06,362.401,0.0989364,0.0985232,0.00834474,0.00846564,-0.0154148,0.0435096,1.07879e-05,1.11965e-05,0.0273048,0.008379654392437264,0.04447002117610044,1.0787958189650837e-05,0.00850157486259695,1.1196562681003996e-05,-0.015296600092494117
53,93.35,364.715,363.941,-2.02158e-06,364.328,0.0997109,0.0992936,0.00860778,0.0087328,-0.0159376,0.0449366,1.12197e-05,1.16464e-05,0.0282877,0.008644933464702742,0.04596154384464035,1.1219762941161449e-05,0.00877104213717339,1.1646467819481643e-05,-0.015811268483925667
54,96.24,366.595,365.812,-2.12642e-06,366.203,0.100433,0.100012,0.00887053,0.00899967,-0.01646,0.0463624,1.16517e-05,1.20964e-05,0.0292701,0.00890998974121393,0.04745393948988408,1.1651767881426522e-05,0.009040288790517659,1.209647316180451e-05,-0.01632527440723297
55,99.14,368.425,367.635,-2.23245e-06,368.03,0.101105,0.100681,0.00913299,0.00926623,-0.016982,0.0477868,1.20835e-05,1.25462e-05,0.030252,0.009174823009670874,0.048946995983688346,1.2083573005750026e-05,0.009309294421375292,1.2546278703950975e-05,-0.016838618619496648
56,102.0,370.209,369.412,-2.33953e-06,369.811,0.101731,0.101303,0.00939516,0.0095325,-0.0175036,0.0492099,1.2515e-05,1.29959e-05,0.0312334,0.00943943305791195,0.05044081512857668,1.2515078313013461e-05,0.009578078990246208,1.2995984447039532e-05,-0.017351301876607717
57,104.9,371.95,371.146,-2.4475e-06,371.548,0.102312,0.101882,0.00965704,0.00979848,-0.0180247,0.0506317,1.29462e-05,1.34452e-05,0.0322143,0.00970381967391365,0.0519353941239582,1.294628380232865e-05,0.009846642282344886,1.3445290387048559e-05,-0.017863226719597614
58,107.8,373.649,372.838,-2.55622e-06,373.244,0.102851,0.102419,0.00991863,0.0100642,-0.0185455,0.0520521,1.33769e-05,1.3894e-05,0.0331946,0.009967982645791684,0.05343062481922156,1.3376989471236556e-05,0.010115014386471,1.3894096521971377e-05,-0.018374590380466516
59,110.7,375.309,374.492,-2.66557e-06,374.9,0.10335,0.102916,0.0101799,0.0103296,-0.0190658,0.0534713,1.38071e-05,1.43422e-05,0.0341743,0.0102318914548436,0.05492671493640211,1.3807195318404908e-05,0.010383134489253099,1.4342302849801314e-05,-0.018885197235199436
60,113.6,376.93,376.108,-2.77542e-06,376.519,0.103812,0.103376,0.010441,0.0105947,-0.0195857,0.0548891,1.42366e-05,1.47898e-05,0.0351534,0.010495697440075169,0.056423450818182896,1.423670134093058e-05,0.010651022565201895,1.478990936965019e-05,-0.019395146248424422
61,116.5,378.517,377.688,-2.88566e-06,378.102,0.104237,0.1038,0.0107017,0.0108595,-0.0201052,0.0563055,1.46653e-05,1.52366e-05,0.0361319,0.010759168010294307,0.057920829186947076,1.4665407536140762e-05,0.010918678392044523,1.5236716077504653e-05,-0.019904438169917715
62,119.4,380.068,379.234,-2.99619e-06,379.651,0.104627,0.104189,0.0109622,0.011124,-0.0206243,0.0577207,1.50932e-05,1.56826e-05,0.0371098,0.011022505071724087,0.05941905864152108,1.5093313902925232e-05,0.011186101747658883,1.568272297269857e-05,-0.020413073748277943
63,122.3,381.588,380.748,-3.1069e-06,381.168,0.104984,0.104546,0.0112224,0.0113883,-0.0211429,0.0591345,1.55201e-05,1.61276e-05,0.038087,0.011285607355666416,0.06091792460531331,1.5520220437270638e-05,0.01145339355540731,1.6127730050330413e-05,-0.02092095582302722
64,125.2,383.076,382.232,-3.2177e-06,382.654,0.10531,0.104871,0.0114823,0.0116523,-0.0216611,0.060547,1.5946e-05,1.65715e-05,0.0390636,0.011548474643142459,0.062417530020814294,1.5946127138066757e-05,0.01172045250153575,1.657163730817146e-05,-0.02142818314976891
65,128.1,384.534,383.685,-3.3285e-06,384.109,0.105605,0.105165,0.011742,0.011916,-0.0221788,0.0619582,1.63708e-05,1.70143e-05,0.0400395,0.011811207896443854,0.06391787203150989,1.637093400219669e-05,0.011987278364304021,1.7014444744001267e-05,-0.021934658666852735
66,131.0,385.963,385.11,-3.43921e-06,385.536,0.10587,0.105431,0.0120014,0.0121794,-0.0226961,0.0633681,1.67945e-05,1.7456e-05,0.0410147,0.012073705768273824,0.06541894777397639,1.6794641028328172e-05,0.0122538709221236,1.7456152356931653e-05,-0.022440481025691628
67,133.9,387.365,386.507,-3.54974e-06,386.936,0.106108,0.105669,0.0122605,0.0124426,-0.023213,0.0647767,1.72169e-05,1.78964e-05,0.0419893,0.01233596804004855,0.06692075437788403,1.7217048211781716e-05,0.012520331205585489,1.7896560141617002e-05,-0.02294565096862966
68,136.8,388.741,387.879,-3.65635e-06,388.31,0.106318,0.105879,0.0125193,0.0127055,-0.0237294,0.0661839,1.7638e-05,1.83355e-05,0.0429631,0.012597994493337872,0.06842318212367937,1.7638155550336876e-05,0.01278655779461113,1.8335668096280955e-05,-0.023450071581857745
69,139.7,390.091,389.225,-3.71185e-06,389.658,0.106529,0.106087,0.0127779,0.0129681,-0.0242454,0.0675898,1.80582e-05,1.87736e-05,0.0439363,0.012859886195851544,0.06992633466892029,1.8058363050243997e-05,0.013052550467997692,1.8773776225167182e-05,-0.02395384136114076
70,142.6,391.417,390.547,-3.88383e-06,390.982,0.106739,0.106301,0.0130362,0.0132304,-0.024761,0.0689944,1.84775e-05,1.92108e-05,0.0449087,0.013121541695809036,0.07143020912237508,1.8477670709948768e-05,0.013318309004693774,1.9210984528506003e-05,-0.024456961045134507
71,145.5,392.719,391.845,-3.99605e-06,392.282,0.106952,0.106515,0.0132942,0.0134925,-0.0252761,0.0703977,1.8896e-05,1.96472e-05,0.0458805,0.013382960775177866,0.07293480258592999,1.8896178530569685e-05,0.013583934542189757,1.9647393007415914e-05,-0.024959333867272004
72,148.4,393.999,393.121,-4.10903e-06,393.56,0.107168,0.106731,0.013552,0.0137543,-0.0257907,0.0717996,1.93136e-05,2.00828e-05,0.0468515,0.013644244580500953,0.0744400047105871,1.9313786508767805e-05,0.013849325554420755,2.0083001660786692e-05,-0.02546096071440629
73,151.2,395.258,394.375,-4.22276e-06,394.816,0.107386,0.10695,0.0138095,0.0140158,-0.0263049,0.0732003,1.97305e-05,2.05175e-05,0.0478217,0.013905291581839618,0.07594602732189126,1.97306946476683e-05,0.014114481820724167,2.0517710485279395e-05,-0.02596193987562634
74,154.1,396.495,395.608,-4.33724e-06,396.052,0.107606,0.10717,0.0140668,0.0142771,-0.0268187,0.0745996,2.01467e-05,2.09515e-05,0.0487913,0.01416620297817528,0.07745265246236643,2.014690294616095e-05,0.014379504558536649,2.0951719484241238e-05,-0.026462272084566862
75,157.0,397.712,396.821,-4.45248e-06,397.267,0.107827,0.107392,0.0143238,0.0145381,-0.027332,0.0759976,2.05622e-05,2.13848e-05,0.0497601,0.014426877187541765,0.07895998465021337,2.0562411403579617e-05,0.014644292162505401,2.1385028656562e-05,-0.026961860769900592
76,159.9,398.91,398.015,-4.56847e-06,398.462,0.108051,0.107616,0.0145805,0.0147988,-0.0278449,0.0773943,2.0977e-05,2.18174e-05,0.0507281,0.014687313992549411,0.0804680209527735,2.097722001881408e-05,0.014908844412359512,2.1817638001131456e-05,-0.02746080406656537
77,162.8,400.088,399.189,-4.68523e-06,399.638,0.108276,0.107842,0.014837,0.0150593,-0.0283573,0.0787897,2.13911e-05,2.22493e-05,0.0516954,0.014947614670723253,0.08197675843053887,2.1391328791198205e-05,0.015173262605303384,2.224954751750552e-05,-0.027959005500453826
78,165.7,401.249,400.345,-4.80276e-06,400.797,0.108504,0.10807,0.0150932,0.0153195,-0.0288693,0.0801838,2.18046e-05,2.26805e-05,0.0526619,0.015207677562236066,0.0834861941371583,2.1804837722072534e-05,0.015437445056879717,2.2680757204573965e-05,-0.02845656310402178
79,168.6,402.391,401.483,-4.92106e-06,401.937,0.108733,0.1083,0.0153492,0.0155794,-0.0293808,0.0815766,2.22176e-05,2.31111e-05,0.0536277,0.015467603996855983,0.08499632511944433,2.221784681277761e-05,0.01570139154721062,2.311136706345529e-05,-0.02895338050011309
80,171.5,403.517,402.605,-5.04015e-06,403.061,0.108965,0.108532,0.0156049,0.0158391,-0.0298918,0.0829681,2.26299e-05,2.35412e-05,0.0545928,0.015727292262927683,0.08650714841737739,2.2630156058189854e-05,0.015965203453088828,2.354147709615617e-05,-0.029449458563937547
81,174.4,404.626,403.709,-5.16002e-06,404.167,0.109198,0.108766,0.0158603,0.0160985,-0.0304025,0.0843583,2.30417e-05,2.39707e-05,0.055557,0.015986742143711208,0.08801866106411182,2.3041965462100578e-05,0.016228779011136618,2.397098729955971e-05,-0.029944992180169883
82,177.3,405.718,404.798,-5.28069e-06,405.258,0.109433,0.109001,0.0161155,0.0163577,-0.0309126,0.0857472,2.3453e-05,2.43996e-05,0.0565205,0.01624605504722565,0.08953086008598321,2.3453275023843645e-05,0.016492219651088158,2.439989767255568e-05,-0.030439691055983653
83,180.2,406.796,405.871,-5.40216e-06,406.333,0.10967,0.109239,0.0163705,0.0166166,-0.0314223,0.0871348,2.38638e-05,2.4828e-05,0.0574832,0.01650523083477129,0.09104374250251279,2.3864084742752922e-05,0.01675542355703108,2.4828308217372808e-05,-0.030933750023828477
84,183.1,407.858,406.929,-5.52443e-06,407.393,0.109909,0.109478,0.0166252,0.0168752,-0.0319316,0.0885211,2.42741e-05,2.52559e-05,0.0584451,0.016764167691273535,0.09255730532641482,2.427439461838432e-05,0.017018390509724535,2.5256218932900865e-05,-0.031427169804928434
85,186.0,408.905,407.972,-5.64753e-06,408.438,0.11015,0.109719,0.0168796,0.0171336,-0.0324404,0.0899061,2.46839e-05,2.56834e-05,0.0594063,0.017022865400487586,0.09407154556360187,2.4684204650071706e-05,0.017281222018200593,2.5683729821368573e-05,-0.03191985431136457
86,188.9,409.938,409.001,-5.77144e-06,409.469,0.110393,0.109962,0.0171338,0.0173917,-0.0329487,0.0912898,2.50933e-05,2.61104e-05,0.0603667,0.01728142547446554,0.09558646021319062,2.5093614839377665e-05,0.017543816187923555,2.611074087943699e-05,-0.03241180440970837
87,191.8,410.957,410.016,-5.89619e-06,410.486,0.110637,0.110207,0.0173878,0.0176496,-0.0334566,0.0926722,2.55023e-05,2.65369e-05,0.0613263,0.017539847774778794,0.09710204626750918,2.550262518652424e-05,0.017806274580673298,2.6537252106662024e-05,-0.03290311767468357
88,194.7,411.963,411.017,-6.02177e-06,411.49,0.110883,0.110454,0.0176415,0.0179072,-0.0339641,0.0940533,2.59109e-05,2.69631e-05,0.0622851,0.01779803038323835,0.09861830071210242,2.591123569017917e-05,0.018068495249577543,2.6963463507723162e-05,-0.03339379482260585
89,197.6,412.956,412.005,-6.1482e-06,412.48,0.111131,0.110702,0.0178949,0.0181646,-0.0344711,0.0954332,2.63191e-05,2.73889e-05,0.0632431,0.018055973084097232,0.10013533053926671,2.631944635056449e-05,0.018330579809090475,2.738927507928146e-05,-0.0338837399570443
90,200.5,413.935,412.981,-6.27549e-06,413.458,0.111381,0.110953,0.0181481,0.0184217,-0.0349777,0.0968117,2.6727e-05,2.78143e-05,0.0642004,0.018313777493143224,0.10165291284570266,2.6727357169464838e-05,0.01859242626007851,2.781468682133692e-05,-0.034373050501556146
91,203.4,414.903,413.944,-6.40363e-06,414.423,0.111633,0.111205,0.0184011,0.0186786,-0.0354837,0.098189,2.71345e-05,2.82393e-05,0.0651568,0.01857144347222084,0.10317126477560135,2.7134868143985358e-05,0.018854136269595978,2.8239698732779317e-05,-0.034861534141219175
92,206.3,415.858,414.895,-6.53265e-06,415.376,0.111886,0.111459,0.0186538,0.0189352,-0.0359894,0.099565,2.75417e-05,2.8664e-05,0.0661125,0.018828869000331983,0.10469027327410818,2.7542079276132725e-05,0.019115607786323707,2.866441081628146e-05,-0.03534948127557236
93,209.1,416.802,415.834,-6.66254e-06,416.318,0.112141,0.111714,0.0189063,0.0191915,-0.0364946,0.10094,2.79486e-05,2.90885e-05,0.0670673,0.01908615577084216,0.10621026715617599,2.7948990565684895e-05,0.019376840592153277,2.908892307451616e-05,-0.035836699635911407
94,212.0,417.734,416.762,-6.79332e-06,417.248,0.112398,0.111972,0.0191585,0.0194476,-0.0369993,0.102313,2.83552e-05,2.95126e-05,0.0680214,0.019343201711458535,0.10773013700486977,2.8355602012419823e-05,0.01963793643292444,2.9513035501027574e-05,-0.03632319007741569
95,214.9,418.654,417.678,-6.925e-06,418.166,0.112657,0.112231,0.0194105,0.0197035,-0.0375036,0.103685,2.87615e-05,2.99364e-05,0.0689747,0.019600108567193963,0.1092509858165569,2.876191361589342e-05,0.019898895169103703,2.993684809848851e-05,-0.03680904977284061
96,217.8,419.564,418.584,-7.05758e-06,419.074,0.112917,0.112492,0.0196622,0.0199591,-0.0380075,0.105056,2.91676e-05,3.036e-05,0.0699272,0.0198567742145368,0.11077281189151189,2.916802537855645e-05,0.0201596146452383,3.036046086957178e-05,-0.03729427942878083
97,220.7,420.464,419.479,-7.19107e-06,419.971,0.11318,0.112755,0.0199137,0.0202144,-0.0385109,0.106426,2.95734e-05,3.07833e-05,0.0708789,0.02011330045007398,0.11229561352474327,2.9573837297292016e-05,0.020420094643714748,3.07837738107164e-05,-0.037778783528602866
98,223.6,421.352,420.363,-7.32548e-06,420.858,0.113444,0.113019,0.0201649,0.0204695,-0.0390138,0.107794,2.9979e-05,3.12064e-05,0.0718297,0.02036958509915121,0.11381827518716015,2.9979449374772926e-05,0.020680437015115904,3.120688692481721e-05,-0.03826256292184205
99,226.5,422.231,421.237,-7.46082e-06,421.734,0.113709,0.113285,0.020416,0.0207244,-0.0395163,0.109161,3.03844e-05,3.16292e-05,0.0727798,0.02062583207243085,0.1153419059336902,3.0384861610555092e-05,0.020940641620178946,3.162970020831324e-05,-0.03874571458195253
100,229.4,423.1,422.102,-7.5971e-06,422.601,0.113977,0.113553,0.0206667,0.020979,-0.0400183,0.110527,3.07896e-05,3.20519e-05,0.0737291,0.020881735044628424,0.11686650404063315,3.079007400463851e-05,0.021200606199622163,3.205241366766032e-05,-0.039228143133534954
101,232.3,423.959,422.957,-7.73433e-06,423.458,0.114246,0.113822,0.0209173,0.0212333,-0.0405199,0.111892,3.11946e-05,3.24744e-05,0.0746776,0.021137600065978868,0.11839206777902778,3.11950865565791e-05,0.021460330536328565,3.247492729907542e-05,-0.039709945450816186
102,235.2,424.809,423.802,-7.87251e-06,424.305,0.114516,0.114094,0.0211676,0.0214875,-0.0410211,0.113255,3.15995e-05,3.28967e-05,0.0756253,0.021393222797125633,0.11991747549661547,3.159999926949375e-05,0.021720018757325432,3.2897241102336494e-05,-0.040191122233181664
103,238.1,425.649,424.638,-8.01165e-06,425.143,0.114789,0.114367,0.0214176,0.0217413,-0.0415218,0.114617,3.20042e-05,3.33189e-05,0.0765722,0.02164860302402305,0.1214438423180908,3.200471213982148e-05,0.021979364207631358,3.331945508078249e-05,-0.04067157824607914
104,241.0,426.48,425.465,-8.15176e-06,425.973,0.115063,0.114641,0.0216674,0.021995,-0.042022,0.115978,3.24087e-05,3.37409e-05,0.0775183,0.021903842723169697,0.12297116649583084,3.240922516756228e-05,0.02223867326429363,3.374146923063037e-05,-0.04115131433064323
105,243.9,427.303,426.283,-8.29286e-06,426.793,0.115339,0.114918,0.021917,0.0222483,-0.0425218,0.117337,3.28131e-05,3.41628e-05,0.0784636,0.02215894175734845,0.12449832177807374,3.281363835561102e-05,0.022497639116872525,3.416338355499704e-05,-0.04163042716347021
106,246.8,428.117,427.093,-8.43495e-06,427.605,0.115616,0.115196,0.0221664,0.0225015,-0.0430212,0.118696,3.32174e-05,3.45846e-05,0.079408,0.022413899989392805,0.1260275538752209,3.3217951703967685e-05,0.022756568298147872,3.458519805410454e-05,-0.04210891743917833
107,249.7,428.922,427.894,-8.57803e-06,428.408,0.115896,0.115475,0.0224155,0.0227544,-0.0435201,0.120053,3.36217e-05,3.50063e-05,0.0803517,0.02266861501531947,0.12755661049610656,3.362226521574918e-05,0.023015256143969598,3.500691272773082e-05,-0.0425866901099653
108,252.6,429.72,428.686,-8.72213e-06,429.203,0.116176,0.115757,0.0226644,0.023007,-0.0440186,0.121408,3.40258e-05,3.54279e-05,0.0812946,0.022923188914004244,0.12908548528207553,3.4026378884055575e-05,0.02327370243806426,3.54285275754318e-05,-0.043063841705029526
109,255.5,430.509,429.471,-8.86724e-06,429.99,0.116459,0.116039,0.022913,0.0232594,-0.0445166,0.122763,3.44298e-05,3.58494e-05,0.0822367,0.023177519230716648,0.13061643309753945,3.4430392712447855e-05,0.023532009317516422,3.585004259742952e-05,-0.043540277269558225
110,258.4,431.29,430.248,-9.01337e-06,430.769,0.116743,0.116324,0.0231614,0.0235116,-0.0450142,0.124116,3.48338e-05,3.62708e-05,0.0831779,0.023431708095443593,0.13214719245670836,3.4834406703820875e-05,0.02379017664379801,3.627145779350194e-05,-0.04401609323475908
111,261.3,432.063,431.017,-9.16054e-06,431.54,0.117029,0.11661,0.0234096,0.0237635,-0.0455113,0.125468,3.52377e-05,3.66922e-05,0.0841184,0.023685755371355643,0.13367889065557592,3.5238320855057736e-05,0.02404810187361317,3.6692873166987994e-05,-0.04449119473854968
112,264.2,432.829,431.778,-9.30875e-06,432.303,0.117316,0.116898,0.0236575,0.0240152,-0.046008,0.126819,3.56416e-05,3.71136e-05,0.0850581,0.023939558527713567,0.13521152589884466,3.564223516927534e-05,0.024305887221779843,3.7114288718109734e-05,-0.04496567811442154
113,267.0,433.587,432.532,-9.45802e-06,433.06,0.117605,0.117188,0.0239052,0.0242667,-0.0465042,0.128168,3.60454e-05,3.75349e-05,0.085997,0.024193219771009078,0.13674395964144748,3.6046049643134737e-05,0.024563532549958467,3.7535604443084125e-05,-0.04543944859276472
114,269.9,434.338,433.279,-9.60834e-06,433.808,0.117896,0.117479,0.0241527,0.0245179,-0.047,0.129517,3.64493e-05,3.79562e-05,0.086935,0.024446738964608583,0.1382784620321591,3.644996428375791e-05,0.02482093523775908,3.79569203456942e-05,-0.0459126024096288
115,272.8,435.082,434.018,-9.75974e-06,434.55,0.118189,0.117772,0.0243999,0.0247688,-0.0474954,0.130864,3.68531e-05,3.83775e-05,0.0878723,0.024700013501923523,0.13981275623567613,3.685377908380083e-05,0.025078095069761996,3.8378236425717915e-05,-0.046385140249108
116,275.7,435.819,434.751,-9.91221e-06,435.285,0.118482,0.118066,0.024647,0.0250196,-0.0479903,0.13221,3.72569e-05,3.87988e-05,0.0888088,0.02495324816111366,0.14134797717748104,3.7257594046824494e-05,0.02533521689773499,3.879955268315527e-05,-0.0468569674799203
117,278.6,436.549,435.476,-1.00658e-05,436.012,0.118778,0.118362,0.0248937,0.02527,-0.0484848,0.133554,3.76607e-05,3.92202e-05,0.0897444,0.02520613531978344,0.142882980149744,3.766140917305094e-05,0.025591992983070355,3.922096912201134e-05,-0.047328180192556135
118,281.5,437.272,436.195,-1.02204e-05,436.733,0.119075,0.11866,0.0251403,0.0255203,-0.0489788,0.134898,3.80645e-05,3.96415e-05,0.0906793,0.025458982327507984,0.14442004755298865,3.806522446225813e-05,0.02584873078831018,3.964228573472006e-05,-0.0477986838475698
119,284.4,437.989,436.907,-1.03762e-05,437.448,0.119374,0.118959,0.0253866,0.0257703,-0.0494724,0.13624,3.84684e-05,4.00629e-05,0.0916133,0.025711583981471886,0.14595689024760294,3.8469139918451134e-05,0.02610522503145174,4.0063702528625456e-05,-0.048268574438684375
120,287.3,438.699,437.613,-1.05331e-05,438.156,0.119674,0.11926,0.0256327,0.0260201,-0.0499655,0.137581,3.88723e-05,4.04843e-05,0.0925466,0.025964042666056786,0.14749464927440892,3.887305553762488e-05,0.026361578133833996,4.048511950038858e-05,-0.048737757518033775
121,289.5,439.231,438.142,-1.08085e-05,438.686,0.119902,0.119489,0.0258185,0.0262087,-0.0503379,0.138593,3.91775e-05,4.08027e-05,0.0932512,0.026154684495261815,0.148656501657622,3.917826744825881e-05,0.02655516818243786,4.080353244151347e-05,-0.049091941623960356
