,Time,S11,S22,S33,S12,S13,S23,LE11,LE22,LE33,LE12,LE13,LE23,SDV_EPBAR,E11,E12,E13,E22,E23,E33
0,0.0002895,0.00103873,0.00103873,-7.79048e-12,0.00103873,1.16838e-20,-1.40206e-19,3.50028e-09,3.50028e-09,-3.00057e-09,1.29994e-08,2.92329e-25,-2.04706e-24,0.0,3.500280065793504e-09,1.2999400000879291e-08,0.0,3.500280065793504e-09,0.0,-3.0005700146773506e-09
1,0.000579,0.00207746,0.00207746,1.0842e-19,0.00207746,-2.92095e-20,-1.75257e-20,7e-09,7e-09,-6e-09,2.6e-08,8.85256e-33,8.85256e-33,0.0,7.000000135093387e-09,2.6000000374892807e-08,0.0,7.000000135093387e-09,0.0,-5.999999941330714e-09
2,0.0010132,0.00363556,0.00363556,3.25261e-19,0.00363556,-1.75257e-20,-5.25772e-20,1.22503e-08,1.22503e-08,-1.05005e-08,4.54995e-08,1.99601e-32,1.99601e-32,0.0,1.2250300107652379e-08,4.549950105570133e-08,0.0,1.2250300107652379e-08,0.0,-1.0500499914023464e-08
3,0.0016646,0.0059727,0.0059727,7.58942e-19,0.0059727,-4.08934e-20,-7.59448e-20,2.01253e-08,2.01253e-08,-1.72507e-08,7.47493e-08,-1.75478e-24,5.84952e-25,0.0,2.0125300093098986e-08,7.474930274753433e-08,0.0,2.0125300093098986e-08,0.0,-1.725069986857619e-08
4,0.0026417,0.00947841,0.00947841,-1.40946e-18,0.00947841,-1.75257e-20,-9.93124e-20,3.19379e-08,3.19379e-08,-2.73759e-08,1.18624e-07,-2.02125e-28,-4.67905e-24,0.0,3.1937900546452624e-08,1.1862400706164067e-07,0.0,3.1937900546452624e-08,0.0,-2.737589965828846e-08
5,0.0041073,0.014737,0.014737,3.25261e-19,0.014737,-1.57732e-19,-1.46048e-19,4.9657e-08,4.9657e-08,-4.2564e-08,1.84436e-07,-7.01885e-24,2.33955e-24,0.0,4.965700117764982e-08,1.8443601690343314e-07,0.0,4.965700117764982e-08,0.0,-4.256399910307351e-08
6,0.0063057,0.0226248,0.0226248,-5.74627e-18,0.0226248,-3.91408e-19,-1.92783e-19,7.62344e-08,7.62344e-08,-6.53437e-08,2.83156e-07,-4.67924e-24,-4.67924e-24,0.0,7.62344030125206e-08,2.831560401705957e-07,0.0,7.62344030125206e-08,0.0,-6.534369789701344e-08
7,0.0096033,0.0344566,0.0344566,6.39679e-18,0.0344566,-3.91408e-19,-5.66665e-19,1.16102e-07,1.16102e-07,-9.95172e-08,4.31233e-07,-4.67931e-24,-1.40377e-23,0.0,1.1610200667533377e-07,4.312330930122954e-07,0.0,1.1610200667533377e-07,0.0,-9.951719504019962e-08
8,0.01455,0.0522043,0.0522043,2.92735e-18,0.0522043,-3.91408e-19,-3.79724e-19,1.75905e-07,1.75905e-07,-1.50778e-07,6.53347e-07,3.15274e-30,3.15274e-30,0.0,1.7590501544262338e-07,6.533472134417906e-07,0.0,1.7590501544262338e-07,0.0,-1.5077798865004155e-07
9,0.021969,0.0788258,0.0788258,9.86624e-18,0.0788258,-9.5223e-19,-1.31443e-18,2.65605e-07,2.65605e-07,-2.27663e-07,9.86524e-07,-1.87167e-23,-2.51715e-28,0.0,2.6560503529893253e-07,9.865244865459033e-07,0.0,2.6560503529893253e-07,0.0,-2.276629741393421e-07
10,0.033099,0.118758,0.118758,9.86624e-18,0.118758,-1.32611e-18,-5.66664e-19,4.00157e-07,4.00157e-07,-3.42994e-07,1.48629e-06,1.76041e-29,1.76041e-29,0.0,4.0015708013818596e-07,1.4862911046353844e-06,0.0,4.0015708013818596e-07,0.0,-3.4299394113812554e-07
11,0.049793,0.178656,0.178656,-1.09504e-17,0.178656,-2.44776e-18,-1.68831e-18,6.01985e-07,6.01985e-07,-5.1599e-07,2.23593e-06,3.74338e-23,-3.74336e-23,0.0,6.019851812588684e-07,2.2359324995946395e-06,0.0,6.019851812588684e-07,0.0,-5.159898668338769e-07
12,0.074834,0.268504,0.268504,-3.8706e-17,0.268504,-6.18657e-18,-2.43607e-18,9.04725e-07,9.04725e-07,-7.75482e-07,3.3604e-06,-1.87168e-23,-1.87168e-23,0.0,9.047254092564572e-07,3.3604056461911114e-06,0.0,9.047254092564572e-07,0.0,-7.754816992999736e-07
13,0.1124,0.403275,0.403275,3.06829e-17,0.403275,-9.52219e-19,-4.67936e-18,1.35884e-06,1.35884e-06,-1.16472e-06,5.04709e-06,7.48679e-23,-7.48674e-23,0.0,1.3588409231157783e-06,5.04710273663278e-06,0.0,1.3588409231157783e-06,0.0,-1.1647193217667606e-06
14,0.1687,0.605431,0.605431,2.92735e-18,0.605431,-5.43879e-18,-9.16592e-18,2.04e-06,2.04e-06,-1.74858e-06,7.57713e-06,8.13419e-28,-1.49735e-22,0.0,2.04000208081645e-06,7.5771587064732415e-06,0.0,2.04000208081645e-06,0.0,-1.748578471238993e-06
15,0.2533,0.908664,0.908664,-5.25838e-17,0.908664,-2.48806e-17,-1.36524e-17,3.06175e-06,3.06175e-06,-2.62436e-06,1.13722e-05,-4.49205e-22,1.49737e-22,0.0,3.061754687117002e-06,1.1372264663744858e-05,0.0,3.061754687117002e-06,0.0,-2.624356556402141e-06
16,0.38,1.36351,1.36351,5.02528e-16,1.36351,-2.48804e-17,-2.56165e-17,4.59436e-06,4.59436e-06,-3.93804e-06,1.70647e-05,-5.98942e-22,7.28744e-27,0.0,4.594370554000804e-06,1.7064845602821066e-05,0.0,4.594370554000804e-06,0.0,-3.938032245964784e-06
17,0.5702,2.04578,2.04578,5.02528e-16,2.04578,-4.28265e-17,-3.15983e-17,6.89327e-06,6.89327e-06,-5.90853e-06,2.56035e-05,8.98431e-22,-1.49735e-21,0.0,6.893293758691854e-06,2.560382777239134e-05,0.0,6.893293758691854e-06,0.0,-5.908512544672284e-06
18,0.8554,3.06918,3.06918,3.91505e-16,3.06918,-6.07721e-17,-4.95439e-17,1.03416e-05,1.03416e-05,-8.86425e-06,3.84116e-05,-1.19787e-21,2.48958e-26,0.0,1.0341653474466028e-05,3.841233773504982e-05,0.0,1.0341653474466028e-05,0.0,-8.864210712666853e-06
19,1.283,4.60425,4.60425,-1.16281e-15,4.60425,-6.07715e-17,-1.68644e-18,1.5514e-05,1.5514e-05,-1.32978e-05,5.76235e-05,2.99498e-22,-8.98403e-22,0.0,1.551412034261901e-05,5.762516026575071e-05,0.0,1.551412034261901e-05,0.0,-1.3297711584647764e-05
20,1.925,6.90682,6.90682,-4.49348e-15,6.90682,-1.44518e-16,-6.15046e-17,2.32725e-05,2.32725e-05,-1.99479e-05,8.64408e-05,-2.39571e-21,-2.39571e-21,0.0,2.327277080671486e-05,8.644453611372782e-05,0.0,2.327277080671486e-05,0.0,-1.994770104196686e-05
21,2.888,10.3606,10.3606,-2.98066e-14,10.3606,-2.16295e-16,-1.81138e-16,3.491e-05,3.491e-05,-2.99229e-05,0.000129666,-2.39552e-21,-4.79136e-21,0.0,3.491060936111623e-05,0.00012967440699918065,0.0,3.491060936111623e-05,0.0,-2.992245231447921e-05
22,4.332,62.3858,62.3858,-1.03267e-09,62.3858,-1.36348e-15,-2.85975e-15,0.000210209,0.000210209,-0.000180179,0.000780776,-1.9149e-20,-1.9149e-20,0.0,0.00021023109546014496,0.0007810808849249007,0.0,0.00021023109546014496,0.0,-0.00018016276873877857
23,6.498,140.732,140.732,-9.04826e-07,140.732,-3.27344e-15,-5.53541e-15,0.000474195,0.000474195,-0.000406453,0.0017613,-3.82507e-20,-7.65986e-20,0.0,0.0004743074482225218,0.001762851999890458,0.0,0.0004743074482225218,0.0,-0.00040637040916957634
24,9.393,243.218,243.208,6.65608e-05,243.213,0.000528843,0.000528737,0.000825062,0.000825126,-0.000713609,0.00307393,6.69493e-09,6.69697e-09,2.10949e-05,0.0008254024572782459,0.0030786593674958507,6.694929943762418e-09,0.0008254665101061764,6.696970089592469e-09,-0.0007133544416528803
25,12.29,255.353,255.246,0.100783,255.382,0.0133488,0.0133188,0.00110448,0.001109,-0.00123017,0.00452304,2.41911e-07,2.44883e-07,0.000931344,0.0011050901626521448,0.004533284384851566,2.4191102920845253e-07,0.0011096151678862132,2.448830300760818e-07,-0.0012294136510631049
26,15.18,265.367,265.19,0.000193181,265.279,0.0245703,0.0245302,0.00138252,0.0013916,-0.00175257,0.0059728,5.17685e-07,5.26677e-07,0.00186208,0.0013834761213433744,0.005990672735627145,5.176851340937816e-07,0.00139256872458704,5.26677138790177e-07,-0.0017510351459749662
27,18.08,273.855,273.617,-2.29347e-06,273.736,0.033328,0.033262,0.0016589,0.0016725,-0.00227728,0.00742388,8.07726e-07,8.24524e-07,0.00280639,0.0016602767357887238,0.00745150531715999,8.077263262684653e-07,0.0016738994081861858,8.245243399152002e-07,-0.0022746889651112934
28,20.97,281.255,280.965,8.03866e-06,281.11,0.0406534,0.0405612,0.00193419,0.00195231,-0.00280398,0.00887513,1.11589e-06,1.14205e-06,0.00376035,0.0019360617520582935,0.008914630737840934,1.1158906225716692e-06,0.001954216997983149,1.1420506520476437e-06,-0.0028000525197960924
29,23.87,287.827,287.491,3.69582e-06,287.659,0.0468947,0.0467771,0.00220859,0.00223121,-0.00333206,0.0103262,1.43983e-06,1.47661e-06,0.00472141,0.0022110307314215927,0.010379699192435865,1.439831036620376e-06,0.0022337010013366854,1.4766110902897367e-06,-0.003326514848713602
30,26.76,293.745,293.369,1.6506e-06,293.557,0.0522899,0.0521481,0.00248223,0.00250933,-0.00386112,0.0117767,1.77744e-06,1.82589e-06,0.00568785,0.002485313283498325,0.011846318354520546,1.777441579697836e-06,0.002512481003609235,1.8258916669733338e-06,-0.0038536754606748325
31,29.66,299.134,298.724,6.31564e-07,298.929,0.0570094,0.0568449,0.00275522,0.00278677,-0.00439086,0.0132266,2.12693e-06,2.18791e-06,0.00665845,0.0027590191069482017,0.013314458402435614,2.126932261869996e-06,0.0027906566530806476,2.1879123934809286e-06,-0.004381234267798129
32,32.55,304.087,303.644,9.38546e-08,303.866,0.0611785,0.0609926,0.00302761,0.0030636,-0.00492107,0.0146758,2.48672e-06,2.56096e-06,0.00763232,0.003032197840051154,0.014784018301460033,2.48672309188791e-06,0.003068297618463056,2.560963279218953e-06,-0.004908981372817034
33,35.45,308.672,308.201,-2.05712e-07,308.436,0.0648915,0.0646858,0.00329947,0.00333987,-0.0054516,0.016124,2.85549e-06,2.9436e-06,0.00860877,0.0033049192426966023,0.01625469317540551,2.8554940769698334e-06,0.00334545358022198,2.943604332283911e-06,-0.005436766995496778
34,38.34,312.943,312.446,-3.83672e-07,312.694,0.0682211,0.0679969,0.00357083,0.00361562,-0.00598231,0.0175712,3.23208e-06,3.33461e-06,0.00958728,0.003577213008729485,0.01772648169666824,3.2320852232370356e-06,0.0036221642387754827,3.334615559902332e-06,-0.005964451612747723
35,41.24,316.943,316.422,-4.98784e-07,316.683,0.0712243,0.0709828,0.00384173,0.00389089,-0.00651312,0.0190174,3.61551e-06,3.7329e-06,0.0105674,0.0038491189037241913,0.019199382532378628,3.615516535937502e-06,0.0038984693394332748,3.732906967313099e-06,-0.006491955607603517
36,44.13,320.706,320.164,-5.81838e-07,320.435,0.0739464,0.073689,0.00411219,0.0041657,-0.00704394,0.0204625,4.00491e-06,4.13755e-06,0.0115489,0.004120656654817534,0.020673292277063382,4.004918019662185e-06,0.004174388588740197,4.137558559769161e-06,-0.0070191896021735145
37,47.03,324.261,323.699,-6.49412e-07,323.98,0.0764243,0.0761522,0.00438223,0.00444008,-0.00757471,0.0219065,4.39951e-06,4.54776e-06,0.0125314,0.004391846011279732,0.02214820914480642,4.399519677900088e-06,0.0044499517602640815,4.547770340979085e-06,-0.007546094181966723
38,49.92,327.631,327.049,-7.10583e-07,327.34,0.078688,0.0784022,0.00465187,0.00471405,-0.00810538,0.0233493,4.79867e-06,4.96282e-06,0.0135147,0.004662706744441136,0.023624028981376055,4.798681513706882e-06,0.00472517861377697,4.962832314880927e-06,-0.008072619978088613
39,52.82,330.834,330.236,-7.70336e-07,330.535,0.0807623,0.0804639,0.00492113,0.00498761,-0.0086359,0.0247909,5.20179e-06,5.38211e-06,0.0144986,0.004933258647627392,0.02510074954599406,5.201803529253368e-06,0.005000068831408244,5.382124483643835e-06,-0.008598717726709837
40,55.71,333.889,333.274,-8.31375e-07,333.581,0.0826683,0.0823582,0.00519002,0.00526078,-0.00916623,0.0262314,5.60836e-06,5.80508e-06,0.015483,0.005203511484059176,0.026578471249244284,5.6083757269398404e-06,0.0052746422011069605,5.805096849442748e-06,-0.009124348177619979
41,58.61,336.808,336.178,-8.95106e-07,336.493,0.0844233,0.0841025,0.00545854,0.00553358,-0.00969634,0.0276706,6.01791e-06,6.23122e-06,0.0164677,0.005473464973296371,0.028056986669559025,6.017928107615589e-06,0.005548918533090141,6.231239414011824e-06,-0.009649482067746629
42,61.5,339.605,338.961,-9.62192e-07,339.283,0.0860425,0.0857117,0.00572672,0.00580602,-0.0102262,0.0291085,6.43003e-06,6.66011e-06,0.0174526,0.005743149007448656,0.029536293103172184,6.4300506725789575e-06,0.005822907601551686,6.660132178648581e-06,-0.010174090196472974
43,64.4,342.289,341.631,-1.03286e-06,341.96,0.0875385,0.0871986,0.00599455,0.0060781,-0.0107558,0.0305452,6.84434e-06,7.09135e-06,0.0184376,0.006012553270709153,0.031016490940983354,6.844363422464639e-06,0.0060966091309193615,7.0913751437640116e-06,-0.010698163211521394
44,67.29,344.87,344.2,-1.10711e-06,344.535,0.0889226,0.0885743,0.00626204,0.00634983,-0.0112851,0.0319806,7.2605e-06,7.52458e-06,0.0194226,0.006281687562344596,0.03249747465981345,7.260526357466546e-06,0.006370032909557732,7.524608309772418e-06,-0.011221662117526066
45,70.19,347.356,346.674,-1.18478e-06,347.015,0.0902042,0.0898482,0.0065292,0.00662122,-0.0118141,0.0334148,7.67822e-06,7.95948e-06,0.0204076,0.006550561692600709,0.03397934493313515,7.678249477560684e-06,0.006643188736992656,7.959511676647324e-06,-0.011744587532299122
46,73.08,349.755,349.061,-1.26565e-06,349.408,0.0913918,0.0910288,0.00679604,0.00689228,-0.0123428,0.0348477,8.0972e-06,8.39575e-06,0.0213924,0.006819185482674905,0.03546199592811283,8.097232782500186e-06,0.0069160864238844155,8.395785244363907e-06,-0.012266940072809152
47,75.98,352.071,351.368,-1.34947e-06,351.719,0.0924928,0.0921234,0.00706256,0.007163,-0.0128711,0.0362792,8.51721e-06,8.83313e-06,0.0223771,0.007087558693815277,0.03694532121205474,8.517246271599888e-06,0.0071887156482277614,8.83316901223452e-06,-0.012788621634050923
48,78.87,354.313,353.599,-1.43596e-06,353.956,0.0935136,0.0931384,0.00732876,0.0074334,-0.0133991,0.0377095,8.93799e-06,9.27136e-06,0.0233614,0.007355681087446886,0.03842952528049692,8.938029943950099e-06,0.007461096301143666,9.27140297912743e-06,-0.013309731656675594
49,81.77,356.483,355.76,-1.52487e-06,356.121,0.09446,0.0940795,0.00759465,0.00770349,-0.0139268,0.0391385,9.35935e-06,9.71024e-06,0.0243455,0.00762356250140761,0.03991450183517253,9.359393798868965e-06,0.007733238218394556,9.710287144581997e-06,-0.013830270754959906
50,84.66,358.587,357.855,-1.61594e-06,358.221,0.0953371,0.0949519,0.00786024,0.00797325,-0.014454,0.0405662,9.78108e-06,1.01495e-05,0.0253293,0.0078912127844184,0.041400248117056115,9.781127835006842e-06,0.008005121006638083,1.0149551506355436e-05,-0.014350042412370256
51,87.56,360.63,359.889,-1.70891e-06,360.259,0.0961495,0.0957601,0.00812552,0.00824271,-0.0149809,0.0419926,1.0203e-05,1.05891e-05,0.0263127,0.008158621632887275,0.042886761360174885,1.0203052050794525e-05,0.008276774664798259,1.0589156064666483e-05,-0.014869244579200358
52,90.45,362.614,361.865,-1.80356e-06,362.24,0.0969014,0.0965081,0.0083905,0.00851186,-0.0155074,0.0434176,1.06249e-05,1.10287e-05,0.0272956,0.008425798901200432,0.04437393435421377,1.0624956444438283e-05,0.008548188882629093,1.102876081637838e-05,-0.015387779405658164
53,93.35,364.544,363.787,-1.89968e-06,364.166,0.0975963,0.0971997,0.00865519,0.0087807,-0.0160335,0.0448413,1.10468e-05,1.14681e-05,0.0282781,0.008692754454585838,0.04586186845911944,1.1046861016161813e-05,0.008819363427377214,1.1468165758810045e-05,-0.015905647657724398
54,96.24,366.422,365.658,-1.99707e-06,366.04,0.0982376,0.0978381,0.00891957,0.00904924,-0.0165592,0.0462638,1.14683e-05,1.19074e-05,0.0292602,0.008959467900305329,0.047350665622936106,1.1468365761269084e-05,0.009090308157352789,1.1907470893302019e-05,-0.016422850100177633
55,99.14,368.251,367.48,-2.09552e-06,367.866,0.0988283,0.0984263,0.00918367,0.00931748,-0.0170846,0.0476849,1.18894e-05,1.23462e-05,0.0302417,0.009225969285736602,0.04884011373054076,1.188947067909396e-05,0.009361022848243916,1.234627621471418e-05,-0.016939485802651366
56,102.0,370.034,369.257,-2.19488e-06,369.646,0.0993712,0.098967,0.00944747,0.00958543,-0.0176094,0.0491047,1.23099e-05,1.27845e-05,0.0312227,0.009492238215762061,0.05033031456725645,1.2309975767177406e-05,0.00963151737220147,1.278458172215835e-05,-0.017455260609355205
57,104.9,371.774,370.99,-2.29498e-06,371.382,0.0998687,0.0994627,0.00971099,0.00985308,-0.0181339,0.0505231,1.27298e-05,1.32221e-05,0.0322032,0.009758294664434786,0.05182116014317373,1.272988102418715e-05,0.009901781414298316,1.3222187412287312e-05,-0.017970470199639266
58,107.8,373.471,372.682,-2.39567e-06,373.077,0.100323,0.0999156,0.00997422,0.0101204,-0.018658,0.0519403,1.31489e-05,1.36589e-05,0.0331831,0.01002412832650168,0.05331285785866258,1.3148986447220068e-05,0.010171784445503151,1.365899328309439e-05,-0.018485017027433437
59,110.7,375.13,374.335,-2.4968e-06,374.732,0.100736,0.100328,0.0102372,0.0103875,-0.0191816,0.0533561,1.35671e-05,1.40948e-05,0.0341625,0.010289779400697752,0.05480519437855991,1.3567192033603348e-05,0.010441637366381817,1.4094899332128819e-05,-0.018998803751415272
60,113.6,376.75,375.95,-2.59824e-06,376.35,0.101111,0.100701,0.0104998,0.0106543,-0.0197049,0.0547706,1.39844e-05,1.45297e-05,0.0351412,0.010555116333982761,0.056298272056249044,1.3984497782226768e-05,0.010711259161179543,1.4529805556495745e-05,-0.01951202738073765
61,116.5,378.335,377.53,-2.69988e-06,377.933,0.101447,0.101037,0.0107622,0.0109208,-0.0202276,0.0561838,1.44005e-05,1.49635e-05,0.0361193,0.010820320789811877,0.057792088056091595,1.4400603687736435e-05,0.010980649606428194,1.4963611953744405e-05,-0.0200243945252071
62,119.4,379.886,379.076,-2.80159e-06,379.481,0.101748,0.101338,0.0110243,0.011187,-0.02075,0.0575956,1.48155e-05,1.53961e-05,0.0370968,0.01108529151878801,0.05928653360689884,1.4815609750140624e-05,0.011249808478809964,1.5396218520535854e-05,-0.02053620008625523
63,122.3,381.404,380.59,-2.90325e-06,380.997,0.102015,0.101604,0.0112861,0.011453,-0.0212719,0.0590061,1.52292e-05,1.58275e-05,0.0380737,0.011350028300640469,0.060781711488863355,1.5229315964759849e-05,0.011518836707033353,1.5827625255537825e-05,-0.02104724887364917
64,125.2,382.891,382.072,-3.00477e-06,382.482,0.102248,0.101838,0.0115477,0.0117186,-0.0217934,0.0604154,1.56415e-05,1.62574e-05,0.0390499,0.011614632076708764,0.06227772507323093,1.56416223289213e-05,0.01178753179119063,1.6257532152286203e-05,-0.021557639637402648
65,128.1,384.348,383.525,-3.02155e-06,383.937,0.102459,0.102044,0.011809,0.011984,-0.0223145,0.0618233,1.60526e-05,1.6686e-05,0.0400254,0.011879001518433574,0.06377435919073138,1.605272884375175e-05,0.01205609583900058,1.6686139212129802e-05,-0.022067373128791812
66,131.0,385.777,384.95,-3.20997e-06,385.363,0.102667,0.102258,0.01207,0.0122491,-0.0228351,0.0632298,1.64626e-05,1.71137e-05,0.0410002,0.01214313640593323,0.06527161052210495,1.6462735509259474e-05,0.01232442747579432,1.7113846440208746e-05,-0.022576352355552665
67,133.9,387.178,386.347,-3.31299e-06,386.762,0.10288,0.102471,0.0123307,0.0125139,-0.0233552,0.0646351,1.68718e-05,1.75404e-05,0.0419744,0.012407036519479497,0.06676968909473846,1.687194232968814e-05,0.012592526478931054,1.754055383362818e-05,-0.02308457821910037
68,136.8,388.553,387.717,-3.4168e-06,388.135,0.103095,0.102687,0.0125912,0.0127785,-0.023875,0.066039,1.72801e-05,1.79663e-05,0.0429479,0.012670802906573186,0.06826837882035974,1.7280249301698802e-05,0.012860493911965643,1.7966461394847144e-05,-0.023592246900820846
69,139.7,389.902,389.063,-3.52141e-06,389.483,0.103312,0.102904,0.0128514,0.0130427,-0.0243942,0.0674416,1.76876e-05,1.83913e-05,0.0439207,0.01293433413341516,0.06976778333506628,1.7687756426409962e-05,0.013128127007232315,1.8391469120970783e-05,-0.024099066224548493
70,142.6,391.228,390.384,-3.62679e-06,390.806,0.103531,0.103124,0.0131113,0.0133067,-0.0249131,0.068843,1.80944e-05,1.88155e-05,0.0448927,0.013197629980669756,0.07126800686773471,1.809456370471807e-05,0.013395628141358307,1.8815677012673504e-05,-0.024605329857625424
71,145.5,392.529,391.682,-3.73296e-06,392.106,0.103752,0.103345,0.0133709,0.0135705,-0.0254315,0.0702429,1.85003e-05,1.9239e-05,0.0458641,0.013460690229155636,0.0727687251332163,1.8500471131499552e-05,0.013662997172486646,1.923918507085176e-05,-0.025110843414192452
72,148.4,393.809,392.957,-3.8399e-06,393.383,0.103976,0.103569,0.0136303,0.0138339,-0.0259494,0.0716416,1.89056e-05,1.96616e-05,0.0468347,0.013723616032203623,0.07427025660029685,1.8905778711886256e-05,0.013930031172775692,1.9661793290604024e-05,-0.02561560778837102
73,151.2,395.066,394.211,-3.94763e-06,394.638,0.104201,0.103795,0.0138895,0.0140971,-0.0264669,0.073039,1.93102e-05,2.00836e-05,0.0478046,0.013986407249749533,0.07577249122374696,1.9310386443205374e-05,0.014196932679678254,2.0083801676840096e-05,-0.026119721260729256
74,154.1,396.303,395.443,-4.05613e-06,395.873,0.104428,0.104022,0.0141483,0.01436,-0.0269839,0.0744351,1.97141e-05,2.05049e-05,0.0487738,0.014248860891982185,0.07727542607830595,1.9714294324124637e-05,0.014463600105176999,2.050511022688717e-05,-0.02662308723352158
75,157.0,397.52,396.655,-4.16542e-06,397.087,0.104658,0.104252,0.0144069,0.0146227,-0.0275005,0.0758298,2.01174e-05,2.09255e-05,0.0497422,0.014511179563751364,0.0787789503539913,2.0117602356206632e-05,0.014730134700710495,2.0925718939857063e-05,-0.02712580388376562
76,159.9,398.717,397.848,-4.2755e-06,398.282,0.104889,0.104484,0.0146653,0.0148851,-0.0280167,0.0772232,2.05201e-05,2.13455e-05,0.0507098,0.014773363125207828,0.08028316868895047,2.0520310538785225e-05,0.014996434825104377,2.1345727816868276e-05,-0.02762787194888472
77,162.8,399.895,399.022,-4.38636e-06,399.458,0.105122,0.104718,0.0149234,0.0151472,-0.0285323,0.0786154,2.09222e-05,2.1765e-05,0.0516768,0.015035309933011609,0.08178818631608165,2.0922418870750192e-05,0.015262500257023692,2.176523685926135e-05,-0.028129097790981827
78,165.7,401.054,400.177,-4.49801e-06,400.616,0.105357,0.104953,0.0151812,0.0154091,-0.0290476,0.0800062,2.13237e-05,2.21838e-05,0.0526429,0.015297019768860887,0.08329378407559895,2.1323927351657446e-05,0.01552843232812573,2.21840460623568e-05,-0.02862977385662302
79,168.6,402.197,401.315,-4.61045e-06,401.756,0.105594,0.105191,0.0154388,0.0156707,-0.0295623,0.0813958,2.17248e-05,2.26021e-05,0.0536083,0.015558593970464107,0.08480017551632146,2.1725035985076246e-05,0.015794129317673544,2.2602355429279797e-05,-0.029129609468289686
80,171.5,403.321,402.436,-4.7237e-06,402.879,0.105834,0.10543,0.0156961,0.015932,-0.0300767,0.082784,2.21253e-05,2.30199e-05,0.054573,0.015819930816236116,0.08630714086261437,2.212554476632711e-05,0.016059591004723428,2.3020164960030343e-05,-0.029628896769475777
81,174.4,404.43,403.54,-4.83774e-06,403.985,0.106075,0.105672,0.0159532,0.0161931,-0.0305905,0.0841709,2.25254e-05,2.34372e-05,0.0555369,0.016081131696383366,0.08781478547076826,2.2525653698757253e-05,0.01632491880097131,2.343747465327617e-05,-0.030127345379902137
82,177.3,405.522,404.628,-4.9526e-06,405.075,0.106317,0.105915,0.01621,0.0164539,-0.031104,0.0855565,2.2925e-05,2.3854e-05,0.0565,0.016342094837236143,0.0893231063609119,2.292526277991591e-05,0.016590010906302632,2.3854284509017276e-05,-0.030625247140831813
83,180.2,406.599,405.7,-5.06827e-06,406.15,0.106562,0.10616,0.0164665,0.0167144,-0.0316169,0.0869409,2.33242e-05,2.42704e-05,0.0574623,0.01660282002113722,0.09083220962961613,2.332447201136567e-05,0.01685486710016515,2.4270694528594206e-05,-0.031122311968401428
84,183.1,407.66,406.758,-5.18477e-06,407.209,0.106809,0.106407,0.0167228,0.0169747,-0.0321294,0.0883239,2.37229e-05,2.46864e-05,0.0584239,0.01686340871692349,0.09234187426800466,2.372318139021168e-05,0.017119588874115355,2.4686704711784913e-05,-0.03161873456436182
85,186.0,408.707,407.8,-5.30209e-06,408.254,0.107057,0.106656,0.0169789,0.0172347,-0.0326415,0.0897057,2.41213e-05,2.51019e-05,0.0593847,0.017123860785359657,0.09385231559344742,2.4121590920911373e-05,0.01738407434884448,2.5102215055250454e-05,-0.032114515654808384
86,188.9,409.74,408.829,-5.42024e-06,409.284,0.107308,0.106907,0.0172347,0.0174945,-0.0331531,0.0910862,2.45193e-05,2.55171e-05,0.0603447,0.01738407434884448,0.09536342151600086,2.4519600600569902e-05,0.01764842506903208,2.551742556389236e-05,-0.03260955922565645
87,191.8,410.759,409.843,-5.53923e-06,410.301,0.10756,0.10716,0.0174902,0.017754,-0.0336642,0.0924653,2.4917e-05,2.59319e-05,0.0613039,0.01764404919021234,0.09687507933467532,2.4917310430971895e-05,0.017912539102651337,2.593223623459373e-05,-0.03310386614904148
88,194.7,411.764,410.844,-5.65907e-06,411.304,0.107814,0.107414,0.0177455,0.0180133,-0.0341749,0.0938432,2.53143e-05,2.63464e-05,0.0622623,0.017903886882840725,0.09838750525303497,2.531462040966659e-05,0.01817651804743159,2.6346747069361243e-05,-0.03359753393580045
89,197.6,412.756,411.832,-5.77976e-06,412.294,0.10807,0.107671,0.0180006,0.0182723,-0.0346852,0.0952198,2.57113e-05,2.67606e-05,0.06322,0.018163587287762795,0.09990058670778734,2.5711630538216568e-05,0.018440259918703905,2.676095806797285e-05,-0.034090563307089705
90,200.5,413.735,412.807,-5.90132e-06,413.271,0.108328,0.107929,0.0182554,0.018531,-0.0351949,0.0965952,2.6108e-05,2.71744e-05,0.0641769,0.018423048423748645,0.101414430806684,2.6108340816843878e-05,0.018703764496792452,2.7174769227311657e-05,-0.03458276189950504
91,203.4,414.702,413.769,-6.02374e-06,414.236,0.108587,0.108189,0.0185099,0.0187895,-0.0357043,0.0979692,2.65045e-05,2.7588e-05,0.0651329,0.018682270074128704,0.1029288143778786,2.650485124733315e-05,0.018967133458886565,2.758838055227919e-05,-0.035074420204591505
92,206.3,415.657,414.72,-6.14703e-06,415.188,0.108848,0.10845,0.0187642,0.0190478,-0.0362131,0.099342,2.69007e-05,2.80013e-05,0.0660882,0.01894135391652263,0.10444395480869773,2.6901061827011574e-05,0.019230366664563903,2.8001692039980597e-05,-0.03556524946203965
93,209.1,416.6,415.658,-6.27121e-06,416.129,0.109111,0.108714,0.0190183,0.0193057,-0.0367216,0.100713,2.72966e-05,2.84144e-05,0.0670427,0.01920029981223559,0.10595918592432962,2.7296972555657106e-05,0.019493260074774588,2.841480369286664e-05,-0.036055539865788244
94,212.0,417.532,416.586,-6.39628e-06,417.059,0.109376,0.108979,0.0192721,0.0195635,-0.0372295,0.102084,2.76923e-05,2.88272e-05,0.0679964,0.019459005676713215,0.10747649584651686,2.7692683435276422e-05,0.019756119318322662,2.8827615507820425e-05,-0.036545002947419025
95,214.9,418.452,417.502,-6.52225e-06,417.977,0.109643,0.109246,0.0195257,0.019821,-0.037737,0.103453,2.80878e-05,2.92398e-05,0.0689493,0.01971757326553747,0.10899366943770161,2.808819446586952e-05,0.020018740330051354,2.924022748707067e-05,-0.03703383230748136
96,217.8,419.361,418.407,-6.64912e-06,418.884,0.109911,0.109515,0.019779,0.0200782,-0.0382441,0.10482,2.84831e-05,2.96522e-05,0.0699014,0.019975900442601446,0.11051070043827349,2.8483505647436402e-05,0.020281122891015357,2.9652639630839417e-05,-0.03752202865847187
97,220.7,420.26,419.301,-6.77691e-06,419.781,0.110181,0.109786,0.0200321,0.0203352,-0.0387507,0.106187,2.88783e-05,3.00644e-05,0.0708527,0.020234089015389367,0.11202980663829898,2.8878716982205788e-05,0.02054336883675889,3.006485193868258e-05,-0.03800949651272034
98,223.6,421.149,420.185,-6.90562e-06,420.667,0.110453,0.110058,0.0202849,0.0205919,-0.0392569,0.107552,2.92732e-05,3.04765e-05,0.0718033,0.02049203679631817,0.11354876377676071,2.927362846438797e-05,0.020805375946713278,3.0476964413272967e-05,-0.03849633287690635
99,226.5,422.027,421.059,-7.03526e-06,421.543,0.110727,0.110332,0.0205375,0.0208484,-0.0397626,0.108916,2.9668e-05,3.08884e-05,0.072753,0.020749845644699727,0.11506868063820175,2.9668440099550608e-05,0.02106724610905597,3.088887705149368e-05,-0.038982442358228675
100,229.4,422.895,421.923,-7.16584e-06,422.409,0.111002,0.110608,0.0207899,0.0211046,-0.0402678,0.110278,3.00627e-05,3.13002e-05,0.0737019,0.021007515422298173,0.11658843890167359,3.0063151887471662e-05,0.021328877051001838,3.1300689856461617e-05,-0.039467825810165835
101,232.3,423.754,422.777,-7.29737e-06,423.266,0.111279,0.110885,0.021042,0.0213606,-0.0407726,0.11164,3.04573e-05,3.17118e-05,0.07465,0.021264943864427677,0.1181102684861497,3.0457763828373174e-05,0.0215903707132874,3.1712302824393745e-05,-0.03995258008942282
102,235.2,424.603,423.622,-7.42985e-06,424.113,0.111558,0.111164,0.0212939,0.0216163,-0.041277,0.113,3.08517e-05,3.21233e-05,0.0755973,0.02152223290798183,0.11963193294858598,3.085217591869416e-05,0.021851624770986566,3.212381595862901e-05,-0.04043670590123172
103,238.1,425.443,424.458,-7.56329e-06,424.951,0.111838,0.111445,0.0215455,0.0218718,-0.0417809,0.114359,3.12461e-05,3.25348e-05,0.0765438,0.021779280236979393,0.12115454712745688,3.1246588164446365e-05,0.022112741217320986,3.253532926228431e-05,-0.040920108041730185
104,241.0,426.274,425.284,-7.69771e-06,425.779,0.112121,0.111728,0.0217969,0.0221271,-0.0422843,0.115716,3.16403e-05,3.29461e-05,0.0774896,0.022036187839963528,0.12267698658945947,3.164080055961804e-05,0.02237371991266701,3.294664272868175e-05,-0.041402787358765014
105,243.9,427.097,426.102,-7.83311e-06,426.599,0.112404,0.112012,0.022048,0.0223821,-0.0427873,0.117073,3.20345e-05,3.33574e-05,0.0784345,0.02229285334973663,0.12420149340419351,3.20350131099989e-05,0.0226344584539957,3.3357956364277186e-05,-0.041884840510192145
106,246.8,427.91,426.911,-7.96949e-06,427.411,0.11269,0.112298,0.022299,0.0226368,-0.0432899,0.118428,3.24286e-05,3.37686e-05,0.0793786,0.02254948106135779,0.1257258189250714,3.242912581269408e-05,0.02289495662359764,3.376917016550962e-05,-0.04236626819643974
107,249.7,428.715,427.712,-8.10687e-06,428.213,0.112977,0.112586,0.0225497,0.0228913,-0.043792,0.119781,3.28227e-05,3.41798e-05,0.0803219,0.022805866352813453,0.1272499568048444,3.282323867082049e-05,0.023155316519449798,3.4180384135940045e-05,-0.04284697540153559
108,252.6,429.512,428.504,-8.24526e-06,429.008,0.113266,0.112875,0.0228001,0.0231456,-0.0442936,0.121134,3.32168e-05,3.4591e-05,0.0812644,0.02306200900947042,0.12877615823884825,3.3217351683934027e-05,0.023415538002199643,3.459159827556846e-05,-0.043326962967728755
109,255.5,430.301,429.289,-8.38466e-06,429.795,0.113557,0.113166,0.0230503,0.0233996,-0.0447948,0.122485,3.36108e-05,3.50021e-05,0.0822061,0.023318011148656614,0.13030216541437012,3.361136484936189e-05,0.023675518564985953,3.500271258061183e-05,-0.04380632735513901
110,258.4,431.082,430.065,-8.52509e-06,430.573,0.113849,0.113459,0.0233003,0.0236534,-0.0452956,0.123835,3.40048e-05,3.54132e-05,0.083147,0.023573872632796755,0.131829103789179,3.400537816977689e-05,0.02393536038412991,3.5413827054853186e-05,-0.044285069259421106
111,261.3,431.855,430.834,-8.66654e-06,431.344,0.114143,0.113753,0.02355,0.0239069,-0.0457959,0.125184,3.43988e-05,3.58244e-05,0.0840871,0.023829490941410736,0.13335697156530424,3.439939164540107e-05,0.024194960900962625,3.582504170140943e-05,-0.04476309385144783
112,264.2,432.62,431.595,-8.80904e-06,432.107,0.114438,0.114049,0.0237995,0.0241602,-0.0462957,0.126532,3.47928e-05,3.62355e-05,0.0850264,0.024084968268871965,0.134885766939558,3.479340527645647e-05,0.024454422343963556,3.623615651360268e-05,-0.045240401967906796
113,267.0,433.378,432.348,-8.95259e-06,432.863,0.114735,0.114347,0.0240488,0.0244132,-0.0467952,0.127878,3.51869e-05,3.66467e-05,0.0859649,0.024340304477797448,0.1364143516886147,3.5187519066282036e-05,0.02471364210273319,3.6647371498554904e-05,-0.04571718530057345
114,269.9,434.129,433.094,-9.09719e-06,433.611,0.115034,0.114646,0.0242979,0.024666,-0.0472941,0.129223,3.5581e-05,3.70579e-05,0.0869026,0.024595499430854817,0.13794385735361958,3.558163301131678e-05,0.024972722457833996,3.705858665248307e-05,-0.046193158255500744
115,272.8,434.872,433.833,-9.24286e-06,434.353,0.115335,0.114947,0.0245467,0.0249186,-0.0477927,0.130567,3.59751e-05,3.74691e-05,0.0878395,0.024850450505711663,0.1394742821129693,3.597574711178275e-05,0.025231663270374627,3.746980197560923e-05,-0.04666860780737159
116,275.7,435.609,434.565,-9.38961e-06,435.087,0.115637,0.115249,0.0247952,0.0251709,-0.0482907,0.13191,3.63693e-05,3.78805e-05,0.0887756,0.02510515748869424,0.14100562413985118,3.636996137101889e-05,0.025490361852471333,3.7881217475277396e-05,-0.04714324864530539
117,278.6,436.338,435.291,-9.53744e-06,435.814,0.115941,0.115554,0.0250436,0.025423,-0.0487884,0.133252,3.67635e-05,3.82918e-05,0.0897109,0.02535982523823943,0.14253788160224223,3.676417578568625e-05,0.025748920562650435,3.829253314036052e-05,-0.04761736745620182
118,281.5,437.061,436.009,-9.68636e-06,436.535,0.116246,0.115859,0.0252917,0.0256749,-0.0492856,0.134592,3.71578e-05,3.87033e-05,0.0906454,0.0256142485707902,0.14406990859243063,3.7158490359567864e-05,0.026007339262208884,3.870404898242974e-05,-0.048090774402383185
119,284.4,437.778,436.721,-9.83638e-06,437.249,0.116553,0.116167,0.0255396,0.0259265,-0.0497823,0.135931,3.75522e-05,3.91149e-05,0.0915791,0.025868529859874645,0.14560284427143677,3.7552905092663735e-05,0.026265515185936783,3.9115664997702027e-05,-0.04856347031099051
120,287.3,438.487,437.426,-9.98752e-06,437.957,0.116861,0.116476,0.0257873,0.0261779,-0.0502786,0.137269,3.79467e-05,3.95265e-05,0.092512,0.02612266896855009,0.1471366867888868,3.794741998519591e-05,0.026523550770168436,3.952728118239435e-05,-0.049035551104136155
121,289.5,439.019,437.955,-1.02829e-05,438.487,0.117096,0.11671,0.0259742,0.0263676,-0.0506533,0.138279,3.82447e-05,3.98375e-05,0.0932163,0.026314469218555514,0.1482958801366432,3.824543133790215e-05,0.026718300759201785,3.9838293523830615e-05,-0.04939181073372767
