,Time,S11,S22,S33,S12,S13,S23,LE11,LE22,LE33,LE12,LE13,LE23,SDV_EPBAR,E11,E12,E13,E22,E23,E33
0,0.0002705,0.000519365,0.0015581,-7.79048e-12,0.000899567,2.21372e-21,3.68811e-20,2.50301e-10,6.7501e-09,-3.0004e-09,1.1258e-08,2.76762e-26,4.61603e-25,0.0,2.5030089112476617e-10,1.1258000087721598e-08,0.0,6.750100034480511e-09,0.0,-3.0004000395322805e-09
1,0.000541,0.00103873,0.00311619,4.33681e-19,0.00179913,-3.08331e-20,-2.03577e-20,5.00425e-10,1.35001e-08,-6.00057e-09,2.25162e-08,-1.63975e-24,4.6912e-25,0.0,5.00425034744012e-10,2.2516200237632233e-08,0.0,1.3500100148888805e-08,0.0,-6.000569929831556e-09
2,0.00094675,0.00181778,0.00545333,6.50521e-19,0.00314848,1.87371e-20,6.55005e-20,8.75688e-10,2.36252e-08,-1.05009e-08,3.94034e-08,-1.73568e-24,1.95724e-24,0.0,8.756879665838824e-10,3.9403400764470575e-08,0.0,2.3625200240573463e-08,0.0,-1.0500899927379237e-08
3,0.0015554,0.00298635,0.00895905,1.73472e-18,0.00517251,4.73565e-20,4.89771e-20,1.4375e-09,3.88125e-08,-1.725e-08,6.47354e-08,4.1359e-25,7.16359e-25,0.0,1.4374998968946784e-09,6.473540214990692e-08,0.0,3.8812500768869995e-08,0.0,-1.7249999872959165e-08
4,0.0024683,0.00473921,0.0142176,0.0,0.00820854,1.00168e-19,-5.78319e-20,2.28125e-09,6.15937e-08,-2.7375e-08,1.02732e-07,-7.41318e-35,-1.284e-34,0.0,2.281250077729169e-09,1.027320053470504e-07,0.0,6.159370191660685e-08,0.0,-2.7374999600482397e-08
5,0.0038377,0.00736849,0.0221055,-8.67362e-19,0.0127626,9.88226e-21,-8.20239e-20,3.54688e-09,9.57656e-08,-4.25625e-08,1.59728e-07,7.653e-32,1.32554e-31,0.0,3.5468799008953056e-09,1.597280128162737e-07,0.0,9.576560455748506e-08,0.0,-4.256249908074494e-08
6,0.0058918,0.0113124,0.0339373,-6.07153e-18,0.0195937,-4.73565e-20,-4.89771e-20,5.44671e-09,1.47024e-07,-6.53456e-08,2.45219e-07,-1.14621e-23,6.61761e-24,0.0,5.446709971934638e-09,2.452190299706558e-07,0.0,1.4702401074373483e-07,0.0,-6.534559782167548e-08
7,0.008973,0.0172283,0.0516849,7.80626e-18,0.0298403,6.7121e-20,-1.15071e-19,8.29297e-09,2.2391e-07,-9.95156e-08,3.7346e-07,1.78232e-31,3.08708e-31,0.0,8.292970088419338e-09,3.734600697580248e-07,0.0,2.2391002496569e-07,0.0,-9.951559509779884e-08
8,0.013595,0.0261021,0.0783064,9.54098e-18,0.0452102,-1.3116e-19,-4.58503e-19,1.25671e-08,3.39241e-07,-1.50777e-07,5.65816e-07,2.77687e-23,-3.13146e-23,0.0,1.2567100027283118e-08,5.658161601473921e-07,0.0,3.392410574676319e-07,0.0,-1.5077698867216327e-07
9,0.020527,0.0394129,0.118239,6.07153e-18,0.0682651,-4.56883e-19,3.48265e-20,1.89735e-08,5.12236e-07,-2.27663e-07,8.54355e-07,1.1462e-23,-6.61759e-24,0.0,1.8973500104380037e-08,8.543553648987512e-07,0.0,5.122361312892565e-07,0.0,-2.276629741393421e-07
10,0.030926,0.059379,0.178137,-8.67362e-19,0.102847,-1.54031e-18,-2.55477e-19,2.8587e-08,7.71729e-07,-3.42996e-07,1.28716e-06,-2.95414e-23,1.77334e-24,0.0,2.858700032248862e-08,1.2871608283671065e-06,0.0,7.717292977993395e-07,0.0,-3.429959412049044e-07
11,0.046525,0.0893282,0.267985,-4.94396e-17,0.154721,-5.5365e-19,3.95969e-19,4.30043e-08,1.16097e-06,-5.15992e-07,1.93637e-06,-9.16942e-23,5.29396e-23,0.0,4.300430100911967e-08,1.9363718748444114e-06,0.0,1.1609706738191505e-06,0.0,-5.159918669006558e-07
12,0.069922,0.134252,0.402756,-2.1684e-17,0.232531,2.20493e-19,-2.49317e-18,6.46307e-08,1.74483e-06,-7.75487e-07,2.91018e-06,-5.29397e-23,-9.16942e-23,0.0,6.463070212348043e-08,2.910184234483637e-06,0.0,1.744831522154655e-06,0.0,-7.754866993003873e-07
13,0.105,0.201637,0.604912,1.99493e-17,0.349246,-1.22407e-18,-2.88023e-18,9.70596e-08,2.62061e-06,-1.16471e-06,4.37091e-06,-1.05879e-22,-1.83388e-22,0.0,9.705960479777787e-08,4.370919552521002e-06,0.0,2.62061343381248e-06,0.0,-1.1647093217659332e-06
14,0.1577,0.302715,0.908146,-9.1073e-17,0.524319,2.72256e-18,-2.74454e-19,1.45719e-07,3.93429e-06,-1.74858e-06,6.56199e-06,1.03982e-22,-2.43423e-22,0.0,1.4571901063575865e-07,6.562011529931411e-06,0.0,3.934297739371928e-06,0.0,-1.748578471238993e-06
15,0.2366,0.454332,1.363,-7.80626e-18,0.786926,-1.38381e-17,-7.8084e-18,2.18705e-07,5.90479e-06,-2.62436e-06,9.8486e-06,-2.11758e-22,-3.66776e-22,0.0,2.1870502386889257e-07,9.848648497623458e-06,0.0,5.904807433232406e-06,0.0,-2.624356556402141e-06
16,0.3551,0.681756,2.04527,4.77049e-17,1.18084,-5.94481e-18,-2.59681e-18,3.28182e-07,8.86055e-06,-3.93804e-06,1.47785e-05,5.57568e-28,9.65736e-28,0.0,3.281820537548441e-07,1.4778609202625859e-05,0.0,8.860589254755524e-06,0.0,-3.938032245964784e-06
17,0.5328,1.02289,3.06867,7.13839e-16,1.7717,-5.94479e-18,-2.59677e-18,4.92389e-07,1.32942e-05,-5.90853e-06,2.21733e-05,8.36561e-28,1.44897e-27,0.0,4.923891212538223e-07,2.2173545829451413e-05,0.0,1.3294288368159712e-05,0.0,-5.908512544672284e-06
18,0.7993,1.53459,4.60377,-2.85362e-16,2.65799,-3.98145e-18,-3.30361e-17,7.38697e-07,1.99445e-05,-8.86424e-06,3.32654e-05,7.35553e-27,1.27402e-26,0.0,7.38697272906208e-07,3.326595329955495e-05,0.0,1.9944698892881974e-05,0.0,-8.864200712777048e-06
19,1.199,2.30213,6.90638,-1.61763e-15,3.9874,2.21215e-18,-5.61484e-17,1.10814e-06,2.99199e-05,-1.32977e-05,4.99034e-05,-4.23505e-22,-7.33532e-22,0.0,1.1081406139368255e-06,4.990464519538662e-05,0.0,2.992034760462836e-05,0.0,-1.3297611585971758e-05
20,1.799,3.45341,10.3602,-3.17194e-15,5.98148,6.53581e-17,-1.44564e-17,1.66234e-06,4.48827e-05,-1.99479e-05,7.48599e-05,-1.09041e-26,-1.88864e-26,0.0,1.6623413816585497e-06,7.486270207235357e-05,0.0,4.4883707243537074e-05,0.0,-1.994770104196686e-05
21,2.698,5.18029,15.5409,-2.8485e-14,8.97252,-6.87866e-17,2.39178e-17,2.49357e-06,6.73263e-05,-2.99228e-05,0.000112294,-4.23518e-22,-7.33555e-22,0.0,2.4935731088859825e-06,0.00011230030520725798,0.0,6.732856646629592e-05,0.0,-2.9922352317468537e-05
22,4.047,31.1929,93.5787,-1.03264e-09,54.0277,-8.08225e-16,-1.7395e-16,1.5015e-05,0.000405403,-0.000180179,0.000676171,-3.02527e-20,1.82072e-21,0.0,1.5015112725613733e-05,0.0006763996551444329,0.0,0.00040548518690219915,0.0,-0.00018016276873877857
23,6.071,70.3658,211.097,-9.04826e-07,121.877,1.29847e-16,-7.14917e-16,3.38711e-05,0.000914519,-0.000406453,0.00152533,-2.03309e-20,-3.52142e-20,0.0,3.3871673632113186e-05,0.0015264939075101402,0.0,0.0009149373000056915,0.0,-0.00040637040916957634
24,8.776,121.265,363.803,0.000125525,210.04,-0.000175366,-0.000303663,5.55275e-05,0.0015932,-0.000714762,0.00266339,-2.22752e-09,-3.85971e-09,2.76965e-05,5.552904168015793e-05,0.002666939974101723,-2.2275199462740147e-09,0.0015944698173882,-3.8597099960568926e-09,-0.0007145066184910398
25,11.48,127.223,381.862,0.0788983,220.486,-0.00359993,-0.00622104,-3.50183e-05,0.00223289,-0.00121752,0.0039314,-6.5201e-08,-1.14313e-07,0.000935889,-3.501768686653417e-05,0.0039391380901661055,-6.52009978230339e-08,0.0022353847553686634,-1.143129935154974e-07,-0.001216779123232703
26,14.19,132.196,396.705,0.000142415,229.004,-0.00657241,-0.0113638,-0.000127417,0.00287129,-0.00172552,0.0052004,-1.38508e-07,-2.44043e-07,0.00186426,-0.00012740888279871854,0.0052139455506612364,-1.3850799041037476e-07,0.0028754161012649604,-2.4404297027658117e-07,-0.0017240321462616004
27,16.89,136.388,409.325,-5.38071e-06,236.278,-0.00896588,-0.0154961,-0.00022187,0.00350833,-0.00223573,0.00647062,-2.16875e-07,-3.83376e-07,0.00280605,-0.0002218453886716487,0.006491599687710847,-2.1687497653299914e-07,0.003514491392987429,-3.833759265603476e-07,-0.002233232617188108
28,19.6,140.045,420.332,5.57485e-06,242.622,-0.0110047,-0.0190136,-0.000317568,0.00414428,-0.00274775,0.0077411,-3.00835e-07,-5.33134e-07,0.00375736,-0.00031751758062004143,0.0077711397782180835,-3.0083495472510435e-07,0.004152879403700904,-5.331338578384859e-07,-0.002743978390239765
29,22.3,143.293,430.109,2.54289e-06,248.257,-0.0127727,-0.0220622,-0.000414189,0.00477926,-0.00326102,0.00901149,-3.89738e-07,-6.92066e-07,0.0047157,-0.0004141032355773344,0.009052215717219259,-3.8973792404473073e-07,0.004790698878939237,-6.920657604769787e-07,-0.003255708649321898
30,25.01,146.22,438.916,1.13962e-06,253.334,-0.0143283,-0.024743,-0.000511519,0.00541333,-0.00377518,0.0102815,-4.83017e-07,-8.59087e-07,0.00567936,-0.0005113881964601275,0.010334536229281488,-4.830168833791504e-07,0.005428008545495189,-8.590866309443612e-07,-0.0037680629668277454
31,27.71,148.885,446.938,4.64621e-07,257.958,-0.0157133,-0.0271289,-0.000609403,0.00604656,-0.00428994,0.011551,-5.80182e-07,-1.03327e-06,0.00664712,-0.0006092173517051602,0.011617970410502831,-5.801818316886198e-07,0.006064877344280406,-1.03326946621074e-06,-0.004280751351677492
32,30.42,151.335,454.312,1.30875e-07,262.209,-0.0169589,-0.0292737,-0.000707728,0.00667898,-0.00480512,0.0128199,-6.80812e-07,-1.21383e-06,0.00761812,-0.0007074776196095423,0.012902427204426692,-6.80811768294376e-07,0.006701334126796743,-1.213829263324584e-06,-0.004793593879746649
33,33.12,153.604,461.139,-3.38779e-08,266.144,-0.0180884,-0.031218,-0.000806408,0.00731063,-0.00532057,0.014088,-7.84546e-07,-1.40008e-06,0.00859167,-0.0008060829404514802,0.01418770352958365,-7.845456921895533e-07,0.007337417894505149,-1.400079019941991e-06,-0.005306440836944315
34,35.83,155.717,467.5,-1.12063e-07,269.811,-0.0191202,-0.0329934,-0.000905377,0.00794151,-0.00583617,0.0153553,-8.91073e-07,-1.59146e-06,0.00956725,-0.0009049672699066313,0.01547379836813323,-8.910726030375571e-07,0.007973127431837979,-1.591458733574136e-06,-0.005819172642430592
35,38.53,157.697,473.459,-1.45194e-07,273.246,-0.0200685,-0.0346248,-0.00100458,0.00857167,-0.00635184,0.0166217,-1.00012e-06,-1.78745e-06,0.0105445,-0.0010040755784367361,0.016760609022914208,-1.000119499883212e-06,0.008608511953749565,-1.7874484025126591e-06,-0.006331709708321975
36,41.24,159.56,479.065,-1.55008e-07,276.477,-0.0209448,-0.0361319,-0.00110398,0.0092011,-0.00686749,0.0178872,-1.11146e-06,-1.98762e-06,0.011523,-0.0011033708382677254,0.01804813408328476,-1.1114593823080554e-06,0.009243560247686133,-1.987618024723581e-06,-0.006843962679238258
37,43.94,161.32,484.362,-1.53215e-07,279.53,-0.0217585,-0.037531,-0.00120354,0.00982982,-0.00738307,0.0191517,-1.22488e-06,-2.1916e-06,0.0125025,-0.0012028160362032025,0.019336270201253836,-1.2248792498059657e-06,0.009878291372052761,-2.1915975983999303e-06,-0.007355882089915111
38,46.65,162.989,489.382,-1.4624e-07,282.425,-0.0225173,-0.0388354,-0.00130323,0.0104579,-0.00789853,0.0204152,-1.34021e-06,-2.39906e-06,0.0134828,-0.0013023811645662686,0.02062501557209173,-1.3402091019187878e-06,0.010512774961666471,-2.399057122293158e-06,-0.007867418577307883
39,49.35,164.575,494.157,-1.37632e-07,285.177,-0.0232274,-0.040056,-0.00140302,0.0110852,-0.00841383,0.0216776,-1.45728e-06,-2.60968e-06,0.0144637,-0.0014020362275777298,0.021914266195525167,-1.4572789381883666e-06,0.01114686848804114,-2.6096765948224743e-06,-0.008378532796626592
40,52.06,166.088,498.709,-1.29343e-07,287.801,-0.0238944,-0.0412021,-0.0015029,0.0117119,-0.00892893,0.0229391,-1.57594e-06,-2.82323e-06,0.0154451,-0.0015017712113511994,0.02320422451247106,-1.5759387581582018e-06,0.011780752837436959,-2.8232260146365817e-06,-0.008889185484492357
41,54.76,167.534,503.061,-1.22413e-07,290.31,-0.0245226,-0.0422815,-0.00160285,0.0123378,-0.00944381,0.0241994,-1.69609e-06,-3.03945e-06,0.0164267,-0.0016015661219849209,0.024494581744438415,-1.6960885615979748e-06,0.012414224634956561,-3.0394453808257893e-06,-0.0093993572707749
42,57.47,168.919,507.229,-1.17364e-07,292.713,-0.0251161,-0.0433011,-0.00170285,0.0129632,-0.00995844,0.0254587,-1.81759e-06,-3.25815e-06,0.0174086,-0.0017014009735470959,0.025785540452775813,-1.817588348163035e-06,0.013047586522661803,-3.2581446922641533e-06,-0.009909018924705748
43,60.17,170.249,511.231,-1.14418e-07,295.019,-0.0256781,-0.0442665,-0.00180289,0.0135878,-0.0104728,0.0267169,-1.94035e-06,-3.47914e-06,0.0183906,-0.0018012657700731127,0.02707699610415193,-1.940348117512869e-06,0.013680533694028219,-3.47913394782573e-06,-0.0104181511718755
44,62.88,171.528,515.079,-1.13628e-07,297.238,-0.0262115,-0.0451827,-0.00190295,0.0142118,-0.0109869,0.027974,-2.06427e-06,-3.70225e-06,0.0193726,-0.0019011405386022417,0.0283689464812249,-2.064267869417158e-06,0.014313267739544555,-3.7022431467192973e-06,-0.010926764450112536
45,65.58,172.759,518.786,-1.14949e-07,299.375,-0.0267189,-0.046054,-0.00200304,0.0148352,-0.0115006,0.02923,-2.18928e-06,-3.92732e-06,0.0203545,-0.0020010352541314225,0.029661389362228174,-2.189277603537043e-06,0.014945787766661223,-3.9273122880434386e-06,-0.011434720891432382
46,68.29,173.948,522.362,-1.18287e-07,301.436,-0.0272025,-0.0468844,-0.00210314,0.0154579,-0.0120141,0.0304849,-2.3153e-06,-4.15422e-06,0.0213362,-0.002100929950689445,0.030954322520976296,-2.315297319643861e-06,0.015577991324853047,-4.154211371232286e-06,-0.011942218851001885
47,70.99,175.096,525.817,-1.23523e-07,303.428,-0.0276641,-0.0476771,-0.00220324,0.01608,-0.0125272,0.0317387,-2.44225e-06,-4.38282e-06,0.0223178,-0.002200814648288696,0.03224774372686734,-2.442247017730992e-06,0.016209978952625992,-4.382810395497927e-06,-0.01244906125697065
48,73.7,176.206,529.159,-1.30528e-07,305.354,-0.0281056,-0.0484352,-0.00230333,0.0167014,-0.0130399,0.0329913,-2.57008e-06,-4.61301e-06,0.0232992,-0.002300679370937253,0.03354154739072879,-2.57007669735021e-06,0.01684164807281663,-4.612999360054104e-06,-0.0129552488509862
49,76.4,177.282,532.396,-1.39173e-07,307.221,-0.0285285,-0.0491612,-0.00240341,0.0173222,-0.0135523,0.0342428,-2.69872e-06,-4.84467e-06,0.0242802,-0.0024005241226310314,0.03483583436843274,-2.698716358495723e-06,0.017473099350137078,-4.844658264557822e-06,-0.013460881027448468
50,79.11,178.325,535.535,-1.49336e-07,309.03,-0.0289341,-0.0498576,-0.00250348,0.0179423,-0.0140643,0.0354931,-2.82812e-06,-5.07772e-06,0.0252609,-0.0025003489073656127,0.036130498802958044,-2.8281160008303274e-06,0.01810423008090334,-5.077707108447349e-06,-0.013965859770772693
51,81.81,179.338,538.582,-1.609e-07,310.786,-0.0293237,-0.0505264,-0.00260353,0.0185618,-0.014576,0.0367423,-2.95824e-06,-5.31206e-06,0.0262412,-0.002600143755137063,0.03742564179995611,-2.958235624461736e-06,0.018735141055935323,-5.312045891048278e-06,-0.014470284372287257
52,84.52,180.321,541.542,-1.73758e-07,312.493,-0.0296984,-0.0511695,-0.00270354,0.0191807,-0.0150873,0.0379904,-3.08903e-06,-5.54762e-06,0.0272211,-0.0026998887269296112,0.03872126110652663,-3.089025228941722e-06,0.019365831381724652,-5.54760461202175e-06,-0.014974056915461942
53,87.22,181.278,544.421,-1.87812e-07,314.152,-0.0300591,-0.0517887,-0.00280353,0.019799,-0.0155982,0.0392373,-3.22044e-06,-5.7843e-06,0.0282005,-0.0027996037797187734,0.040017250463652454,-3.220434814377171e-06,0.01999630016460685,-5.784283270915402e-06,-0.015477178136524383
54,89.93,182.209,547.223,-2.02971e-07,315.767,-0.0304068,-0.0523856,-0.00290349,0.0204166,-0.0161087,0.0404831,-3.35244e-06,-6.02206e-06,0.0291795,-0.0028992789494768356,0.041313711352090055,-3.3524343805435564e-06,0.0206264444481139,-6.022041867392858e-06,-0.015979648770543697
55,92.63,183.116,549.952,-2.19154e-07,317.34,-0.0307423,-0.0529615,-0.0030034,0.0210337,-0.0166188,0.0417277,-3.48499e-06,-6.26081e-06,0.030158,-0.0029988943061490803,0.04261053724458996,-3.4849839274375682e-06,0.021256467400571077,-6.260790401224625e-06,-0.01648146955143459
56,95.34,184.0,552.612,-2.36287e-07,318.874,-0.0310663,-0.0535177,-0.00310328,0.0216501,-0.0171285,0.0429711,-3.61806e-06,-6.50049e-06,0.0311359,-0.0030984698037026526,0.04390772548140087,-3.61805345483468e-06,0.021886163939612402,-6.500468871850629e-06,-0.016982641211956362
57,98.04,184.863,555.208,-2.54304e-07,320.37,-0.0313796,-0.0540554,-0.00320311,0.0222659,-0.0176378,0.0442134,-3.75161e-06,-6.74106e-06,0.0321134,-0.0031979855160526593,0.04520537791868806,-3.7516029627315817e-06,0.022515635233686382,-6.7410372791565365e-06,-0.017483164483717006
58,100.7,185.704,557.742,-2.73145e-07,321.831,-0.0316828,-0.0545757,-0.0033029,0.022881,-0.0181467,0.0454546,-3.88562e-06,-6.98245e-06,0.0330902,-0.0032974514261437937,0.046503492276877445,-3.8856124510155965e-06,0.023144778073962646,-6.98242562280349e-06,-0.01798304009717322
59,103.5,186.527,560.216,-2.92754e-07,323.258,-0.0319763,-0.0550796,-0.00340264,0.0234956,-0.0186552,0.0466946,-4.02006e-06,-7.22462e-06,0.0340665,-0.003396857580871271,0.04780196149183702,-4.02005191957322e-06,0.023773796132016134,-7.224593902455112e-06,-0.018482268781633726
60,106.2,187.331,562.635,-3.13082e-07,324.652,-0.0322608,-0.055568,-0.00350232,0.0241095,-0.0191632,0.0479334,-4.15491e-06,-7.46753e-06,0.0350421,-0.003496194031096689,0.049100782885604044,-4.154901368402797e-06,0.02440248382140342,-7.467502118108094e-06,-0.01898075316333947
61,108.9,188.117,565.001,-3.34085e-07,326.016,-0.0325368,-0.0560417,-0.00360196,0.0247229,-0.0196708,0.0491711,-4.29013e-06,-7.71112e-06,0.0360172,-0.003595480723778244,0.05040005881562726,-4.290120797389996e-06,0.025031045065003976,-7.711090269424403e-06,-0.019478592170804387
62,111.6,188.886,567.316,-3.55721e-07,327.35,-0.0328047,-0.0565015,-0.00370154,0.0253356,-0.0201781,0.0504076,-4.42571e-06,-7.95535e-06,0.0369916,-0.003694697745710407,0.05169968181468576,-4.425700206533989e-06,0.025659274024604217,-7.955318356289709e-06,-0.019975884532123622
63,114.3,189.639,569.582,-3.77955e-07,328.656,-0.0330648,-0.0569481,-0.00380106,0.0259477,-0.0206849,0.051643,-4.56163e-06,-8.2002e-06,0.0379654,-0.003793845115735661,0.052999754491142914,-4.561619595833122e-06,0.02628727224548255,-8.200166378480311e-06,-0.020472434917347182
64,117.0,190.377,571.802,-4.00752e-07,329.936,-0.0333177,-0.0573822,-0.00390053,0.0265593,-0.0211912,0.0528772,-4.69787e-06,-8.44562e-06,0.0389385,-0.003892932813753802,0.05430016910892488,-4.697858965063695e-06,0.026915141524042063,-8.445584335881051e-06,-0.02096824419883747
65,119.7,191.099,573.977,-4.24082e-07,331.19,-0.0335636,-0.0578044,-0.00399994,0.0271702,-0.0216972,0.0541103,-4.8344e-06,-8.69158e-06,0.039911,-0.003991950895527396,0.055601028527494156,-4.834388314334248e-06,0.027542675644779857,-8.691542228378424e-06,-0.021463508954722488
66,122.4,191.808,576.11,-4.47917e-07,332.419,-0.033803,-0.0582153,-0.00409928,0.0277805,-0.0222027,0.0553422,-4.97121e-06,-8.93804e-06,0.0408828,-0.004090889420767518,0.05690222474178985,-4.971197643532932e-06,0.028169976341062775,-8.938000055858097e-06,-0.021958034149172523
67,125.1,192.503,578.201,-4.72232e-07,333.625,-0.034036,-0.0586154,-0.00419857,0.0283902,-0.0227077,0.0565729,-5.10829e-06,-9.18498e-06,0.0418539,-0.004189768327432342,0.05820375504217279,-5.108276952658919e-06,0.02879704271739758,-9.184937818207395e-06,-0.02245182065034157
68,127.8,193.185,580.254,-4.97002e-07,334.808,-0.034263,-0.0590052,-0.00429779,0.0289994,-0.0232124,0.0578025,-5.24561e-06,-9.43237e-06,0.0428243,-0.004288567717100067,0.05950572266502818,-5.245596241820749e-06,0.029423976820559528,-9.432325515312812e-06,-0.022945064735844345
69,130.5,193.854,582.268,-5.22209e-07,335.969,-0.0344843,-0.0593851,-0.00439695,0.0296079,-0.0237166,0.059031,-5.38317e-06,-9.68018e-06,0.043794,-0.0043872975676185755,0.06080812528232982,-5.383155510796378e-06,0.030050571932683345,-9.680133147171865e-06,-0.023437571662774603
70,133.2,194.512,584.247,-5.4783e-07,337.11,-0.0347001,-0.0597557,-0.00449604,0.0302158,-0.0242204,0.0602583,-5.52094e-06,-9.92839e-06,0.044763,-0.0044859479425888305,0.062110854350660105,-5.520924759583323e-06,0.0306769300376184,-9.92834071367188e-06,-0.02392943990215779
71,135.9,195.158,586.19,-5.73848e-07,338.23,-0.0349107,-0.0601173,-0.00459506,0.0308232,-0.0247237,0.0614844,-5.65892e-06,-1.0177e-05,0.0457313,-0.004584518863696818,0.06341390714245132,-5.658903988292607e-06,0.03130315336969636,-1.0176948214479786e-05,-0.02442057261114161
72,138.6,195.792,588.1,-6.00248e-07,339.331,-0.0351163,-0.0604703,-0.00469402,0.0314299,-0.0252266,0.0627095,-5.7971e-06,-1.04259e-05,0.0466989,-0.004683020305778274,0.0647174938690982,-5.79708319681238e-06,0.03192903483479004,-1.0425845650474663e-05,-0.024911068159731986
73,141.3,196.416,589.977,-6.27013e-07,340.413,-0.0353171,-0.0608151,-0.00479291,0.0320361,-0.025729,0.0639333,-5.93545e-06,-1.06752e-05,0.0476657,-0.004781442335342834,0.06602129276991908,-5.9354323852511826e-06,0.03255477985986155,-1.0675143020222322e-05,-0.025400829800662827
74,144.0,197.029,591.823,-6.54128e-07,341.477,-0.0355133,-0.0611521,-0.00489173,0.0326417,-0.0262311,0.065156,-6.07397e-06,-1.09247e-05,0.0486318,-0.004879784974021417,0.06732551417786303,-6.0739515534979915e-06,0.033180284418208084,-1.0924640325704615e-05,-0.025890053214204012
75,146.7,197.632,593.638,-6.81583e-07,342.523,-0.035705,-0.0614814,-0.00499048,0.0332467,-0.0267326,0.0663776,-6.21265e-06,-1.11746e-05,0.0495972,-0.004978048243426514,0.06863015573880427,-6.21263070155198e-06,0.03380554761332588,-1.1174537564384579e-05,-0.026378446877570072
76,149.4,198.226,595.425,-7.09363e-07,343.553,-0.0358925,-0.0618035,-0.00508916,0.0338511,-0.0272338,0.067598,-6.35148e-06,-1.14247e-05,0.0505618,-0.005076232165151517,0.06993510810083547,-6.35145982941232e-06,0.03443056854860305,-1.1424634738355088e-05,-0.02686630373285448
77,152.1,198.81,597.183,-7.37458e-07,344.567,-0.036076,-0.0621186,-0.00518777,0.0344549,-0.0277345,0.0688173,-6.49045e-06,-1.1675e-05,0.0515257,-0.005174336760771059,0.07124047563373592,-6.490428937078185e-06,0.035055346327322656,-1.1674931847505121e-05,-0.027353429812384644
78,154.8,199.385,598.914,-7.65857e-07,345.564,-0.0362555,-0.0624271,-0.00528631,0.0350581,-0.0282347,0.0700354,-6.62955e-06,-1.19256e-05,0.0524888,-0.005272362051841117,0.07254614871585296,-6.6295280245487476e-06,0.03567988005266254,-1.192552889028864e-05,-0.027839825968972165
79,157.6,199.952,600.618,-7.94551e-07,346.547,-0.0364313,-0.062729,-0.00538477,0.0356608,-0.0287346,0.0712524,-6.76876e-06,-1.21765e-05,0.0534512,-0.005370298113602012,0.0738522319692978,-6.768737092044397e-06,0.036304272458120845,-1.2176425866705642e-05,-0.028325687388790488
80,160.3,200.509,602.297,-8.23531e-07,347.514,-0.0366034,-0.0630248,-0.00548316,0.0362629,-0.0292339,0.0724683,-6.90809e-06,-1.24275e-05,0.0544128,-0.0054681549158264176,0.07515872301842164,-6.9080661392328935e-06,0.036928419141071256,-1.2427422778960029e-05,-0.02881072327379186
81,163.0,201.059,603.951,-8.52788e-07,348.468,-0.036772,-0.0633146,-0.00558148,0.0368644,-0.0297329,0.073683,-7.04752e-06,-1.26787e-05,0.0553736,-0.005565932480011138,0.07646551183678052,-7.0474951663346275e-06,0.0375523192043179,-1.2678619625616783e-05,-0.02929522582943711
82,165.7,201.601,605.581,-8.82313e-07,349.407,-0.0369373,-0.0635987,-0.00567973,0.0374653,-0.0302314,0.0748966,-7.18705e-06,-1.29301e-05,0.0563337,-0.005663630827635102,0.07777270342536324,-7.1870241732385765e-06,0.038175971750569415,-1.2930016406564881e-05,-0.029779001568239982
83,168.4,202.134,607.188,-9.12101e-07,350.334,-0.0370994,-0.0638772,-0.0057779,0.0380656,-0.0307294,0.076109,-7.32666e-06,-1.31816e-05,0.057293,-0.005761240037770565,0.07908018748767698,-7.326633160054108e-06,0.038799375882440534,-1.3181513123128319e-05,-0.030262051336083617
84,171.1,202.661,608.772,-9.42145e-07,351.247,-0.0372583,-0.0641503,-0.005876,0.0386654,-0.031227,0.0773203,-7.46636e-06,-1.34333e-05,0.0582515,-0.005858770076195952,0.08038806927747144,-7.466332126782049e-06,0.039422634644712407,-1.3433209773650034e-05,-0.030744472902898834
85,173.8,203.18,610.334,-9.72436e-07,352.147,-0.0374142,-0.0644183,-0.00597402,0.0392646,-0.0317242,0.0785305,-7.60613e-06,-1.36851e-05,0.0592092,-0.005956211023894209,0.08169634639772294,-7.606101073420746e-06,0.04004564332215077,-1.3685006359454022e-05,-0.031226266967041894
86,176.5,203.692,611.875,-1.00297e-06,353.035,-0.0375672,-0.0646813,-0.00607196,0.0398632,-0.0322209,0.0797396,-7.74597e-06,-1.39371e-05,0.0601662,-0.006053562905187326,0.08300501644719982,-7.74594000008122e-06,0.04066840101702596,-1.3937002879105265e-05,-0.03170733739650777
87,179.2,204.197,613.395,-1.03374e-06,353.911,-0.0377174,-0.0649395,-0.00616984,0.0404612,-0.0327172,0.0809475,-7.88587e-06,-1.41892e-05,0.0611224,-0.00615084562135626,0.08431396858906304,-7.885838906651621e-06,0.0412909068315217,-1.4189099333816735e-05,-0.03218778181281423
88,181.9,204.695,614.894,-1.06474e-06,354.776,-0.0378648,-0.065193,-0.00626763,0.0410587,-0.033213,0.0821543,-8.02582e-06,-1.44413e-05,0.0620778,-0.006248029378285724,0.08562330858320233,-8.025787793242145e-06,0.04191326405906004,-1.4441195724912426e-05,-0.032667504177590234
89,184.6,205.187,616.375,-1.09597e-06,355.629,-0.0380096,-0.0654421,-0.00636535,0.0416556,-0.0337084,0.08336,-8.16583e-06,-1.46936e-05,0.0630324,-0.006345134076242043,0.0869330340156742,-8.165796659742597e-06,0.04253536773474775,-1.4693492049633328e-05,-0.03314660201368824
90,187.3,205.672,617.836,-1.12742e-06,356.471,-0.0381519,-0.0656868,-0.00646299,0.042252,-0.0342034,0.0845646,-8.30588e-06,-1.49459e-05,0.0639863,-0.006442149800966024,0.08824314246835008,-8.305845506262344e-06,0.04315732127617555,-1.4945788310627428e-05,-0.03362507601360665
91,190.0,206.152,619.278,-1.15909e-06,357.303,-0.0382917,-0.0659273,-0.00656056,0.0428477,-0.0346979,0.085768,-8.44598e-06,-1.51984e-05,0.0649393,-0.006539086511275549,0.08955352256356197,-8.445944332802213e-06,0.043778915215833436,-1.5198284504913673e-05,-0.034102830279040264
92,192.7,206.625,620.703,-1.19097e-06,358.124,-0.0384292,-0.0661637,-0.00665804,0.043443,-0.0351919,0.0869703,-8.58611e-06,-1.54509e-05,0.0658916,-0.006635924361168999,0.09086428056801976,-8.586073139471573e-06,0.044400461789043444,-1.5450780635473116e-05,-0.034579865643446395
93,195.4,207.092,622.11,-1.22307e-06,358.935,-0.0385643,-0.0663961,-0.00675546,0.0440376,-0.0356856,0.0881715,-8.72626e-06,-1.57034e-05,0.0668431,-0.006732693175732329,0.0921754140509572,-8.726221926269595e-06,0.04502164696367417,-1.5703276702305757e-05,-0.035056375927535854
94,198.1,207.554,623.499,-1.25536e-06,359.736,-0.0386972,-0.0666248,-0.00685279,0.0446317,-0.0361788,0.0893716,-8.86645e-06,-1.5956e-05,0.0677938,-0.006829363178183612,0.09348692057744401,-8.866410693197935e-06,0.045642678783370805,-1.5955872703754537e-05,-0.03553216878276566
95,200.8,208.01,624.872,-1.28786e-06,360.527,-0.0388279,-0.0668497,-0.00695005,0.0452252,-0.0366715,0.0905706,-9.00666e-06,-1.62086e-05,0.0687437,-0.006925954257020472,0.0947987977083935,-9.006619440143915e-06,0.04626345190943204,-1.6208468641365492e-05,-0.03600724503856023
96,203.5,208.461,626.229,-1.32056e-06,361.309,-0.0389565,-0.0670711,-0.00704722,0.0458182,-0.0371638,0.0917684,-9.14688e-06,-1.64613e-05,0.0696928,-0.007022446573890173,0.09611093338946852,-9.146838167439775e-06,0.04688407013153051,-1.6461164513592585e-05,-0.03648170187469513
97,206.2,208.906,627.57,-1.35345e-06,362.082,-0.0390831,-0.067289,-0.00714432,0.0464106,-0.0376557,0.0929652,-9.28712e-06,-1.6714e-05,0.0706411,-0.007118860013379691,0.09742354426422217,-9.287076874864297e-06,0.04750442798653087,-1.6713860321870833e-05,-0.0369555399755076
98,208.9,209.347,628.895,-1.38654e-06,362.846,-0.0392078,-0.0675035,-0.00724134,0.0470024,-0.0381471,0.0941608,-9.42736e-06,-1.69667e-05,0.0715886,-0.007215184668796448,0.09873640852761056,-9.42731556252685e-06,0.04812452457549621,-1.6966556066311256e-05,-0.0374286637671275
99,211.7,209.782,630.205,-1.41981e-06,363.601,-0.0393305,-0.0677147,-0.00733829,0.0475937,-0.0386381,0.0953553,-9.56761e-06,-1.72194e-05,0.0725353,-0.007311430491051318,0.10004963333496697,-9.567564230539283e-06,0.04874446387386855,-1.7219251747024877e-05,-0.037901170283375474
100,214.4,210.212,631.5,-1.45328e-06,364.347,-0.0394513,-0.0679228,-0.00743515,0.0481844,-0.0391286,0.0965488,-9.70787e-06,-1.74721e-05,0.0734812,-0.007407577649411912,0.10136332636272671,-9.707822878790573e-06,0.049364140232072584,-1.7471947363789653e-05,-0.038372964042472923
101,217.1,210.638,632.781,-1.48693e-06,365.086,-0.0395703,-0.0681278,-0.00753194,0.0487746,-0.0396187,0.0977411,-9.84812e-06,-1.77249e-05,0.0744263,-0.007503646020667332,0.10267726500561536,-9.848071507390088e-06,0.04998365774927338,-1.77247429148375e-05,-0.03884414198121067
102,219.8,211.058,634.047,-1.52076e-06,365.816,-0.0396876,-0.0683298,-0.00762864,0.0493642,-0.0401084,0.0989323,-9.98837e-06,-1.79776e-05,0.0753706,-0.007599615777884594,0.10399155680047278,-9.988320116449678e-06,0.050602910651698974,-1.7977438403926627e-05,-0.03931470477817778
103,222.5,211.475,635.3,-1.55477e-06,366.538,-0.0398032,-0.0685288,-0.00772527,0.0499533,-0.0405976,0.100122,-1.01286e-05,-1.82303e-05,0.0763141,-0.007695506793962914,0.10530575715266921,-1.0128548705856666e-05,0.05122200316215886,-1.8230133829066908e-05,-0.0397845570893548
104,225.2,211.886,636.54,-1.58895e-06,367.252,-0.0399171,-0.0687251,-0.00782182,0.0505418,-0.0410864,0.101311,-1.02688e-05,-1.8483e-05,0.0772569,-0.007791309167847982,0.1066207473046501,-1.0268747276054313e-05,0.05184082938277501,-1.8482829190369365e-05,-0.04025379570658849
105,227.9,212.294,637.766,-1.62332e-06,367.959,-0.0400295,-0.0689186,-0.00791829,0.0511298,-0.0415747,0.102499,-1.04091e-05,-1.87357e-05,0.0781988,-0.007887022923425135,0.10793619397305676,-1.0409045825499064e-05,0.05245949365992475,-1.8735524487834e-05,-0.04072232537731646
106,230.6,212.697,638.979,-1.65786e-06,368.658,-0.0401402,-0.0691094,-0.00801468,0.0517172,-0.0420627,0.103686,-1.05493e-05,-1.89884e-05,0.0791399,-0.007982648084557065,0.1092520950680973,-1.0549244356283793e-05,0.053077889971716585,-1.898821972146081e-05,-0.04119033867799915
107,233.3,213.096,640.179,-1.69257e-06,369.35,-0.0402495,-0.0692977,-0.008111,0.052304,-0.0425501,0.104872,-1.06895e-05,-1.9241e-05,0.0800802,-0.008078194594299704,0.1105684484961329,-1.0689442867528598e-05,0.053696017418408015,-1.92408148931289e-05,-0.04165754863861093
108,236.0,213.49,641.368,-1.72745e-06,370.035,-0.0403572,-0.0694834,-0.00820723,0.0528904,-0.0430372,0.106057,-1.08296e-05,-1.94936e-05,0.0810197,-0.00817364263707765,0.1118852521596807,-1.0829541360113382e-05,0.05431408596300824,-1.9493410000959166e-05,-0.042124243573889886
109,238.7,213.881,642.544,-1.7625e-06,370.713,-0.0404636,-0.0696667,-0.00830338,0.0534761,-0.0435238,0.10724,-1.09698e-05,-1.97461e-05,0.0819585,-0.008269002156855665,0.11320139075547164,-1.0969739831945269e-05,0.05493177859678644,-1.974590504705276e-05,-0.04259023253265837
110,241.4,214.268,643.708,-1.79772e-06,371.384,-0.0405685,-0.0698476,-0.00839946,0.0540614,-0.0440099,0.108423,-1.11099e-05,-1.99986e-05,0.0828964,-0.008364283093759028,0.11451908726454518,-1.110983828533918e-05,0.055549410899260465,-1.9998400029308527e-05,-0.043055516324236986
111,244.1,214.651,644.861,-1.8331e-06,372.048,-0.0406721,-0.0700261,-0.00849545,0.054646,-0.0444957,0.109604,-1.125e-05,-2.02511e-05,0.0838335,-0.008459465637865704,0.11583611185654852,-1.124993671897112e-05,0.056166665490810175,-2.0250894947837494e-05,-0.04352028705245625
112,246.8,215.03,646.002,-1.86865e-06,372.706,-0.0407743,-0.0702024,-0.00859137,0.0552302,-0.044981,0.110784,-1.139e-05,-2.05035e-05,0.0847698,-0.008554569644660504,0.11715357561928941,-1.1389935134165086e-05,0.05678385832126209,-2.0503289804629787e-05,-0.0439843540421867
113,249.5,215.405,647.132,-1.90436e-06,373.357,-0.0408753,-0.0703765,-0.0086872,0.0558138,-0.0454658,0.111963,-1.153e-05,-2.07558e-05,0.0857054,-0.008649575307982493,0.11847147643481404,-1.1529933529819125e-05,0.05740077738045013,-2.075558459990745e-05,-0.044447718098824196
114,252.2,215.777,648.251,-1.94024e-06,374.002,-0.040975,-0.0705485,-0.00878296,0.0563968,-0.0459503,0.113142,-1.167e-05,-2.10081e-05,0.0866401,-0.008744502479465455,0.11979093197172808,-1.1669931905822217e-05,0.05801742176803604,-2.1007879331458312e-05,-0.044910571044225134
115,254.9,216.145,649.36,-1.97627e-06,374.641,-0.0410734,-0.0707184,-0.00887863,0.0569794,-0.0464343,0.114319,-1.181e-05,-2.12603e-05,0.087574,-0.008839331356701563,0.1211097018424836,-1.1809930262174362e-05,0.05863400231042992,-2.1260074001383522e-05,-0.045372722478170924
116,257.6,216.51,650.458,-2.01247e-06,375.274,-0.0411707,-0.0708862,-0.00897423,0.0575613,-0.0469178,0.115495,-1.19499e-05,-2.15125e-05,0.0885071,-0.008934081787481007,0.12242890238973692,-1.1949828600199552e-05,0.059250200701908895,-2.1512268607803975e-05,-0.04583417320215055
117,260.3,216.871,651.546,-2.04882e-06,375.901,-0.0412668,-0.0710521,-0.00906975,0.0581428,-0.047401,0.11667,-1.20898e-05,-2.17646e-05,0.0894395,-0.009028743882855128,0.12374853148030973,-1.2089726918684818e-05,0.05986633381695872,-2.176436315282082e-05,-0.04629511475721115
118,263.0,217.229,652.623,-2.08533e-06,376.522,-0.0413618,-0.071216,-0.00916519,0.0587237,-0.0478837,0.117843,-1.22296e-05,-2.20166e-05,0.090371,-0.009123317666406283,0.12506746190920293,-1.2229525218732107e-05,0.060482189028100874,-2.201635763643406e-05,-0.046755357016912136
119,265.8,217.584,653.691,-2.122e-06,377.138,-0.0414557,-0.0713781,-0.00926054,0.0593041,-0.0483659,0.119016,-1.23694e-05,-2.22685e-05,0.0913017,-0.009217793253871509,0.12638794035122158,-1.236932349923947e-05,0.0610978715443955,-2.2268252058754712e-05,-0.047214900778853486
120,268.5,217.936,654.749,-2.15882e-06,377.748,-0.0415486,-0.0715383,-0.00935582,0.0598839,-0.0488478,0.120188,-1.25092e-05,-2.25204e-05,0.0922317,-0.009312190485374683,0.1277088409138456,-1.2509121760317932e-05,0.0617132744783877,-2.252014641768163e-05,-0.0476739373044337
121,270.5,218.199,655.542,-2.31694e-06,378.205,-0.0416179,-0.071658,-0.00942776,0.0603216,-0.0492115,0.121072,-1.26147e-05,-2.27106e-05,0.0929337,-0.009383458002867995,0.1287061762865005,-1.2614620435003054e-05,0.06217808809566616,-2.2710342116316617e-05,-0.0480202353153254
