,Time,S11,S22,S33,S12,S13,S23,LE11,LE22,LE33,LE12,LE13,LE23,SDV_EPBAR,E11,E12,E13,E22,E23,E33
0,0.0002705,0.000519365,0.0015581,-7.79048e-12,0.000899567,2.21372e-21,3.68811e-20,2.50301e-10,6.7501e-09,-3.0004e-09,1.1258e-08,2.76762e-26,4.61603e-25,0.0,2.5030089112476617e-10,1.1258000087721598e-08,0.0,6.750100034480511e-09,0.0,-3.0004000395322805e-09
1,0.000541,0.00103873,0.00311619,4.33681e-19,0.00179913,-3.08331e-20,-2.03577e-20,5.00425e-10,1.35001e-08,-6.00057e-09,2.25162e-08,-1.63975e-24,4.6912e-25,0.0,5.00425034744012e-10,2.2516200237632233e-08,0.0,1.3500100148888805e-08,0.0,-6.000569929831556e-09
2,0.00094675,0.00181778,0.00545333,6.50521e-19,0.00314848,1.87371e-20,6.55005e-20,8.75688e-10,2.36252e-08,-1.05009e-08,3.94034e-08,-1.73568e-24,1.95724e-24,0.0,8.756879665838824e-10,3.9403400764470575e-08,0.0,2.3625200240573463e-08,0.0,-1.0500899927379237e-08
3,0.0015554,0.00298635,0.00895905,1.73472e-18,0.00517251,4.73565e-20,4.89771e-20,1.4375e-09,3.88125e-08,-1.725e-08,6.47354e-08,4.1359e-25,7.16359e-25,0.0,1.4374998968946784e-09,6.473540214990692e-08,0.0,3.8812500768869995e-08,0.0,-1.7249999872959165e-08
4,0.0024683,0.00473921,0.0142176,0.0,0.00820854,1.00168e-19,-5.78319e-20,2.28125e-09,6.15937e-08,-2.7375e-08,1.02732e-07,-7.41318e-35,-1.284e-34,0.0,2.281250077729169e-09,1.027320053470504e-07,0.0,6.159370191660685e-08,0.0,-2.7374999600482397e-08
5,0.0038377,0.00736849,0.0221055,-8.67362e-19,0.0127626,9.88226e-21,-8.20239e-20,3.54688e-09,9.57656e-08,-4.25625e-08,1.59728e-07,7.653e-32,1.32554e-31,0.0,3.5468799008953056e-09,1.597280128162737e-07,0.0,9.576560455748506e-08,0.0,-4.256249908074494e-08
6,0.0058918,0.0113124,0.0339373,-6.07153e-18,0.0195937,-4.73565e-20,-4.89771e-20,5.44671e-09,1.47024e-07,-6.53456e-08,2.45219e-07,-1.14621e-23,6.61761e-24,0.0,5.446709971934638e-09,2.452190299706558e-07,0.0,1.4702401074373483e-07,0.0,-6.534559782167548e-08
7,0.008973,0.0172283,0.0516849,7.80626e-18,0.0298403,6.7121e-20,-1.15071e-19,8.29297e-09,2.2391e-07,-9.95156e-08,3.7346e-07,1.78232e-31,3.08708e-31,0.0,8.292970088419338e-09,3.734600697580248e-07,0.0,2.2391002496569e-07,0.0,-9.951559509779884e-08
8,0.013595,0.0261021,0.0783064,9.54098e-18,0.0452102,-1.3116e-19,-4.58503e-19,1.25671e-08,3.39241e-07,-1.50777e-07,5.65816e-07,2.77687e-23,-3.13146e-23,0.0,1.2567100027283118e-08,5.658161601473921e-07,0.0,3.392410574676319e-07,0.0,-1.5077698867216327e-07
9,0.020527,0.0394129,0.118239,6.07153e-18,0.0682651,-4.56883e-19,3.48265e-20,1.89735e-08,5.12236e-07,-2.27663e-07,8.54355e-07,1.1462e-23,-6.61759e-24,0.0,1.8973500104380037e-08,8.543553648987512e-07,0.0,5.122361312892565e-07,0.0,-2.276629741393421e-07
10,0.030926,0.059379,0.178137,-8.67362e-19,0.102847,-1.54031e-18,-2.55477e-19,2.8587e-08,7.71729e-07,-3.42996e-07,1.28716e-06,-2.95414e-23,1.77334e-24,0.0,2.858700032248862e-08,1.2871608283671065e-06,0.0,7.717292977993395e-07,0.0,-3.429959412049044e-07
11,0.046525,0.0893282,0.267985,-4.94396e-17,0.154721,-5.5365e-19,3.95969e-19,4.30043e-08,1.16097e-06,-5.15992e-07,1.93637e-06,-9.16942e-23,5.29396e-23,0.0,4.300430100911967e-08,1.9363718748444114e-06,0.0,1.1609706738191505e-06,0.0,-5.159918669006558e-07
12,0.069922,0.134252,0.402756,-2.1684e-17,0.232531,2.20493e-19,-2.49317e-18,6.46307e-08,1.74483e-06,-7.75487e-07,2.91018e-06,-5.29397e-23,-9.16942e-23,0.0,6.463070212348043e-08,2.910184234483637e-06,0.0,1.744831522154655e-06,0.0,-7.754866993003873e-07
13,0.105,0.201637,0.604912,1.99493e-17,0.349246,-1.22407e-18,-2.88023e-18,9.70596e-08,2.62061e-06,-1.16471e-06,4.37091e-06,-1.05879e-22,-1.83388e-22,0.0,9.705960479777787e-08,4.370919552521002e-06,0.0,2.62061343381248e-06,0.0,-1.1647093217659332e-06
14,0.1577,0.302715,0.908146,-9.1073e-17,0.524319,2.72256e-18,-2.74454e-19,1.45719e-07,3.93429e-06,-1.74858e-06,6.56199e-06,1.03982e-22,-2.43423e-22,0.0,1.4571901063575865e-07,6.562011529931411e-06,0.0,3.934297739371928e-06,0.0,-1.748578471238993e-06
15,0.2366,0.454332,1.363,-7.80626e-18,0.786926,-1.38381e-17,-7.8084e-18,2.18705e-07,5.90479e-06,-2.62436e-06,9.8486e-06,-2.11758e-22,-3.66776e-22,0.0,2.1870502386889257e-07,9.848648497623458e-06,0.0,5.904807433232406e-06,0.0,-2.624356556402141e-06
16,0.3551,0.681756,2.04527,4.77049e-17,1.18084,-5.94481e-18,-2.59681e-18,3.28182e-07,8.86055e-06,-3.93804e-06,1.47785e-05,5.57568e-28,9.65736e-28,0.0,3.281820537548441e-07,1.4778609202625859e-05,0.0,8.860589254755524e-06,0.0,-3.938032245964784e-06
17,0.5328,1.02289,3.06867,7.13839e-16,1.7717,-5.94479e-18,-2.59677e-18,4.92389e-07,1.32942e-05,-5.90853e-06,2.21733e-05,8.36561e-28,1.44897e-27,0.0,4.923891212538223e-07,2.2173545829451413e-05,0.0,1.3294288368159712e-05,0.0,-5.908512544672284e-06
18,0.7993,1.53459,4.60377,-2.85362e-16,2.65799,-3.98145e-18,-3.30361e-17,7.38697e-07,1.99445e-05,-8.86424e-06,3.32654e-05,7.35553e-27,1.27402e-26,0.0,7.38697272906208e-07,3.326595329955495e-05,0.0,1.9944698892881974e-05,0.0,-8.864200712777048e-06
19,1.199,2.30213,6.90638,-1.61763e-15,3.9874,2.21215e-18,-5.61484e-17,1.10814e-06,2.99199e-05,-1.32977e-05,4.99034e-05,-4.23505e-22,-7.33532e-22,0.0,1.1081406139368255e-06,4.990464519538662e-05,0.0,2.992034760462836e-05,0.0,-1.3297611585971758e-05
20,1.799,3.45341,10.3602,-3.17194e-15,5.98148,6.53581e-17,-1.44564e-17,1.66234e-06,4.48827e-05,-1.99479e-05,7.48599e-05,-1.09041e-26,-1.88864e-26,0.0,1.6623413816585497e-06,7.486270207235357e-05,0.0,4.4883707243537074e-05,0.0,-1.994770104196686e-05
21,2.698,5.18029,15.5409,-2.8485e-14,8.97252,-6.87866e-17,2.39178e-17,2.49357e-06,6.73263e-05,-2.99228e-05,0.000112294,-4.23518e-22,-7.33555e-22,0.0,2.4935731088859825e-06,0.00011230030520725798,0.0,6.732856646629592e-05,0.0,-2.9922352317468537e-05
22,4.047,31.1929,93.5787,-1.03264e-09,54.0277,-8.08225e-16,-1.7395e-16,1.5015e-05,0.000405403,-0.000180179,0.000676171,-3.02527e-20,1.82072e-21,0.0,1.5015112725613733e-05,0.0006763996551444329,0.0,0.00040548518690219915,0.0,-0.00018016276873877857
23,6.071,70.3658,211.097,-9.04826e-07,121.877,1.29847e-16,-7.14917e-16,3.38711e-05,0.000914519,-0.000406453,0.00152533,-2.03309e-20,-3.52142e-20,0.0,3.3871673632113186e-05,0.0015264939075101402,0.0,0.0009149373000056915,0.0,-0.00040637040916957634
24,8.776,121.271,363.819,0.000118487,210.05,-0.000122296,-0.000211768,5.55206e-05,0.0015932,-0.000714715,0.00266338,-1.55333e-09,-2.69152e-09,2.75879e-05,5.552214129700417e-05,0.0026669299474322283,-1.5533300201653333e-09,0.0015944698173882,-2.6915200068700074e-09,-0.0007144596520716195
25,11.48,127.237,381.875,0.0753441,220.498,-0.00255493,-0.00441517,-3.57628e-05,0.00223292,-0.00121675,0.00393179,-4.62744e-08,-8.11299e-08,0.000935816,-3.576216051870418e-05,0.003939529626506344,-4.627439897930685e-08,0.0022354148224306147,-8.112989668962456e-08,-0.0012160100598566093
26,14.19,132.211,396.716,0.000131482,229.02,-0.00461328,-0.00797635,-0.000128962,0.00287134,-0.00172396,0.00520122,-9.73792e-08,-1.71583e-07,0.00186422,-0.00012895368475873692,0.005214769826434429,-9.7379195262981e-08,0.002875466245036984,-1.7158298526442906e-07,-0.0017224748345371355
27,16.89,136.408,409.335,-4.96419e-06,236.297,-0.00628896,-0.0108694,-0.000224205,0.00350839,-0.0022334,0.00647186,-1.5231e-07,-2.69248e-07,0.00280605,-0.00022417986793721312,0.00649284773806813,-1.5230998839932397e-07,0.0035145516038588287,-2.6924796370231263e-07,-0.002230907817911687
28,19.6,140.067,420.34,5.29562e-06,242.644,-0.00771677,-0.0133327,-0.000320698,0.00414436,-0.00274464,0.00774278,-2.11163e-07,-3.74226e-07,0.00375741,-0.0003206465818931248,0.0077728328351551745,-2.111629776591073e-07,0.004152959735934436,-3.742259300221207e-07,-0.002740876919189783
29,22.3,143.318,430.115,2.4147e-06,248.281,-0.00895505,-0.0154679,-0.000418119,0.00477935,-0.00325712,0.00901361,-2.7348e-07,-4.85629e-07,0.0047158,-0.0004180316004325224,0.009054354910184026,-2.7347996256477103e-07,0.004790789310106236,-4.856288821075694e-07,-0.0032518213390053674
30,25.01,146.247,438.921,1.08521e-06,253.359,-0.0100446,-0.0173456,-0.00051625,0.00541343,-0.00377048,0.0102841,-3.38862e-07,-6.027e-07,0.0056795,-0.0005161167658969124,0.010337163102490665,-3.388619426170081e-07,0.0054281090883010474,-6.02699818386121e-07,-0.0037633806657204616
31,27.71,148.915,446.942,4.4826e-07,257.985,-0.0110149,-0.019017,-0.000614936,0.00604667,-0.00428445,0.011554,-4.06968e-07,-7.2479e-07,0.00664731,-0.0006147469656080373,0.011621005268966478,-4.0696791714367464e-07,0.006064988011422967,-7.247897373385825e-07,-0.004275284837996884
32,30.42,151.367,454.315,1.35831e-07,262.237,-0.0118875,-0.0205195,-0.000714064,0.0066791,-0.00479884,0.0128234,-4.77501e-07,-8.51346e-07,0.00761835,-0.0007138091169731631,0.012905972369125829,-4.775008859425611e-07,0.006701454930964079,-8.513456376535444e-07,-0.004787343963891466
33,33.12,153.637,461.141,-1.57925e-08,266.173,-0.0126789,-0.0218817,-0.000813548,0.00731074,-0.00531349,0.0140919,-5.50211e-07,-9.81896e-07,0.00859195,-0.0008132171595500726,0.01419165886934004,-5.502108486599155e-07,0.007337528701627294,-9.818955178930722e-07,-0.005299398381615195
34,35.83,155.752,467.501,-8.49079e-08,269.841,-0.0134018,-0.0231257,-0.000913321,0.00794164,-0.00582829,0.0153597,-6.24878e-07,-1.11603e-06,0.00956758,-0.00091290404932165,0.015478266462675805,-6.248778047224235e-07,0.007973258468353173,-1.116029377246086e-06,-0.005811338466644278
35,38.53,157.734,473.459,-1.10933e-07,273.277,-0.0140663,-0.0242689,-0.00101333,0.00857179,-0.00634314,0.0166265,-7.01314e-07,-1.25341e-06,0.0105448,-0.001012816754532686,0.016765489485550678,-7.013137540701209e-07,0.008608632986778275,-1.253409214529988e-06,-0.006323064756590946
36,41.24,159.598,479.064,-1.14507e-07,276.51,-0.0146805,-0.0253251,-0.00111353,0.00920122,-0.00685799,0.0178925,-7.79355e-07,-1.39372e-06,0.0115234,-0.0011129102555256232,0.01805352975269403,-7.793546963341669e-07,0.009243681356920552,-1.3937190287416357e-06,-0.006834527652067379
37,43.94,161.359,484.36,-1.06749e-07,279.564,-0.0152507,-0.0263057,-0.00121389,0.00982995,-0.00737277,0.0191574,-8.58856e-07,-1.53669e-06,0.0125029,-0.0012131535335604404,0.01934208043455321,-8.588556311694973e-07,0.009878422656239172,-1.5366888193035777e-06,-0.007345657802845795
38,46.65,163.029,489.38,-9.37659e-08,282.459,-0.0157826,-0.0272199,-0.00131438,0.010458,-0.00788742,0.0204214,-9.39692e-07,-1.6821e-06,0.0134833,-0.001313516580936147,0.02063134346680484,-9.396915584547472e-07,0.010512876012948924,-1.6820985853094328e-06,-0.007856395923097503
39,49.35,164.617,494.153,-7.89354e-08,285.212,-0.0162804,-0.0280755,-0.00141498,0.0110853,-0.00840192,0.0216843,-1.02175e-06,-1.82974e-06,0.0144643,-0.0014139793878041873,0.021921113044045537,-1.0217494780251357e-06,0.011146969602733314,-1.8297383260756916e-06,-0.008366722514622227
40,52.06,166.131,498.705,-6.41177e-08,287.837,-0.0167479,-0.028879,-0.00151565,0.011712,-0.00891622,0.0229462,-1.10493e-06,-1.97942e-06,0.0154457,-0.0015145019826094952,0.023211489288255116,-1.104929389539322e-06,0.011780854015517317,-1.9794180409204998e-06,-0.008876588385985595
41,54.76,167.578,503.056,-5.03123e-08,290.346,-0.0171884,-0.0296358,-0.0016164,0.012338,-0.00943029,0.0242071,-1.18914e-06,-2.13099e-06,0.0164274,-0.0016150943291102227,0.02450247038308917,-1.1891392929230804e-06,0.012414427117821702,-2.130987729387357e-06,-0.009385964259548851
42,57.47,168.964,507.224,-3.80242e-08,292.75,-0.0176045,-0.0303506,-0.0017172,0.0129633,-0.00994411,0.0254669,-1.27431e-06,-2.28429e-06,0.0174093,-0.0017157264556574292,0.025793951928694492,-1.274309188059597e-06,0.013047687827425714,-2.2842873910189354e-06,-0.009894830819289435
43,60.17,170.295,511.225,-2.74751e-08,295.058,-0.0179985,-0.0310275,-0.00181804,0.0135879,-0.0104577,0.0267255,-1.36036e-06,-2.43919e-06,0.0183914,-0.0018163883663427915,0.0270858290042999,-1.3603590747202077e-06,0.013680635062086832,-2.439187025138345e-06,-0.010403208373140349
44,62.88,171.575,515.072,-1.87236e-08,297.277,-0.0183726,-0.03167,-0.0019189,0.0142119,-0.0109709,0.0279831,-1.44723e-06,-2.59559e-06,0.0193734,-0.0019170600884517164,0.028378304681217603,-1.447228952788926e-06,0.014313369170876555,-2.5955866314042453e-06,-0.010910939151741794
45,65.58,172.807,518.779,-1.17383e-08,299.414,-0.0187284,-0.0322811,-0.00201978,0.0148353,-0.0114839,0.0292396,-1.53486e-06,-2.75336e-06,0.0203554,-0.002017741616968549,0.02967127415901305,-1.534858822149765e-06,0.014945889261245071,-2.7533562094728126e-06,-0.011418211713420057
46,68.29,173.997,522.354,-6.43813e-09,301.476,-0.0190676,-0.0328635,-0.00212068,0.015458,-0.0119965,0.0304949,-1.6232e-06,-2.91242e-06,0.0213372,-0.002118432946876303,0.03096463211574929,-1.6231986825765432e-06,0.015578092882657213,-2.9124157588933386e-06,-0.011924828881022309
47,70.99,175.146,525.809,-2.71832e-09,303.469,-0.0193914,-0.0334195,-0.00222157,0.01608,-0.0125088,0.0317492,-1.71219e-06,-3.07267e-06,0.0223188,-0.002219104139732586,0.03225858238507939,-1.7121885341753185e-06,0.016209978952625992,-3.0726652793244824e-06,-0.012430890152524077
48,73.7,176.257,529.15,-4.65567e-10,305.396,-0.0197011,-0.0339512,-0.00232246,0.0167014,-0.0130208,0.0330022,-1.8018e-06,-3.23403e-06,0.0233002,-0.0023197651763845473,0.033552813054993136,-1.801798376721564e-06,0.01684164807281663,-3.23402477053758e-06,-0.012936396116196347
49,76.4,177.334,532.387,4.34534e-10,307.262,-0.0199977,-0.0344606,-0.00242333,0.0173222,-0.0135323,0.0342542,-1.89198e-06,-3.39643e-06,0.0242813,-0.002420396106264877,0.034847631564188575,-1.8919782102111427e-06,0.017473099350137078,-3.396424232082751e-06,-0.013441150047759809
50,79.11,178.378,535.525,9.21727e-11,309.072,-0.0202823,-0.0349491,-0.00252419,0.0179423,-0.0140436,0.035505,-1.9827e-06,-3.55981e-06,0.025262,-0.0025210069112254763,0.03614282882925712,-1.9826980344195277e-06,0.01810423008090334,-3.559803663844008e-06,-0.01394544865281544
51,81.81,179.391,538.571,-1.38951e-09,310.829,-0.0205557,-0.0354183,-0.00262502,0.0185618,-0.0145544,0.0367547,-2.07392e-06,-3.72409e-06,0.0262424,-0.0026215776477396258,0.037438505957672064,-2.073917849454432e-06,0.018735141055935323,-3.724083065592687e-06,-0.014448996700523908
52,84.52,180.375,541.531,-3.91494e-09,312.536,-0.0208186,-0.0358696,-0.00272583,0.0191807,-0.0150649,0.0380033,-2.16561e-06,-3.88923e-06,0.0272223,-0.0027221182986604253,0.03873466069722209,-2.1656076550913284e-06,0.019365831381724652,-3.889222436992412e-06,-0.014951992087211763
53,87.22,181.333,544.409,-7.3961e-09,314.196,-0.0210717,-0.0363042,-0.0028266,0.019799,-0.015575,0.0392507,-2.25774e-06,-4.05516e-06,0.0282018,-0.0028226089274940858,0.04003118678818174,-2.257737451327735e-06,0.01999630016460685,-4.055151777815347e-06,-0.0154543369421003
54,89.93,182.264,547.211,-1.17541e-08,315.812,-0.0213157,-0.036723,-0.00292734,0.0204166,-0.0160847,0.0404969,-2.35028e-06,-4.22184e-06,0.0291808,-0.002923059518089466,0.041328081580461085,-2.350277238050147e-06,0.0206264444481139,-4.221831088058181e-06,-0.015956031998714093
55,92.63,183.172,549.94,-1.69165e-08,317.385,-0.0215512,-0.0371272,-0.00302805,0.0210336,-0.016594,0.041742,-2.44321e-06,-4.38922e-06,0.0301594,-0.0030234700805067405,0.042625446681874735,-2.443207015367932e-06,0.02125636527492958,-4.389210367383711e-06,-0.016457077989425528
56,95.34,184.057,552.6,-2.28185e-08,318.92,-0.0217786,-0.0375176,-0.00312871,0.02165,-0.0171029,0.0429859,-2.5365e-06,-4.55726e-06,0.0311374,-0.0031238206872775676,0.043923175430067074,-2.5364967830565632e-06,0.021886061751001273,-4.5572496156776054e-06,-0.016957475645453468
57,98.04,184.92,555.195,-2.94014e-08,320.416,-0.0219985,-0.0378951,-0.00322932,0.0222658,-0.0176114,0.0442287,-2.63013e-06,-4.72592e-06,0.0321148,-0.0032241113544717592,0.04522136968330681,-2.6301265412254082e-06,0.02251553298212783,-4.725908832825532e-06,-0.017457225696868917
58,100.7,185.762,557.728,-3.66121e-08,321.877,-0.0222113,-0.0382604,-0.00332989,0.0228809,-0.0181195,0.0454704,-2.72409e-06,-4.89516e-06,0.0330917,-0.0033243520649041125,0.046520027162680666,-2.724086289651595e-06,0.023144675759489974,-4.895148018713158e-06,-0.017956328872592797
59,103.5,186.586,560.203,-4.44034e-08,323.304,-0.0224175,-0.0386141,-0.00343041,0.0234955,-0.0186272,0.0467108,-2.81835e-06,-5.06495e-06,0.034068,-0.0034245328658631946,0.04781893602110654,-2.8183460284436634e-06,0.023773693754641556,-5.064937173115958e-06,-0.01845478590040106
60,106.2,187.39,562.621,-5.27317e-08,324.699,-0.0226172,-0.038957,-0.00353088,0.0241094,-0.0191344,0.0479502,-2.91289e-06,-5.23526e-06,0.0350438,-0.0035246537733880645,0.04911840792680655,-2.9128857574889366e-06,0.02440238138116002,-5.235246296031448e-06,-0.018952499402178358
61,108.9,188.177,564.986,-6.15592e-08,326.063,-0.022811,-0.0392897,-0.00363129,0.0247227,-0.0196413,0.0491883,-3.00771e-06,-5.40605e-06,0.0360189,-0.0036247048397548554,0.05041812585201488,-3.007705476898437e-06,0.025030840058815507,-5.406035387345298e-06,-0.0194496663626198
62,111.6,188.946,567.301,-7.085e-08,327.398,-0.0229991,-0.0396126,-0.00373165,0.0253354,-0.0201477,0.0504253,-3.10277e-06,-5.5773e-06,0.0369933,-0.0037246960467347545,0.05171829706379816,-3.1027651864468098e-06,0.02565906889276981,-5.57728444694483e-06,-0.019946091346159323
63,114.3,189.7,569.567,-8.05732e-08,328.705,-0.0231818,-0.0399262,-0.00383195,0.0259475,-0.0206537,0.0516612,-3.19807e-06,-5.74897e-06,0.0379672,-0.003824617448578982,0.053018919261073494,-3.1980648861340555e-06,0.026287066988048613,-5.748953474715712e-06,-0.020441873180555903
64,117.0,190.438,571.786,-9.06995e-08,329.985,-0.0233594,-0.0402311,-0.0039322,0.026559,-0.0211592,0.0528959,-3.29359e-06,-5.92105e-06,0.0389404,-0.003924479025034677,0.05431988470642746,-3.2935845761805638e-06,0.026914833449545705,-5.921032470657117e-06,-0.020936914681382146
65,119.7,191.162,573.961,-1.01203e-07,331.239,-0.0235322,-0.0405277,-0.00403238,0.0271699,-0.0216644,0.0541294,-3.38933e-06,-6.09351e-06,0.0399129,-0.004024260872569685,0.05562119069968707,-3.3893242562532677e-06,0.027542367382023425,-6.09349143465554e-06,-0.021431412431436203
66,122.4,191.871,576.093,-1.12061e-07,332.469,-0.0237003,-0.0408163,-0.0041325,0.0277802,-0.0221691,0.0553618,-3.48526e-06,-6.26633e-06,0.0408847,-0.004123972971900147,0.05692294022840594,-3.4852539264607074e-06,0.02816966789011599,-6.2663103665983044e-06,-0.02192517138702854
67,125.1,192.566,578.184,-1.23251e-07,333.675,-0.023864,-0.0410974,-0.00423256,0.0283899,-0.0226734,0.0565931,-3.58138e-06,-6.43948e-06,0.0418559,-0.0042236153419735745,0.05822513097392079,-3.581373586913905e-06,0.028796734078330832,-6.43945926659395e-06,-0.02241829017274566
68,127.8,193.249,580.236,-1.34754e-07,334.858,-0.0240235,-0.0413712,-0.00433255,0.028999,-0.0231772,0.0578232,-3.67767e-06,-6.61295e-06,0.0428263,-0.0043231780449553,0.0595276546604826,-3.6776632373891616e-06,0.029423565051051037,-6.612928134530627e-06,-0.022910671796810944
69,130.5,193.919,582.251,-1.46552e-07,336.02,-0.024179,-0.0416382,-0.00443248,0.0296076,-0.0236806,0.0590521,-3.77413e-06,-6.78672e-06,0.0437961,-0.004422671058522232,0.06083050856991612,-3.774122877997499e-06,0.03005026291755808,-6.786696970295658e-06,-0.023402414782534353
70,133.2,194.577,584.229,-1.58629e-07,337.161,-0.0243307,-0.0418986,-0.00453234,0.0302155,-0.0241836,0.0602799,-3.87074e-06,-6.96077e-06,0.0447652,-0.004522084446797026,0.06213379619288517,-3.870732508737262e-06,0.030676620834585888,-6.960745773887389e-06,-0.02389351984462118
71,135.9,195.223,586.172,-1.7097e-07,338.281,-0.0244787,-0.0421528,-0.00463213,0.0308228,-0.0246861,0.0615065,-3.9675e-06,-7.13508e-06,0.0457335,-0.004621418231648522,0.063437408849492,-3.96749212949743e-06,0.03130274084851736,-7.135054545415187e-06,-0.024383890135045383
72,138.6,195.858,588.081,-1.83562e-07,339.382,-0.0246232,-0.0424009,-0.00473186,0.0314295,-0.0251882,0.062732,-4.06439e-06,-7.30964e-06,0.0467011,-0.004720682387718944,0.06474145028221878,-4.064381740387368e-06,0.03192862206325864,-7.30961328465618e-06,-0.0248736240258266
73,141.3,196.482,589.958,-1.9639e-07,340.465,-0.0247643,-0.0426433,-0.00483151,0.0320357,-0.0256899,0.0639564,-4.16141e-06,-7.48443e-06,0.047668,-0.004819857030260222,0.06604591814620386,-4.161401341296056e-06,0.03255436683803237,-7.484401991719736e-06,-0.02536272222810998
74,144.0,197.096,591.803,-2.09446e-07,341.529,-0.0249022,-0.0428801,-0.0049311,0.0326412,-0.0261911,0.0651795,-4.25855e-06,-7.65944e-06,0.0486342,-0.004918962085680434,0.0673505966221637,-4.258540932333688e-06,0.03317976782819487,-7.659410666605027e-06,-0.025851088037034176
75,146.7,197.7,593.619,-2.22717e-07,342.576,-0.025037,-0.0431117,-0.00503062,0.0332462,-0.0266919,0.0664016,-4.35581e-06,-7.83465e-06,0.0495996,-0.005017987622981335,0.06865580317030973,-4.355800513500263e-06,0.033805030710681194,-7.834619309199375e-06,-0.026338819673949798
76,149.4,198.294,595.405,-2.36195e-07,343.606,-0.0251689,-0.0433381,-0.00513006,0.0338506,-0.0271923,0.0676225,-4.45317e-06,-8.01006e-06,0.0505642,-0.005116923715108079,0.06996132183210091,-4.4531600846831054e-06,0.03443005133344812,-8.010027919502782e-06,-0.026825917846458047
77,152.1,198.878,597.163,-2.49869e-07,344.62,-0.0252979,-0.0435597,-0.00522943,0.0344543,-0.0276922,0.0688423,-4.55063e-06,-8.18564e-06,0.0515282,-0.005215780334625886,0.07126725698039227,-4.5506196458822146e-06,0.0350547252943012,-8.18560649773481e-06,-0.027312285992279972
78,154.8,199.454,598.893,-2.63732e-07,345.618,-0.0254241,-0.0437766,-0.00532873,0.0350576,-0.0281917,0.0700609,-4.64818e-06,-8.36139e-06,0.0524913,-0.0053145575032710335,0.07257349899135956,-4.6481691972077854e-06,0.03567936221285217,-8.361355043673413e-06,-0.027798022182713877
79,157.6,200.021,600.598,-2.77776e-07,346.601,-0.0255477,-0.043989,-0.00542796,0.0356602,-0.0286907,0.0712784,-4.74581e-06,-8.53729e-06,0.0534537,-0.005413255242760706,0.07388015249029434,-4.745798738658991e-06,0.036303650675743926,-8.53725355742796e-06,-0.028283029950142757
80,160.3,200.579,602.276,-2.91995e-07,347.569,-0.0256688,-0.044197,-0.00552711,0.0362622,-0.0291893,0.0724947,-4.84352e-06,-8.71334e-06,0.0544154,-0.00551186362991174,0.07518710758338387,-4.843508270124808e-06,0.03692769329143175,-8.71330203899845e-06,-0.028767407266110157
81,163.0,201.129,603.93,-3.0638e-07,348.522,-0.0257874,-0.0444008,-0.00562619,0.0368637,-0.0296874,0.0737099,-4.94131e-06,-8.88952e-06,0.0553763,-0.005610392633255801,0.0764944691485232,-4.941297791716259e-06,0.03755159291794863,-8.889480488383228e-06,-0.029251057757396337
82,165.7,201.671,605.56,-3.20927e-07,349.462,-0.0259037,-0.0446007,-0.00572519,0.0374646,-0.0301851,0.074924,-5.03917e-06,-9.06582e-06,0.0563364,-0.005708832331539848,0.07780223480201509,-5.039157303432518e-06,0.0381752450276438,-9.065778905581467e-06,-0.02973407929606986
83,168.4,202.205,607.166,-3.3563e-07,350.389,-0.0260177,-0.0447966,-0.00582412,0.0380649,-0.0306824,0.0761369,-5.13709e-06,-9.24225e-06,0.0572958,-0.005807192691281715,0.07911029424489535,-5.137076805161733e-06,0.03879864872313199,-9.242207290593996e-06,-0.03021647258140403
84,171.1,202.732,608.75,-3.50483e-07,351.302,-0.0261295,-0.0449888,-0.00592298,0.0386646,-0.0311792,0.0773487,-5.23507e-06,-9.41878e-06,0.0582543,-0.0059054737341003305,0.08041875273434207,-5.235056297014928e-06,0.0394218031069371,-9.41873564341833e-06,-0.030698141381389044
85,173.8,203.251,610.311,-3.65481e-07,352.203,-0.0262392,-0.0451774,-0.00602175,0.0392638,-0.0316756,0.0785594,-5.3331e-06,-9.5954e-06,0.0592121,-0.006003655601668378,0.08172760787386002,-5.333085779102298e-06,0.04004481128596904,-9.595353964275688e-06,-0.031179183419495438
86,176.5,203.764,611.852,-3.8062e-07,353.091,-0.0263469,-0.0453625,-0.00612046,0.0398624,-0.0321715,0.0797689,-5.43118e-06,-9.77212e-06,0.0601692,-0.00610176813839991,0.08303674895906066,-5.431165251201797e-06,0.040667568482638305,-9.772072252944852e-06,-0.031659502557464525
87,179.2,204.269,613.372,-3.95896e-07,353.967,-0.0264526,-0.0455442,-0.00621908,0.0404604,-0.032667,0.0809774,-5.52931e-06,-9.94892e-06,0.0611254,-0.006199781548905436,0.08434639006142253,-5.5292947134244486e-06,0.04129007379912952,-9.948870509646213e-06,-0.03213919641997809
88,181.9,204.768,614.871,-4.11304e-07,354.832,-0.0265564,-0.0457226,-0.00631763,0.0410579,-0.0331621,0.0821847,-5.62748e-06,-1.01258e-05,0.0620809,-0.0062977157346475465,0.08565631203343305,-5.627464165769425e-06,0.04191243052878213,-1.0125748734268747e-05,-0.03261826570044435
89,184.6,205.26,616.351,-4.2684e-07,355.686,-0.0266583,-0.0458979,-0.0064161,0.0416547,-0.0336567,0.0833908,-5.72568e-06,-1.03027e-05,0.0630355,-0.006395560781099374,0.08696651206868133,-5.72566360834692e-06,0.042534429453339184,-1.0302646927362602e-05,-0.03309661440084355
90,187.3,205.746,617.812,-4.42502e-07,356.528,-0.0267585,-0.0460702,-0.00651449,0.0422511,-0.0341509,0.0845959,-5.82392e-06,-1.04797e-05,0.0639894,-0.006493316712691932,0.08827720501178526,-5.823903041046741e-06,0.043156382435008966,-1.0479645088157241e-05,-0.03357433999828874
91,190.0,206.225,619.254,-4.58287e-07,357.36,-0.0268569,-0.0462395,-0.00661281,0.0428468,-0.0346446,0.0857998,-5.92219e-06,-1.06568e-05,0.0649425,-0.006590993487923802,0.08958817091648541,-5.922172463868058e-06,0.04377797581523257,-1.0656743216541642e-05,-0.034051346587866016
92,192.7,206.699,620.678,-4.74189e-07,358.181,-0.0269537,-0.046406,-0.00671104,0.043442,-0.0351379,0.0870026,-6.02048e-06,-1.08339e-05,0.0658948,-0.006688571262022602,0.09089951605333213,-6.020461876921068e-06,0.0443994173891038,-1.0833841313506731e-05,-0.03452773154858324
93,195.4,207.167,622.085,-4.90208e-07,358.992,-0.0270489,-0.0465697,-0.0068092,0.0440366,-0.0356307,0.0882043,-6.11879e-06,-1.1011e-05,0.0668464,-0.0067860699265549496,0.09221123799204745,-6.11877128020577e-06,0.04502060194254964,-1.1010939379163531e-05,-0.03500339906837269
94,198.1,207.629,623.475,-5.06341e-07,359.794,-0.0271425,-0.0467307,-0.00690728,0.0446307,-0.0361231,0.0894048,-6.21713e-06,-1.11882e-05,0.0677971,-0.00688347957176938,0.09352322494585619,-6.217110673722992e-06,0.04564163314121483,-1.118813741229907e-05,-0.035478446428413135
95,200.8,208.085,624.847,-5.22583e-07,360.585,-0.0272346,-0.0468892,-0.00700529,0.0452241,-0.0366151,0.0906043,-6.31548e-06,-1.13654e-05,0.068747,-0.0069808101521734445,0.0948356930495593,-6.315460057360056e-06,0.04626230102026785,-1.136533541412632e-05,-0.03595287431394045
96,203.5,208.537,626.204,-5.38935e-07,361.367,-0.0273252,-0.0470451,-0.00710321,0.0458171,-0.0371066,0.0918026,-6.41385e-06,-1.15427e-05,0.0696962,-0.00707804183070293,0.09614842102442522,-6.413829431339835e-06,0.046882918559686626,-1.1542633383321288e-05,-0.036426587051773596
97,206.2,208.982,627.544,-5.55392e-07,362.14,-0.0274144,-0.0471986,-0.00720105,0.0464094,-0.0375977,0.0929999,-6.51222e-06,-1.17199e-05,0.0706445,-0.007175184562790093,0.09746162552191406,-6.512198795549651e-06,0.04750317098197154,-1.1719831322198893e-05,-0.03689968177695413
98,208.9,209.423,628.869,-5.71954e-07,362.904,-0.0275022,-0.0473497,-0.00729882,0.0470012,-0.0380884,0.094196,-6.61061e-06,-1.18972e-05,0.0715921,-0.007272248299957207,0.09877508472988783,-6.610588149991159e-06,0.04812326682682122,-1.1897129228555237e-05,-0.03737215917129699
99,211.7,209.859,630.179,-5.88617e-07,363.66,-0.0275886,-0.0474986,-0.0073965,0.0475925,-0.0385786,0.095391,-6.709e-06,-1.20745e-05,0.0725389,-0.007369213210900005,0.10008890580788665,-6.7089774946627045e-06,0.04874320538126686,-1.2074427103492269e-05,-0.0378439236999385
100,214.4,210.289,631.474,-6.05381e-07,364.407,-0.0276738,-0.0476452,-0.00749411,0.0481832,-0.0390683,0.0965849,-6.80739e-06,-1.22518e-05,0.0734848,-0.00746609917340213,0.10140308629647099,-6.807366829786332e-06,0.04936288099585995,-1.225172494700999e-05,-0.03831497618388824
101,217.1,210.715,632.754,-6.22243e-07,365.145,-0.0277577,-0.0477897,-0.00759164,0.0487733,-0.0395577,0.0977777,-6.90579e-06,-1.24291e-05,0.07443,-0.0075628962843619085,0.1027176237320746,-6.9057661551408245e-06,0.049982292771405534,-1.2429022759108399e-05,-0.03878550968560457
102,219.8,211.136,634.021,-6.39202e-07,365.875,-0.0278404,-0.047932,-0.00768909,0.0493629,-0.0400465,0.0989694,-7.00418e-06,-1.26064e-05,0.0753743,-0.007659604567931355,0.10403251564701188,-7.004155470835549e-06,0.05060154486880286,-1.2606320539676474e-05,-0.03925523651787999
103,222.5,211.553,635.273,-6.56255e-07,366.598,-0.0279218,-0.0480724,-0.00778645,0.049952,-0.040535,0.10016,-7.10257e-06,-1.27837e-05,0.0763179,-0.007756214125801186,0.10534775956948206,-7.102544776760311e-06,0.0512206365744432,-1.2783618288825238e-05,-0.039724445721162516
104,225.2,211.965,636.512,-6.73403e-07,367.312,-0.0280022,-0.0482107,-0.00788374,0.0505404,-0.041023,0.10135,-7.20095e-06,-1.2961e-05,0.0772607,-0.007852744827916647,0.10666390635539091,-7.20092407324735e-06,0.051839356806644865,-1.296091600655469e-05,-0.0401929458683169
105,227.9,212.372,637.738,-6.90642e-07,368.019,-0.0280814,-0.0483472,-0.00798095,0.0511284,-0.0415106,0.102538,-7.29933e-06,-1.31383e-05,0.0782027,-0.007949186774955042,0.10797940432721798,-7.299303359964426e-06,0.05245802021766499,-1.313821369286483e-05,-0.04066083370758611
106,230.6,212.776,638.951,-7.07973e-07,368.719,-0.0281595,-0.0484817,-0.00807808,0.0517158,-0.0419977,0.103725,-7.39769e-06,-1.33155e-05,0.0791438,-0.008045539990974016,0.1092953567434023,-7.39766263713193e-06,0.05307641566370269,-1.3315411349079653e-05,-0.04112801402448396
107,233.3,213.175,640.152,-7.25393e-07,369.411,-0.0282365,-0.0486145,-0.00817512,0.0523026,-0.0424844,0.104911,-7.49605e-06,-1.34928e-05,0.0800842,-0.008141794581425055,0.11061176151022245,-7.496021904640493e-06,0.05369454224501635,-1.349270897255117e-05,-0.041594583471173285
108,236.0,213.57,641.34,-7.42902e-07,370.096,-0.0283125,-0.0487455,-0.00827209,0.0528889,-0.0429707,0.106097,-7.59439e-06,-1.367e-05,0.0810238,-0.008237970408444095,0.11192972845928706,-7.594361162710506e-06,0.05431250449306546,-1.366990656592737e-05,-0.0420605427180577
109,238.7,213.961,642.515,-7.60498e-07,370.774,-0.0283875,-0.0488747,-0.00836898,0.0534746,-0.0434565,0.107281,-7.69272e-06,-1.38472e-05,0.0819625,-0.008334057576473097,0.11324703294815097,-7.69269041112075e-06,0.05493019620030548,-1.384710412799528e-05,-0.04252579668706602
110,241.4,214.348,643.68,-7.78181e-07,371.445,-0.0284615,-0.0490023,-0.00846579,0.0540598,-0.0439419,0.108464,-7.79103e-06,-1.40243e-05,0.0829005,-0.008430056109475448,0.11456478348388921,-7.790999649981423e-06,0.05554772202155411,-1.4024201659967872e-05,-0.04299044188684109
111,244.1,214.731,644.832,-7.95949e-07,372.11,-0.0285346,-0.0491283,-0.00856251,0.0546445,-0.0444269,0.109645,-7.88932e-06,-1.42015e-05,0.0838377,-0.008525956116649192,0.11588186207500772,-7.889288879403544e-06,0.05616508124200004,-1.4201399159197159e-05,-0.043454478984433775
112,246.8,215.111,645.973,-8.13801e-07,372.768,-0.0286067,-0.0492527,-0.00865916,0.0552286,-0.0449114,0.110826,-7.98759e-06,-1.43786e-05,0.0847741,-0.008621777452349821,0.11720049705480884,-7.987558099276093e-06,0.05678216746844145,-1.437849662844215e-05,-0.04391781303762787
113,249.5,215.487,647.103,-8.31737e-07,373.419,-0.028678,-0.0493756,-0.00875573,0.0558121,-0.0453955,0.112006,-8.08584e-06,-1.45556e-05,0.0857096,-0.008717510224770186,0.11851957174234218,-8.085807309710091e-06,0.05739897980065645,-1.4555494067813868e-05,-0.04438054041213857
114,252.2,215.859,648.222,-8.49755e-07,374.065,-0.0287484,-0.0494969,-0.00885221,0.0563951,-0.0458792,0.113185,-8.18407e-06,-1.47326e-05,0.0866444,-0.008813144545909757,0.11983908401706467,-8.184036510594517e-06,0.058015623139948014,-1.4732491475766274e-05,-0.04484266177168017
115,254.9,216.227,649.33,-8.67855e-07,374.704,-0.0288179,-0.0496168,-0.00894862,0.0569776,-0.0463624,0.114362,-8.28227e-06,-1.49096e-05,0.0875784,-0.008908700264306568,0.12115791059614356,-8.282235702150587e-06,0.058632096770941056,-1.490948885241039e-05,-0.045304082309332694
116,257.6,216.592,650.428,-8.86037e-07,375.337,-0.0288865,-0.0497353,-0.00904494,0.0575596,-0.0468452,0.115539,-8.38045e-06,-1.50866e-05,0.0885116,-0.00900415758099904,0.12247829034796931,-8.380414884157084e-06,0.05924839997809839,-1.508648619785724e-05,-0.04576489824847463
117,260.3,216.954,651.516,-9.04299e-07,375.964,-0.0289544,-0.0498524,-0.00914119,0.058141,-0.0473276,0.116714,-8.4786e-06,-1.52634e-05,0.0894439,-0.009099536340655412,0.12379797750349919,-8.478564056724203e-06,0.05986442605927489,-1.5263283514865833e-05,-0.04622511024950038
118,263.0,217.312,652.593,-9.22641e-07,376.585,-0.0290215,-0.0499682,-0.00923735,0.0587218,-0.0478095,0.117888,-8.57673e-06,-1.54403e-05,0.0903755,-0.009194816748085533,0.12511809108413674,-8.576693219963794e-06,0.06048017411385587,-1.544018079913112e-05,-0.046684623640227074
119,265.8,217.667,653.661,-9.41061e-07,377.201,-0.0290878,-0.0500826,-0.00933343,0.0593022,-0.0482911,0.119062,-8.67482e-06,-1.56171e-05,0.0913063,-0.009290008736995925,0.1264397553882144,-8.674782373874201e-06,0.0610958554603549,-1.561697805374518e-05,-0.04714362978792974
120,268.5,218.019,654.719,-9.59561e-07,377.811,-0.0291533,-0.0501958,-0.00942944,0.059882,-0.0487721,0.120234,-8.77289e-06,-1.57938e-05,0.0922363,-0.009385122237260513,0.12776071671366185,-8.772851518346059e-06,0.06171125722508264,-1.5793675278596986e-05,-0.04760184349277141
121,270.5,218.283,655.511,-1.08992e-06,378.268,-0.0292023,-0.0502803,-0.00950192,0.0603197,-0.0491353,0.121119,-8.84694e-06,-1.59273e-05,0.0929384,-0.009456919401640063,0.1287592267234614,-8.846900865888685e-06,0.06217606995921621,-1.5927173161234265e-05,-0.047947691693379535
