,Time,S11,S22,S33,S12,S13,S23,LE11,LE22,LE33,LE12,LE13,LE23,SDV_EPBAR,E11,E12,E13,E22,E23,E33
0,0.0002705,0.000519365,0.0015581,-7.79048e-12,0.000899567,2.21372e-21,3.68811e-20,2.50301e-10,6.7501e-09,-3.0004e-09,1.1258e-08,2.76762e-26,4.61603e-25,0.0,2.5030089112476617e-10,1.1258000087721598e-08,0.0,6.750100034480511e-09,0.0,-3.0004000395322805e-09
1,0.000541,0.00103873,0.00311619,4.33681e-19,0.00179913,-3.08331e-20,-2.03577e-20,5.00425e-10,1.35001e-08,-6.00057e-09,2.25162e-08,-1.63975e-24,4.6912e-25,0.0,5.00425034744012e-10,2.2516200237632233e-08,0.0,1.3500100148888805e-08,0.0,-6.000569929831556e-09
2,0.00094675,0.00181778,0.00545333,6.50521e-19,0.00314848,1.87371e-20,6.55005e-20,8.75688e-10,2.36252e-08,-1.05009e-08,3.94034e-08,-1.73568e-24,1.95724e-24,0.0,8.756879665838824e-10,3.9403400764470575e-08,0.0,2.3625200240573463e-08,0.0,-1.0500899927379237e-08
3,0.0015554,0.00298635,0.00895905,1.73472e-18,0.00517251,4.73565e-20,4.89771e-20,1.4375e-09,3.88125e-08,-1.725e-08,6.47354e-08,4.1359e-25,7.16359e-25,0.0,1.4374998968946784e-09,6.473540214990692e-08,0.0,3.8812500768869995e-08,0.0,-1.7249999872959165e-08
4,0.0024683,0.00473921,0.0142176,0.0,0.00820854,1.00168e-19,-5.78319e-20,2.28125e-09,6.15937e-08,-2.7375e-08,1.02732e-07,-7.41318e-35,-1.284e-34,0.0,2.281250077729169e-09,1.027320053470504e-07,0.0,6.159370191660685e-08,0.0,-2.7374999600482397e-08
5,0.0038377,0.00736849,0.0221055,-8.67362e-19,0.0127626,9.88226e-21,-8.20239e-20,3.54688e-09,9.57656e-08,-4.25625e-08,1.59728e-07,7.653e-32,1.32554e-31,0.0,3.5468799008953056e-09,1.597280128162737e-07,0.0,9.576560455748506e-08,0.0,-4.256249908074494e-08
6,0.0058918,0.0113124,0.0339373,-6.07153e-18,0.0195937,-4.73565e-20,-4.89771e-20,5.44671e-09,1.47024e-07,-6.53456e-08,2.45219e-07,-1.14621e-23,6.61761e-24,0.0,5.446709971934638e-09,2.452190299706558e-07,0.0,1.4702401074373483e-07,0.0,-6.534559782167548e-08
7,0.008973,0.0172283,0.0516849,7.80626e-18,0.0298403,6.7121e-20,-1.15071e-19,8.29297e-09,2.2391e-07,-9.95156e-08,3.7346e-07,1.78232e-31,3.08708e-31,0.0,8.292970088419338e-09,3.734600697580248e-07,0.0,2.2391002496569e-07,0.0,-9.951559509779884e-08
8,0.013595,0.0261021,0.0783064,9.54098e-18,0.0452102,-1.3116e-19,-4.58503e-19,1.25671e-08,3.39241e-07,-1.50777e-07,5.65816e-07,2.77687e-23,-3.13146e-23,0.0,1.2567100027283118e-08,5.658161601473921e-07,0.0,3.392410574676319e-07,0.0,-1.5077698867216327e-07
9,0.020527,0.0394129,0.118239,6.07153e-18,0.0682651,-4.56883e-19,3.48265e-20,1.89735e-08,5.12236e-07,-2.27663e-07,8.54355e-07,1.1462e-23,-6.61759e-24,0.0,1.8973500104380037e-08,8.543553648987512e-07,0.0,5.122361312892565e-07,0.0,-2.276629741393421e-07
10,0.030926,0.059379,0.178137,-8.67362e-19,0.102847,-1.54031e-18,-2.55477e-19,2.8587e-08,7.71729e-07,-3.42996e-07,1.28716e-06,-2.95414e-23,1.77334e-24,0.0,2.858700032248862e-08,1.2871608283671065e-06,0.0,7.717292977993395e-07,0.0,-3.429959412049044e-07
11,0.046525,0.0893282,0.267985,-4.94396e-17,0.154721,-5.5365e-19,3.95969e-19,4.30043e-08,1.16097e-06,-5.15992e-07,1.93637e-06,-9.16942e-23,5.29396e-23,0.0,4.300430100911967e-08,1.9363718748444114e-06,0.0,1.1609706738191505e-06,0.0,-5.159918669006558e-07
12,0.069922,0.134252,0.402756,-2.1684e-17,0.232531,2.20493e-19,-2.49317e-18,6.46307e-08,1.74483e-06,-7.75487e-07,2.91018e-06,-5.29397e-23,-9.16942e-23,0.0,6.463070212348043e-08,2.910184234483637e-06,0.0,1.744831522154655e-06,0.0,-7.754866993003873e-07
13,0.105,0.201637,0.604912,1.99493e-17,0.349246,-1.22407e-18,-2.88023e-18,9.70596e-08,2.62061e-06,-1.16471e-06,4.37091e-06,-1.05879e-22,-1.83388e-22,0.0,9.705960479777787e-08,4.370919552521002e-06,0.0,2.62061343381248e-06,0.0,-1.1647093217659332e-06
14,0.1577,0.302715,0.908146,-9.1073e-17,0.524319,2.72256e-18,-2.74454e-19,1.45719e-07,3.93429e-06,-1.74858e-06,6.56199e-06,1.03982e-22,-2.43423e-22,0.0,1.4571901063575865e-07,6.562011529931411e-06,0.0,3.934297739371928e-06,0.0,-1.748578471238993e-06
15,0.2366,0.454332,1.363,-7.80626e-18,0.786926,-1.38381e-17,-7.8084e-18,2.18705e-07,5.90479e-06,-2.62436e-06,9.8486e-06,-2.11758e-22,-3.66776e-22,0.0,2.1870502386889257e-07,9.848648497623458e-06,0.0,5.904807433232406e-06,0.0,-2.624356556402141e-06
16,0.3551,0.681756,2.04527,4.77049e-17,1.18084,-5.94481e-18,-2.59681e-18,3.28182e-07,8.86055e-06,-3.93804e-06,1.47785e-05,5.57568e-28,9.65736e-28,0.0,3.281820537548441e-07,1.4778609202625859e-05,0.0,8.860589254755524e-06,0.0,-3.938032245964784e-06
17,0.5328,1.02289,3.06867,7.13839e-16,1.7717,-5.94479e-18,-2.59677e-18,4.92389e-07,1.32942e-05,-5.90853e-06,2.21733e-05,8.36561e-28,1.44897e-27,0.0,4.923891212538223e-07,2.2173545829451413e-05,0.0,1.3294288368159712e-05,0.0,-5.908512544672284e-06
18,0.7993,1.53459,4.60377,-2.85362e-16,2.65799,-3.98145e-18,-3.30361e-17,7.38697e-07,1.99445e-05,-8.86424e-06,3.32654e-05,7.35553e-27,1.27402e-26,0.0,7.38697272906208e-07,3.326595329955495e-05,0.0,1.9944698892881974e-05,0.0,-8.864200712777048e-06
19,1.199,2.30213,6.90638,-1.61763e-15,3.9874,2.21215e-18,-5.61484e-17,1.10814e-06,2.99199e-05,-1.32977e-05,4.99034e-05,-4.23505e-22,-7.33532e-22,0.0,1.1081406139368255e-06,4.990464519538662e-05,0.0,2.992034760462836e-05,0.0,-1.3297611585971758e-05
20,1.799,3.45341,10.3602,-3.17194e-15,5.98148,6.53581e-17,-1.44564e-17,1.66234e-06,4.48827e-05,-1.99479e-05,7.48599e-05,-1.09041e-26,-1.88864e-26,0.0,1.6623413816585497e-06,7.486270207235357e-05,0.0,4.4883707243537074e-05,0.0,-1.994770104196686e-05
21,2.698,5.18029,15.5409,-2.8485e-14,8.97252,-6.87866e-17,2.39178e-17,2.49357e-06,6.73263e-05,-2.99228e-05,0.000112294,-4.23518e-22,-7.33555e-22,0.0,2.4935731088859825e-06,0.00011230030520725798,0.0,6.732856646629592e-05,0.0,-2.9922352317468537e-05
22,4.047,31.1929,93.5787,-1.03264e-09,54.0277,-8.08225e-16,-1.7395e-16,1.5015e-05,0.000405403,-0.000180179,0.000676171,-3.02527e-20,1.82072e-21,0.0,1.5015112725613733e-05,0.0006763996551444329,0.0,0.00040548518690219915,0.0,-0.00018016276873877857
23,6.071,70.3658,211.097,-9.04826e-07,121.877,1.29847e-16,-7.14917e-16,3.38711e-05,0.000914519,-0.000406453,0.00152533,-2.03309e-20,-3.52142e-20,0.0,3.3871673632113186e-05,0.0015264939075101402,0.0,0.0009149373000056915,0.0,-0.00040637040916957634
24,8.776,121.252,363.766,0.000137296,210.017,-0.000227736,-0.000394345,5.55286e-05,0.00159319,-0.000714856,0.00266339,-2.89308e-09,-5.01298e-09,2.7942e-05,5.553014174131121e-05,0.002666939974101723,-2.8930799977899824e-09,0.0015944598014436817,-5.012980031082748e-09,-0.0007146005513229969
25,11.48,127.2,381.823,0.0842516,220.46,-0.00461351,-0.00797264,-3.39133e-05,0.002233,-0.00121883,0.00393059,-8.35572e-08,-1.46496e-07,0.000936054,-3.391272495056885e-05,0.0039383248997935105,-8.355719649522086e-08,0.002235495001267074,-1.4649598922833462e-07,-0.0012180875283950288
26,14.19,132.172,396.667,0.000157815,228.972,-0.00844979,-0.0146098,-0.000125124,0.00287152,-0.00172816,0.00519868,-1.77984e-07,-3.13595e-07,0.00186434,-0.00012511617231869554,0.005212216584161711,-1.7798398410651117e-07,0.002875646762636963,-3.135949507848679e-07,-0.0017266675913379936
27,16.89,136.361,409.287,-5.91894e-06,236.243,-0.0115282,-0.0199247,-0.000218399,0.00350868,-0.00223968,0.00646801,-2.78753e-07,-4.92756e-07,0.00280603,-0.00021837515267442154,0.006488972748063704,-2.787529611580908e-07,0.0035148426231208507,-4.927558785450259e-07,-0.0022371737881354825
28,19.6,140.014,420.294,5.99081e-06,242.584,-0.01415,-0.024448,-0.000312908,0.00414476,-0.00275302,0.00773759,-3.86705e-07,-6.85311e-07,0.00375725,-0.0003128590493975958,0.007767602507725568,-3.867049251926602e-07,0.004153361397198685,-6.853107651361157e-07,-0.0027492339156254264
29,22.3,143.259,430.071,2.73337e-06,248.217,-0.0164233,-0.0283678,-0.000408335,0.00477987,-0.00326762,0.00900706,-5.01009e-07,-8.89651e-07,0.00471549,-0.00040825164261004687,0.009047745625804904,-5.010088744983321e-07,0.004791311801452425,-8.896506042965768e-07,-0.0032622871399358155
30,25.01,146.183,438.879,1.22065e-06,253.292,-0.0184231,-0.0318144,-0.000504465,0.00541407,-0.00378311,0.0102762,-6.20932e-07,-1.10438e-06,0.00567904,-0.0005043377789254455,0.010329181470429827,-6.20931807193692e-07,0.0054287525624967525,-1.1043793901599486e-06,-0.003775963054764686
31,27.71,148.846,446.902,4.89749e-07,257.914,-0.0202035,-0.0348813,-0.000601146,0.00604744,-0.00429922,0.0115448,-7.45846e-07,-1.32831e-06,0.0066467,-0.0006009653479445154,0.01161169839852949,-7.458457218501024e-07,0.006065762681761955,-1.3283091178095674e-06,-0.0042899915834302416
32,30.42,151.294,454.275,1.25256e-07,262.162,-0.0218043,-0.0376378,-0.000698266,0.00668,-0.00481575,0.0128127,-8.75209e-07,-1.56042e-06,0.00761759,-0.0006980222690295967,0.012895134333205105,-8.752086170238371e-07,0.006702360962681286,-1.5604187825202231e-06,-0.004804172867616252
33,33.12,153.561,461.103,-5.7893e-08,266.096,-0.0232558,-0.0401364,-0.000795739,0.00731178,-0.00533255,0.0140798,-1.00856e-06,-1.79985e-06,0.00859103,-0.000795422483682251,0.014179387224511508,-1.0085594913666895e-06,0.007338576333201896,-1.7998483802239562e-06,-0.0053183571944041
34,35.83,155.672,467.465,-1.48317e-07,269.762,-0.0245815,-0.0424176,-0.000893501,0.00794281,-0.0058495,0.0153462,-1.14549e-06,-2.04585e-06,0.0095665,-0.0008931019468417789,0.015464557598613649,-1.145489343934436e-06,0.00797443779775553,-2.0458479071949753e-06,-0.005832424984532181
35,38.53,157.651,473.423,-1.90667e-07,273.195,-0.0257997,-0.0445133,-0.000991498,0.00857311,-0.00636652,0.0166116,-1.28566e-06,-2.29778e-06,0.0105436,-0.000991006628269453,0.016750339792622748,-1.2856591735666e-06,0.008609964351052657,-2.29777736016068e-06,-0.006346296651755123
36,41.24,159.512,479.03,-2.0833e-07,276.425,-0.0269253,-0.0464492,-0.00108969,0.00920268,-0.00688353,0.0178762,-1.42876e-06,-2.55507e-06,0.011522,-0.00108909650344724,0.01803693561540176,-1.4287589793493538e-06,0.009245154853771087,-2.555066735854261e-06,-0.006859892774317089
37,43.94,161.27,484.327,-2.13902e-07,279.477,-0.0279703,-0.0482461,-0.00118804,0.00983156,-0.00740047,0.0191397,-1.57454e-06,-2.81724e-06,0.0125014,-0.0011873345598704121,0.01932403823940354,-1.5745387603738337e-06,0.009880048561808463,-2.8172360315714684e-06,-0.007373153947301203
38,46.65,162.937,489.348,-2.14289e-07,282.37,-0.0289446,-0.0499209,-0.00128652,0.0104597,-0.00791729,0.0204023,-1.72276e-06,-3.08386e-06,0.0134816,-0.0012856927879244529,0.020611849594311504,-1.7227585160650705e-06,0.010514593886298274,-3.083855244945255e-06,-0.007886030809952094
39,49.35,164.523,494.122,-2.133e-07,285.122,-0.0298563,-0.051488,-0.0013851,0.0110872,-0.00843394,0.0216638,-1.87321e-06,-3.35455e-06,0.0144624,-0.0013841411917279167,0.021900163875957945,-1.8732082455175103e-06,0.011148890783800658,-3.354544373501689e-06,-0.008398474103821552
40,52.06,166.034,498.675,-2.13021e-07,287.745,-0.0307124,-0.0529592,-0.00148377,0.011714,-0.00895041,0.0229243,-2.02571e-06,-3.62898e-06,0.0154436,-0.0014826697575296421,0.02318908120200902,-2.0257079482721707e-06,0.011782877579248785,-3.6289734152150643e-06,-0.008910474316145334
41,54.76,167.479,503.027,-2.14561e-07,290.252,-0.0315187,-0.0543446,-0.00158251,0.0123402,-0.00946665,0.0241837,-2.18009e-06,-3.90684e-06,0.0164252,-0.0015812584913119654,0.024478497305768343,-2.180087623648852e-06,0.012416654432011454,-3.906832368283375e-06,-0.009421982331075829
42,57.47,168.863,507.195,-2.18466e-07,292.654,-0.0322802,-0.0556529,-0.00168131,0.0129656,-0.00998264,0.025442,-2.33622e-06,-4.18787e-06,0.017407,-0.001679897390131302,0.02576840997729013,-2.3362172710816864e-06,0.013050017839786987,-4.1878612309087515e-06,-0.009932978836531658
43,60.17,170.192,511.197,-2.24962e-07,294.96,-0.0330012,-0.0568915,-0.00178014,0.0135905,-0.0104984,0.0266993,-2.49396e-06,-4.47183e-06,0.0183888,-0.0017785564905523632,0.027058919708093265,-2.493956890115001e-06,0.013683270635164169,-4.471820001406002e-06,-0.010443484142942161
44,62.88,171.469,515.046,-2.34093e-07,297.178,-0.0336855,-0.0580667,-0.001879,0.0142146,-0.0110138,0.0279554,-2.65319e-06,-4.75851e-06,0.0193707,-0.0018772357846597032,0.02834981899670641,-2.653186480294778e-06,0.014316107820670387,-4.75849867831446e-06,-0.010953370162300469
45,65.58,172.7,518.753,-2.45797e-07,299.314,-0.0343362,-0.0591843,-0.00197789,0.0148381,-0.0115289,0.0292104,-2.81381e-06,-5.04769e-06,0.0203525,-0.0019759352645367656,0.02964120819677296,-2.813806041279676e-06,0.014948731113713531,-5.0476772603946785e-06,-0.01146269689296886
46,68.29,173.888,522.329,-2.59962e-07,301.374,-0.0349562,-0.0602491,-0.00207678,0.015461,-0.0120437,0.0304643,-2.97571e-06,-5.33922e-06,0.0213342,-0.002074624984504947,0.030933085080678602,-2.975705572616505e-06,0.01558113962150598,-5.3392057464130005e-06,-0.01197146492847978
47,70.99,175.035,525.784,-2.76448e-07,303.365,-0.0355481,-0.0612654,-0.00217568,0.0160832,-0.0125582,0.0317171,-3.13881e-06,-5.63291e-06,0.0223156,-0.0021733149237960214,0.032225447416403874,-3.138805073965578e-06,0.01621323082976156,-5.6328941352434825e-06,-0.01247967486155832
48,73.7,176.144,529.127,-2.95106e-07,305.291,-0.036114,-0.0622371,-0.00227457,0.0167048,-0.0130723,0.0329688,-3.30303e-06,-5.92863e-06,0.0232968,-0.002271985125854692,0.03351829296752573,-3.3030245449872098e-06,0.016845105340297373,-5.928612425654123e-06,-0.012987228582849064
49,76.4,177.219,532.364,-3.15787e-07,307.157,-0.036656,-0.0631676,-0.00237346,0.0173257,-0.013586,0.0342193,-3.46828e-06,-6.22625e-06,0.0242777,-0.002370645570899721,0.034811516012067,-3.4682739855629308e-06,0.017476660512216746,-6.2262306169680315e-06,-0.013494126835562836
50,79.11,178.262,535.503,-3.38349e-07,308.965,-0.0371757,-0.0640599,-0.00247232,0.017946,-0.0140994,0.0354687,-3.63451e-06,-6.52562e-06,0.0252583,-0.0024692663339737075,0.03610521752722007,-3.6345033951334926e-06,0.018107997073523396,-6.525598708173597e-06,-0.014000468961699708
51,81.81,179.273,538.55,-3.62659e-07,310.721,-0.0376748,-0.0649167,-0.00257117,0.0185657,-0.0146124,0.0367169,-3.80165e-06,-6.82665e-06,0.0262385,-0.002567867373559962,0.03739929152330412,-3.8016427736931035e-06,0.018739114130732926,-6.826626698486216e-06,-0.01450615700105029
52,84.52,180.256,541.51,-3.88592e-07,312.427,-0.0381546,-0.0657405,-0.00266999,0.0191848,-0.0151251,0.037964,-3.96964e-06,-7.12921e-06,0.0272183,-0.002666428746908367,0.03869383922720382,-3.9696321210147545e-06,0.019370010790201286,-7.129184587228998e-06,-0.01501129019239722
53,87.22,181.212,544.389,-4.16034e-07,314.086,-0.0386166,-0.0665335,-0.00276879,0.0198032,-0.0156373,0.03921,-4.13843e-06,-7.43323e-06,0.0281976,-0.002764960436202668,0.039988858380268555,-4.1384214367612415e-06,0.02000058415806394,-7.433202373618997e-06,-0.015515672226294797
54,89.93,182.142,547.191,-4.44883e-07,315.7,-0.0390617,-0.0672977,-0.00286755,0.020421,-0.0161492,0.0404547,-4.30797e-06,-7.7386e-06,0.0291765,-0.002863442505585234,0.041284138462624576,-4.307960720706383e-06,0.020630935214349,-7.738570057091998e-06,-0.01601950078775982
55,92.63,183.048,549.92,-4.75043e-07,317.273,-0.0394912,-0.0680349,-0.00296627,0.0210382,-0.0166606,0.0416984,-4.47821e-06,-8.04523e-06,0.0301549,-0.0029618749678348433,0.042579989203379576,-4.478199972846042e-06,0.02126106306501474,-8.045197637196466e-06,-0.01652257976679783
56,95.34,183.932,552.581,-5.06427e-07,318.806,-0.0399059,-0.0687468,-0.00306495,0.0216548,-0.0171717,0.0429409,-4.6491e-06,-8.35306e-06,0.0311327,-0.003060257835722502,0.0438761999441295,-4.649089192954037e-06,0.021890966815869772,-8.353025113261303e-06,-0.01702510664459611
57,98.04,184.793,555.177,-5.38958e-07,320.302,-0.0403068,-0.0694349,-0.0031636,0.0222707,-0.0176823,0.0441822,-4.82061e-06,-8.66201e-06,0.03211,-0.003158601090426205,0.045172768019613896,-4.820598380916863e-06,0.022520543320514674,-8.661972484946823e-06,-0.017526885510097512
58,100.7,185.635,557.711,-5.72566e-07,321.762,-0.0406946,-0.0701006,-0.00326219,0.022886,-0.0181926,0.0454224,-4.99271e-06,-8.97201e-06,0.0330867,-0.0032568748394604663,0.04646979540694862,-4.992697536398971e-06,0.023149893810642252,-8.971969751692122e-06,-0.01802811364118695
59,103.5,186.456,560.186,-6.07186e-07,323.188,-0.04107,-0.0707451,-0.00336075,0.0235008,-0.0187024,0.0466614,-5.16534e-06,-9.28299e-06,0.0340629,-0.003355109000817591,0.047767175044173715,-5.165326659617442e-06,0.023779119769597346,-9.282946913158341e-06,-0.0185285953252321
60,106.2,187.26,562.605,-6.4276e-07,324.582,-0.0414339,-0.0713696,-0.00345925,0.0241149,-0.0192118,0.0478993,-5.33849e-06,-9.5949e-06,0.0350384,-0.0034532736878906123,0.049065009158853146,-5.338475750238381e-06,0.0244080156097517,-9.594853969119299e-06,-0.01902842954019046
61,108.9,188.045,564.971,-6.79235e-07,325.945,-0.0417867,-0.0719753,-0.0035577,0.0247284,-0.0197208,0.049136,-5.51212e-06,-9.90769e-06,0.0360134,-0.0035513788837885363,0.050363190420606996,-5.512104808258478e-06,0.02503668275125559,-9.907640919015748e-06,-0.01952761701556438
62,111.6,188.814,567.286,-7.16562e-07,327.279,-0.042129,-0.072563,-0.00365609,0.0253413,-0.0202294,0.0503716,-5.68621e-06,-1.02213e-05,0.0369877,-0.003649414640672033,0.05166182130763364,-5.686193833565056e-06,0.02566512029912782,-1.02212477627317e-05,-0.020026158479709344
63,114.3,189.566,569.552,-7.54697e-07,328.585,-0.0424615,-0.0731338,-0.00375443,0.0259536,-0.0207375,0.051606,-5.86071e-06,-1.05357e-05,0.0379613,-0.003747390939662809,0.0529607942209962,-5.860692826042957e-06,0.026293327358251517,-1.0535644499709562e-05,-0.02052395671223528
64,117.0,190.303,571.772,-7.93601e-07,329.864,-0.0427846,-0.0736884,-0.00385272,0.0265653,-0.0212452,0.0528392,-6.03562e-06,-1.08507e-05,0.0389344,-0.0038453077964044624,0.054260106463693836,-6.0356017856921795e-06,0.0269213030333757,-1.0850641131376904e-05,-0.021021110486248107
65,119.7,191.025,573.947,-8.33235e-07,331.117,-0.0430987,-0.0742278,-0.00395094,0.0271763,-0.0217525,0.0540713,-6.2109e-06,-1.11665e-05,0.0399067,-0.00394314530539408,0.05555986089015574,-6.210880712398392e-06,0.027548943674218895,-1.1166437654863692e-05,-0.021517620526478654
66,122.4,191.733,576.08,-8.73568e-07,332.346,-0.0434044,-0.0747525,-0.00404911,0.0277868,-0.0222594,0.0553023,-6.38654e-06,-1.14829e-05,0.0408784,-0.004040923407302777,0.05686005518431103,-6.386519606049745e-06,0.028176453832317705,-1.1482834071707693e-05,-0.02201348755651722
67,125.1,192.428,578.172,-9.14567e-07,333.551,-0.0437019,-0.0752633,-0.00414722,0.0283967,-0.0227658,0.0565321,-6.5625e-06,-1.17999e-05,0.0418494,-0.004138632159126021,0.05816058120971923,-6.562478466864974e-06,0.028803729919908427,-1.1799830381464815e-05,-0.022508614549683004
68,127.8,193.109,580.224,-9.56204e-07,334.734,-0.0439917,-0.0757609,-0.00424526,0.029006,-0.0232718,0.0577607,-6.73878e-06,-1.21175e-05,0.0428197,-0.004236261621754833,0.059461436251413424,-6.738757294511011e-06,0.029430771041227377,-1.2117426583357904e-05,-0.02300310007533246
69,130.5,193.778,582.239,-9.98454e-07,335.895,-0.0442741,-0.0762459,-0.00434324,0.0296147,-0.0237773,0.0589882,-6.91535e-06,-1.24356e-05,0.0437893,-0.004333821773291224,0.060762723666169194,-6.915326088985374e-06,0.030057576300387412,-1.2435522678266864e-05,-0.023496847203143822
70,133.2,194.435,584.217,-1.04129e-06,337.035,-0.0445495,-0.0767187,-0.00444116,0.0302228,-0.0242824,0.0602145,-7.09219e-06,-1.27542e-05,0.0447582,-0.004431312632232842,0.062064334914022634,-7.092164850508453e-06,0.030684144801380375,-1.275411866552556e-05,-0.023989954400915003
71,135.9,195.08,586.161,-1.08469e-06,338.155,-0.0448181,-0.07718,-0.00453901,0.0308303,-0.0247871,0.0614397,-7.26929e-06,-1.30733e-05,0.0457264,-0.004528724262349848,0.06336637360318464,-7.2692635787463544e-06,0.03131047564807932,-1.3073214544800926e-05,-0.02448242238617937
72,138.6,195.714,588.071,-1.12864e-06,339.255,-0.0450802,-0.0776303,-0.00463679,0.0314373,-0.0252913,0.0626637,-7.44663e-06,-1.33928e-05,0.0466938,-0.00462605668503191,0.06466873092455883,-7.446602273919467e-06,0.031936671137902106,-1.3392710316861844e-05,-0.02497415437276118
73,141.3,196.337,589.948,-1.17312e-06,340.337,-0.0453362,-0.0780699,-0.00473451,0.0320436,-0.0257951,0.0638866,-7.62419e-06,-1.37127e-05,0.0476605,-0.004723319874415766,0.06597151073796614,-7.624160935915114e-06,0.03256252404975135,-1.3712605981375248e-05,-0.02546524867674571
74,144.0,196.95,591.794,-1.2181e-06,341.4,-0.0455863,-0.0784994,-0.00483216,0.0326493,-0.0262985,0.0651084,-7.80197e-06,-1.4033e-05,0.0486265,-0.004820503897142947,0.06727471069252067,-7.801939564733296e-06,0.03318813661820785,-1.4032901537897047e-05,-0.025955706012093294
75,146.7,197.553,593.61,-1.26357e-06,342.446,-0.0458306,-0.0789192,-0.00492975,0.0332545,-0.0268014,0.066329,-7.97994e-06,-1.43536e-05,0.0495918,-0.004917618725372552,0.06857822157524573,-7.97990816037153e-06,0.03381361132804561,-1.435349698752919e-05,-0.02644542973618802
76,149.4,198.146,595.396,-1.30952e-06,343.476,-0.0460695,-0.0793296,-0.00502726,0.0338591,-0.0273039,0.0675484,-8.15809e-06,-1.46746e-05,0.0505563,-0.0050146444778031984,0.06988204063555781,-8.158056722828988e-06,0.0344388440262533,-1.4674492328614619e-05,-0.026934518014024356
77,152.1,198.73,597.155,-1.35593e-06,344.489,-0.0463032,-0.079731,-0.0051247,0.034463,-0.0278059,0.0687668,-8.33641e-06,-1.49959e-05,0.05152,-0.0051115911275277925,0.07118637935565886,-8.336375252215866e-06,0.0350637303095831,-1.4995787562033236e-05,-0.027422874298298372
78,154.8,199.305,598.886,-1.40279e-06,345.486,-0.0465318,-0.0801237,-0.00522208,0.0350664,-0.0283075,0.0699839,-8.51489e-06,-1.53174e-05,0.052483,-0.0052084686437408045,0.07249091401149999,-8.514853748420315e-06,0.03568847623134119,-1.5317282689220058e-05,-0.02791059665355755
79,157.6,199.87,600.59,-1.45009e-06,346.468,-0.0467555,-0.0805082,-0.00531938,0.0356693,-0.0288087,0.0712,-8.69352e-06,-1.56393e-05,0.0534453,-0.005305257150904796,0.07379596358658724,-8.693482211441506e-06,0.03631308108187348,-1.563917770674994e-05,-0.028397685787781235
80,160.3,200.428,602.269,-1.49781e-06,347.436,-0.0469746,-0.0808847,-0.00541661,0.0362715,-0.0293094,0.0724149,-8.87228e-06,-1.59614e-05,0.0544068,-0.005401966619144938,0.07510131107552498,-8.872240641388807e-06,0.03693733676382149,-1.5961272617492916e-05,-0.028884045296243555
81,163.0,200.977,603.923,-1.54594e-06,348.389,-0.0471892,-0.0812535,-0.00551377,0.0368732,-0.0298096,0.0736286,-9.05117e-06,-1.62837e-05,0.0553675,-0.0054985970696849185,0.07640695370573236,-9.051129038262218e-06,0.03756144970490105,-1.628356742122694e-05,-0.029369676030414404
82,165.7,201.518,605.553,-1.59448e-06,349.328,-0.0473995,-0.0816148,-0.00561085,0.0374743,-0.0303094,0.0748412,-9.23018e-06,-1.66062e-05,0.0563275,-0.005595138579680636,0.0777129964714911,-9.230137402060912e-06,0.038185315376361606,-1.6606062117840992e-05,-0.029854675854782076
83,168.4,202.051,607.16,-1.64341e-06,350.254,-0.0476055,-0.0819691,-0.00570787,0.0380748,-0.0308088,0.0760527,-9.40929e-06,-1.69289e-05,0.0572867,-0.005691611059379986,0.07901943698326441,-9.409245732783234e-06,0.038808932880660896,-1.6928756707002002e-05,-0.030339045472500104
84,171.1,202.577,608.744,-1.69273e-06,351.166,-0.0478076,-0.0823164,-0.00580481,0.0386747,-0.0313077,0.0772631,-9.5885e-06,-1.72518e-05,0.0582451,-0.005787994642816208,0.08032627284730354,-9.588454030429183e-06,0.03943230132016451,-1.725165118859895e-05,-0.030822688667886955
85,173.8,203.096,610.306,-1.74242e-06,352.066,-0.0480057,-0.082657,-0.00590167,0.0392741,-0.0318062,0.0784723,-9.76779e-06,-1.75749e-05,0.0592027,-0.005884289354026739,0.08163339350230969,-9.767742295330173e-06,0.040055523802694726,-1.7574745562298766e-05,-0.031305703156222386
86,176.5,203.607,611.847,-1.79248e-06,352.954,-0.0482001,-0.0829913,-0.00599847,0.0398729,-0.0323043,0.0796804,-9.94717e-06,-1.78981e-05,0.0601596,-0.005980515097416261,0.08294090444795987,-9.94712052704294e-06,0.040678495549474336,-1.7897939829980558e-05,-0.03178808963715363
87,179.2,204.112,613.367,-1.8429e-06,353.83,-0.0483909,-0.0833193,-0.00609518,0.0404711,-0.0328019,0.0808874,-1.01266e-05,-1.82214e-05,0.0611156,-0.006076642073506333,0.08424880327778816,-1.0126548726119289e-05,0.04130121566252809,-1.822123399131126e-05,-0.032269752036206856
88,181.9,204.61,614.867,-1.89368e-06,354.694,-0.0485781,-0.0836413,-0.00619183,0.0410687,-0.033299,0.0820932,-1.03061e-05,-1.85449e-05,0.0620709,-0.006172700123969865,0.08555697902543646,-1.0306046892338827e-05,0.04192368324379636,-1.8544728044411762e-05,-0.03275069119513785
89,184.6,205.101,616.348,-1.9448e-06,355.547,-0.048762,-0.0839576,-0.00628839,0.0416658,-0.0337958,0.083298,-1.04857e-05,-1.88684e-05,0.0630255,-0.006268659455054837,0.08686564625660753,-1.0485645025259949e-05,0.04254600164973166,-1.8868221992818235e-05,-0.03323110130799922
90,187.3,205.586,617.809,-1.99626e-06,356.389,-0.0489426,-0.0842682,-0.00638489,0.0422623,-0.034292,0.0845015,-1.06653e-05,-1.91921e-05,0.0639792,-0.006364549902629024,0.08817447649249455,-1.066524312587358e-05,0.043168065851919124,-1.9191915832772466e-05,-0.033710693038981554
91,190.0,206.065,619.252,-2.04806e-06,357.22,-0.04912,-0.0845734,-0.0064813,0.0428583,-0.0347879,0.085704,-1.0845e-05,-1.95158e-05,0.0649321,-0.006460341678655945,0.08948379336947587,-1.0844941193188795e-05,0.043789979330974615,-1.9515609568032666e-05,-0.03418975711254901
92,192.7,206.538,620.676,-2.10019e-06,358.041,-0.0492944,-0.0848733,-0.00657764,0.0434536,-0.0352832,0.0869054,-1.10247e-05,-1.98396e-05,0.0658843,-0.006556054678769407,0.09079348577352686,-1.102463922819652e-05,0.04441153249261309,-1.9839403196386662e-05,-0.034668004478114134
93,195.4,207.005,622.083,-2.15264e-06,358.852,-0.0494657,-0.0851682,-0.00667391,0.0440485,-0.0357782,0.0881056,-1.12044e-05,-2.01635e-05,0.0668356,-0.0066516889239572885,0.09210344206267429,-1.1204337230896755e-05,0.04503303776170564,-2.0163296717945478e-05,-0.03514572557017259
94,198.1,207.467,623.473,-2.2054e-06,359.652,-0.0496342,-0.0854581,-0.0067701,0.0446427,-0.0362727,0.0893048,-1.13842e-05,-2.04874e-05,0.0677862,-0.006747234502661459,0.0934138780907956,-1.138413520018755e-05,0.045654180916099074,-2.048719013469924e-05,-0.03562272806029232
95,200.8,207.922,624.846,-2.25848e-06,360.443,-0.0497999,-0.0857433,-0.00686621,0.0452364,-0.0367667,0.0905028,-1.1564e-05,-2.08114e-05,0.068736,-0.0068426914386968685,0.09472457286615943,-1.1563933137170856e-05,0.04627517012571514,-2.0811183444324755e-05,-0.03609901278061867
96,203.5,208.373,626.203,-2.31187e-06,361.225,-0.0499629,-0.0860238,-0.00696224,0.0458295,-0.0372604,0.0916997,-1.17438e-05,-2.11354e-05,0.069685,-0.006938059755854931,0.09603563315493724,-1.1743731041846672e-05,0.04689589998836152,-2.1135176649034193e-05,-0.036574773246874526
97,206.2,208.818,627.544,-2.36557e-06,361.998,-0.0501232,-0.0862998,-0.0070582,0.0464221,-0.0377535,0.0928955,-1.19236e-05,-2.14594e-05,0.0706332,-0.007033349407570166,0.09734705650881637,-1.1923528914214998e-05,0.04751647435671913,-2.1459169748716533e-05,-0.03704972111816507
98,208.9,209.258,628.869,-2.41957e-06,362.761,-0.050281,-0.0865715,-0.00715408,0.0470141,-0.0382463,0.0940902,-1.21034e-05,-2.17834e-05,0.0715806,-0.0071285504860162385,0.09865884047535278,-1.2103326754164812e-05,0.048136787704172734,-2.1783162743482798e-05,-0.03752414610767962
99,211.7,209.693,630.179,-2.47386e-06,363.516,-0.0504364,-0.0868389,-0.00724989,0.0476056,-0.0387386,0.0952837,-1.22832e-05,-2.21074e-05,0.0725272,-0.007223672942680115,0.09997087260088833,-1.2283124561807135e-05,0.048756944007245284,-2.2107155633221964e-05,-0.03799785635720543
100,214.4,210.122,631.474,-2.52844e-06,364.262,-0.0505893,-0.0871023,-0.00734562,0.0481965,-0.0392304,0.0964762,-1.2463e-05,-2.24314e-05,0.073473,-0.007318706871597858,0.10128337028767342,-1.2462922337141968e-05,0.04937683761498857,-2.2431148418045055e-05,-0.038470852692116586
101,217.1,210.548,632.755,-2.58332e-06,365.0,-0.0507399,-0.0873617,-0.00744126,0.0487868,-0.0397218,0.0976676,-1.26428e-05,-2.27554e-05,0.074418,-0.007413642370584617,0.10259622120503353,-1.2642720080169312e-05,0.049996467628038,-2.2755141097841047e-05,-0.038943232041991904
102,219.8,210.968,634.022,-2.63848e-06,365.73,-0.0508882,-0.0876172,-0.00753684,0.0493766,-0.0402128,0.0988578,-1.28226e-05,-2.30794e-05,0.0753622,-0.007508509240886974,0.10390931249312962,-1.2822517790778143e-05,0.050615938208561806,-2.3079133672720964e-05,-0.03941499508775381
103,222.5,211.384,635.275,-2.69393e-06,366.452,-0.0510344,-0.0878689,-0.00763233,0.0499658,-0.0407033,0.100047,-1.30024e-05,-2.34034e-05,0.0763056,-0.007603277728546076,0.10522286232947753,-1.3002315469190506e-05,0.051235143519325455,-2.3403126142573782e-05,-0.03988604649786076
104,225.2,211.795,636.514,-2.74965e-06,367.166,-0.0511784,-0.088117,-0.00772775,0.0505545,-0.0411934,0.101235,-1.31821e-05,-2.37273e-05,0.0772482,-0.007697967706054576,0.10653664732369461,-1.3182013116508351e-05,0.05185418784613427,-2.372701850983372e-05,-0.04035648305657691
105,227.9,212.202,637.74,-2.80565e-06,367.872,-0.0513203,-0.0883616,-0.00782309,0.0511427,-0.0416831,0.102422,-1.33618e-05,-2.40512e-05,0.07819,-0.007792569272085159,0.10785088617051342,-1.3361710731518706e-05,0.05247307047496319,-2.405091077217758e-05,-0.040826305441424404
106,230.6,212.605,638.954,-2.86193e-06,368.571,-0.0514602,-0.0886027,-0.00791835,0.0517302,-0.0421723,0.103608,-1.35415e-05,-2.4375e-05,0.079131,-0.007887082450201977,0.10916557677893923,-1.3541408314332593e-05,0.05309158007327164,-2.4374702932150605e-05,-0.04129541845840279
107,233.3,213.004,640.154,-2.91848e-06,369.263,-0.0515982,-0.0888405,-0.00801353,0.0523173,-0.0426611,0.104793,-1.37212e-05,-2.46988e-05,0.0800712,-0.007981507263946308,0.11048071705413909,-1.3721105864727967e-05,0.053710031668634306,-2.469849498709653e-05,-0.04176391874706187
108,236.0,213.398,641.343,-2.9753e-06,369.948,-0.0517342,-0.089075,-0.00810863,0.0529038,-0.0431494,0.105976,-1.39008e-05,-2.50225e-05,0.0810106,-0.008075843736835231,0.11179519310169672,-1.390070338436189e-05,0.05432821386641673,-2.5022186939893665e-05,-0.04223171120471403
109,238.7,213.788,642.519,-3.03238e-06,370.625,-0.0518684,-0.0893063,-0.00820366,0.0534897,-0.0436373,0.107159,-1.40804e-05,-2.53462e-05,0.0819492,-0.008170101810661468,0.11311122509457894,-1.40803008715773e-05,0.054946125766536014,-2.5345878787774723e-05,-0.04269889237470348
110,241.4,214.175,643.683,-3.08973e-06,371.296,-0.0520008,-0.0895346,-0.00829861,0.0540751,-0.0441248,0.108341,-1.426e-05,-2.56698e-05,0.082887,-0.008264271588713679,0.11442770044630035,-1.4259898326707265e-05,0.05556387202524826,-2.566947053350699e-05,-0.04316546292885792
111,244.1,214.557,644.836,-3.14735e-06,371.96,-0.0521314,-0.0897598,-0.00839348,0.05466,-0.0446118,0.109521,-1.44395e-05,-2.59933e-05,0.0838241,-0.008358353094441218,0.11574350130265554,-1.4439395750964756e-05,0.0561814519276318,-2.5992962177090462e-05,-0.04363132790108337
112,246.8,214.936,645.977,-3.20522e-06,372.618,-0.0522603,-0.0899821,-0.00848827,0.0552443,-0.0450984,0.1107,-1.4619e-05,-2.63167e-05,0.0847603,-0.008452346351270679,0.11705973866014485,-1.4618893142914757e-05,0.056798759078714456,-2.6316353718636165e-05,-0.04409658369101277
113,249.5,215.311,647.107,-3.26335e-06,373.269,-0.0523875,-0.0902016,-0.00858298,0.055828,-0.0455845,0.111879,-1.47984e-05,-2.66401e-05,0.0856957,-0.008546251382604675,0.11837752877665042,-1.4798290504214329e-05,0.05741579257809648,-2.6639745155709882e-05,-0.04456113542323448
114,252.2,215.683,648.227,-3.32174e-06,373.914,-0.0525131,-0.0904183,-0.00867762,0.0564113,-0.0460703,0.113056,-1.49777e-05,-2.69634e-05,0.0866303,-0.008640078125422446,0.11969463409244674,-1.497758783486347e-05,0.05803276313187622,-2.696303649074583e-05,-0.045025174899331
115,254.9,216.051,649.335,-3.38039e-06,374.552,-0.0526371,-0.0906323,-0.00877217,0.056994,-0.0465555,0.114232,-1.51571e-05,-2.72865e-05,0.0875641,-0.008733806774943953,0.12101216954113991,-1.5156985131770107e-05,0.058649458479693495,-2.7286127726844356e-05,-0.045488416293019585
116,257.6,216.415,650.433,-3.43929e-06,375.185,-0.0527596,-0.0908437,-0.00886665,0.0575761,-0.0470404,0.115407,-1.53363e-05,-2.76096e-05,0.0884971,-0.008827457180764942,0.12233013299224371,-1.533618239957235e-05,0.05926587772088898,-2.7609218858470896e-05,-0.04595114676189049
117,260.3,216.776,651.521,-3.49844e-06,375.812,-0.0528806,-0.0910525,-0.00896105,0.0581577,-0.0475248,0.116581,-1.55155e-05,-2.79326e-05,0.0894293,-0.008921019452598378,0.12364852231148182,-1.551537963528915e-05,0.05988212594298359,-2.7932209888503756e-05,-0.046413176113855426
118,263.0,217.134,652.599,-3.55784e-06,376.433,-0.0530001,-0.0912589,-0.00905537,0.0587388,-0.0480088,0.117754,-1.56946e-05,-2.82554e-05,0.0903608,-0.009014493613732966,0.12496733536079052,-1.569447684035552e-05,0.06049820243005599,-2.8255000819932263e-05,-0.04687460046291636
119,265.8,217.489,653.667,-3.6175e-06,377.048,-0.0531183,-0.0914628,-0.00914961,0.0593193,-0.0484924,0.118926,-1.58737e-05,-2.85782e-05,0.0912914,-0.009107879687433984,0.12628656999832444,-1.5873574013447467e-05,0.06111400035462178,-2.857779164711083e-05,-0.04733542047087347
120,268.5,217.84,654.725,-3.6774e-06,377.658,-0.053235,-0.0916643,-0.00924378,0.0598993,-0.0489755,0.120096,-1.60527e-05,-2.89008e-05,0.0922212,-0.009201187604931382,0.12760509647279883,-1.605257115611103e-05,0.06172962498871315,-2.8900382375907085e-05,-0.04779554157804189
121,270.5,218.103,655.518,-3.87246e-06,378.114,-0.0533221,-0.0918148,-0.00931487,0.0603372,-0.0493402,0.12098,-1.61879e-05,-2.91444e-05,0.0929232,-0.009271620988920315,0.1286023400948202,-1.6187768976605454e-05,0.062194658203087005,-2.9143975306067382e-05,-0.048142747227229776
