,Time,S11,S22,S33,S12,S13,S23,LE11,LE22,LE33,LE12,LE13,LE23,SDV_EPBAR,E11,E12,E13,E22,E23,E33
0,0.0002705,0.000519365,0.0015581,-7.79048e-12,0.000899567,2.21372e-21,3.68811e-20,2.50301e-10,6.7501e-09,-3.0004e-09,1.1258e-08,2.76762e-26,4.61603e-25,0.0,2.5030089112476617e-10,1.1258000087721598e-08,0.0,6.750100034480511e-09,0.0,-3.0004000395322805e-09
1,0.000541,0.00103873,0.00311619,4.33681e-19,0.00179913,-3.08331e-20,-2.03577e-20,5.00425e-10,1.35001e-08,-6.00057e-09,2.25162e-08,-1.63975e-24,4.6912e-25,0.0,5.00425034744012e-10,2.2516200237632233e-08,0.0,1.3500100148888805e-08,0.0,-6.000569929831556e-09
2,0.00094675,0.00181778,0.00545333,6.50521e-19,0.00314848,1.87371e-20,6.55005e-20,8.75688e-10,2.36252e-08,-1.05009e-08,3.94034e-08,-1.73568e-24,1.95724e-24,0.0,8.756879665838824e-10,3.9403400764470575e-08,0.0,2.3625200240573463e-08,0.0,-1.0500899927379237e-08
3,0.0015554,0.00298635,0.00895905,1.73472e-18,0.00517251,4.73565e-20,4.89771e-20,1.4375e-09,3.88125e-08,-1.725e-08,6.47354e-08,4.1359e-25,7.16359e-25,0.0,1.4374998968946784e-09,6.473540214990692e-08,0.0,3.8812500768869995e-08,0.0,-1.7249999872959165e-08
4,0.0024683,0.00473921,0.0142176,0.0,0.00820854,1.00168e-19,-5.78319e-20,2.28125e-09,6.15937e-08,-2.7375e-08,1.02732e-07,-7.41318e-35,-1.284e-34,0.0,2.281250077729169e-09,1.027320053470504e-07,0.0,6.159370191660685e-08,0.0,-2.7374999600482397e-08
5,0.0038377,0.00736849,0.0221055,-8.67362e-19,0.0127626,9.88226e-21,-8.20239e-20,3.54688e-09,9.57656e-08,-4.25625e-08,1.59728e-07,7.653e-32,1.32554e-31,0.0,3.5468799008953056e-09,1.597280128162737e-07,0.0,9.576560455748506e-08,0.0,-4.256249908074494e-08
6,0.0058918,0.0113124,0.0339373,-6.07153e-18,0.0195937,-4.73565e-20,-4.89771e-20,5.44671e-09,1.47024e-07,-6.53456e-08,2.45219e-07,-1.14621e-23,6.61761e-24,0.0,5.446709971934638e-09,2.452190299706558e-07,0.0,1.4702401074373483e-07,0.0,-6.534559782167548e-08
7,0.008973,0.0172283,0.0516849,7.80626e-18,0.0298403,6.7121e-20,-1.15071e-19,8.29297e-09,2.2391e-07,-9.95156e-08,3.7346e-07,1.78232e-31,3.08708e-31,0.0,8.292970088419338e-09,3.734600697580248e-07,0.0,2.2391002496569e-07,0.0,-9.951559509779884e-08
8,0.013595,0.0261021,0.0783064,9.54098e-18,0.0452102,-1.3116e-19,-4.58503e-19,1.25671e-08,3.39241e-07,-1.50777e-07,5.65816e-07,2.77687e-23,-3.13146e-23,0.0,1.2567100027283118e-08,5.658161601473921e-07,0.0,3.392410574676319e-07,0.0,-1.5077698867216327e-07
9,0.020527,0.0394129,0.118239,6.07153e-18,0.0682651,-4.56883e-19,3.48265e-20,1.89735e-08,5.12236e-07,-2.27663e-07,8.54355e-07,1.1462e-23,-6.61759e-24,0.0,1.8973500104380037e-08,8.543553648987512e-07,0.0,5.122361312892565e-07,0.0,-2.276629741393421e-07
10,0.030926,0.059379,0.178137,-8.67362e-19,0.102847,-1.54031e-18,-2.55477e-19,2.8587e-08,7.71729e-07,-3.42996e-07,1.28716e-06,-2.95414e-23,1.77334e-24,0.0,2.858700032248862e-08,1.2871608283671065e-06,0.0,7.717292977993395e-07,0.0,-3.429959412049044e-07
11,0.046525,0.0893282,0.267985,-4.94396e-17,0.154721,-5.5365e-19,3.95969e-19,4.30043e-08,1.16097e-06,-5.15992e-07,1.93637e-06,-9.16942e-23,5.29396e-23,0.0,4.300430100911967e-08,1.9363718748444114e-06,0.0,1.1609706738191505e-06,0.0,-5.159918669006558e-07
12,0.069922,0.134252,0.402756,-2.1684e-17,0.232531,2.20493e-19,-2.49317e-18,6.46307e-08,1.74483e-06,-7.75487e-07,2.91018e-06,-5.29397e-23,-9.16942e-23,0.0,6.463070212348043e-08,2.910184234483637e-06,0.0,1.744831522154655e-06,0.0,-7.754866993003873e-07
13,0.105,0.201637,0.604912,1.99493e-17,0.349246,-1.22407e-18,-2.88023e-18,9.70596e-08,2.62061e-06,-1.16471e-06,4.37091e-06,-1.05879e-22,-1.83388e-22,0.0,9.705960479777787e-08,4.370919552521002e-06,0.0,2.62061343381248e-06,0.0,-1.1647093217659332e-06
14,0.1577,0.302715,0.908146,-9.1073e-17,0.524319,2.72256e-18,-2.74454e-19,1.45719e-07,3.93429e-06,-1.74858e-06,6.56199e-06,1.03982e-22,-2.43423e-22,0.0,1.4571901063575865e-07,6.562011529931411e-06,0.0,3.934297739371928e-06,0.0,-1.748578471238993e-06
15,0.2366,0.454332,1.363,-7.80626e-18,0.786926,-1.38381e-17,-7.8084e-18,2.18705e-07,5.90479e-06,-2.62436e-06,9.8486e-06,-2.11758e-22,-3.66776e-22,0.0,2.1870502386889257e-07,9.848648497623458e-06,0.0,5.904807433232406e-06,0.0,-2.624356556402141e-06
16,0.3551,0.681756,2.04527,4.77049e-17,1.18084,-5.94481e-18,-2.59681e-18,3.28182e-07,8.86055e-06,-3.93804e-06,1.47785e-05,5.57568e-28,9.65736e-28,0.0,3.281820537548441e-07,1.4778609202625859e-05,0.0,8.860589254755524e-06,0.0,-3.938032245964784e-06
17,0.5328,1.02289,3.06867,7.13839e-16,1.7717,-5.94479e-18,-2.59677e-18,4.92389e-07,1.32942e-05,-5.90853e-06,2.21733e-05,8.36561e-28,1.44897e-27,0.0,4.923891212538223e-07,2.2173545829451413e-05,0.0,1.3294288368159712e-05,0.0,-5.908512544672284e-06
18,0.7993,1.53459,4.60377,-2.85362e-16,2.65799,-3.98145e-18,-3.30361e-17,7.38697e-07,1.99445e-05,-8.86424e-06,3.32654e-05,7.35553e-27,1.27402e-26,0.0,7.38697272906208e-07,3.326595329955495e-05,0.0,1.9944698892881974e-05,0.0,-8.864200712777048e-06
19,1.199,2.30213,6.90638,-1.61763e-15,3.9874,2.21215e-18,-5.61484e-17,1.10814e-06,2.99199e-05,-1.32977e-05,4.99034e-05,-4.23505e-22,-7.33532e-22,0.0,1.1081406139368255e-06,4.990464519538662e-05,0.0,2.992034760462836e-05,0.0,-1.3297611585971758e-05
20,1.799,3.45341,10.3602,-3.17194e-15,5.98148,6.53581e-17,-1.44564e-17,1.66234e-06,4.48827e-05,-1.99479e-05,7.48599e-05,-1.09041e-26,-1.88864e-26,0.0,1.6623413816585497e-06,7.486270207235357e-05,0.0,4.4883707243537074e-05,0.0,-1.994770104196686e-05
21,2.698,5.18029,15.5409,-2.8485e-14,8.97252,-6.87866e-17,2.39178e-17,2.49357e-06,6.73263e-05,-2.99228e-05,0.000112294,-4.23518e-22,-7.33555e-22,0.0,2.4935731088859825e-06,0.00011230030520725798,0.0,6.732856646629592e-05,0.0,-2.9922352317468537e-05
22,4.047,31.1929,93.5787,-1.03264e-09,54.0277,-8.08225e-16,-1.7395e-16,1.5015e-05,0.000405403,-0.000180179,0.000676171,-3.02527e-20,1.82072e-21,0.0,1.5015112725613733e-05,0.0006763996551444329,0.0,0.00040548518690219915,0.0,-0.00018016276873877857
23,6.071,70.3658,211.097,-9.04826e-07,121.877,1.29847e-16,-7.14917e-16,3.38711e-05,0.000914519,-0.000406453,0.00152533,-2.03309e-20,-3.52142e-20,0.0,3.3871673632113186e-05,0.0015264939075101402,0.0,0.0009149373000056915,0.0,-0.00040637040916957634
24,8.776,121.271,363.819,0.000118493,210.05,-0.000122348,-0.000211857,5.55206e-05,0.0015932,-0.000714715,0.00266338,-1.55399e-09,-2.69266e-09,2.7588e-05,5.552214129700417e-05,0.0026669299474322283,-1.553990047753473e-09,0.0015944698173882,-2.6926599838716925e-09,-0.0007144596520716195
25,11.48,127.237,381.875,0.0753473,220.498,-0.00255596,-0.00441694,-3.57622e-05,0.00223292,-0.00121675,0.00393179,-4.6293e-08,-8.11623e-08,0.000935816,-3.576156054019286e-05,0.003939529626506344,-4.6292998878705305e-08,0.0022354148224306147,-8.11622966612191e-08,-0.0012160100598566093
26,14.19,132.211,396.716,0.000131493,229.02,-0.00461521,-0.00797968,-0.00012896,0.00287134,-0.00172397,0.00520122,-9.74196e-08,-1.71654e-07,0.00186422,-0.00012895168501658727,0.005214769826434429,-9.741959527964639e-08,0.002875466245036984,-1.7165398524809916e-07,-0.0017224848173124085
27,16.89,136.408,409.335,-4.96459e-06,236.297,-0.00629159,-0.0108739,-0.000224203,0.00350839,-0.0022334,0.00647186,-1.52373e-07,-2.6936e-07,0.00280605,-0.00022417786838557774,0.00649284773806813,-1.5237298833792323e-07,0.0035145516038588287,-2.6935996366717063e-07,-0.002230907817911687
28,19.6,140.067,420.34,5.29588e-06,242.644,-0.00772,-0.0133383,-0.000320695,0.00414436,-0.00274464,0.00774278,-2.11251e-07,-3.74382e-07,0.00375741,-0.00032064358285510686,0.0077728328351551745,-2.1125097771079737e-07,0.004152959735934436,-3.743819299018014e-07,-0.002740876919189783
29,22.3,143.318,430.115,2.41481e-06,248.281,-0.0089588,-0.0154743,-0.000418115,0.00477935,-0.00325713,0.0090136,-2.73594e-07,-4.85832e-07,0.0047158,-0.0004180276021046314,0.009054344819640514,-2.735939625964079e-07,0.004790789310106236,-4.8583188194673e-07,-0.0032518313064872073
30,25.01,146.247,438.921,1.08526e-06,253.359,-0.0100488,-0.0173529,-0.000516245,0.00541343,-0.00377049,0.0102841,-3.39004e-07,-6.02952e-07,0.0056795,-0.0005161117684775451,0.010337163102490665,-3.390039425843483e-07,0.0054281090883010474,-6.029518182515403e-07,-0.003763390628086505
31,27.71,148.915,446.942,4.48276e-07,257.985,-0.0110195,-0.0190249,-0.000614931,0.00604667,-0.00428446,0.011554,-4.07138e-07,-7.25093e-07,0.00664731,-0.0006147419686816091,0.011621005268966478,-4.071379171577405e-07,0.006064988011422967,-7.250927370749949e-07,-0.004275294795243911
32,30.42,151.367,454.315,1.35829e-07,262.237,-0.0118924,-0.0205281,-0.000714059,0.0066791,-0.00479884,0.0128234,-4.77701e-07,-8.51702e-07,0.00761835,-0.0007138041205422274,0.012905972369125829,-4.777008858480869e-07,0.006701454930964079,-8.517016373277286e-07,-0.004787343963891466
33,33.12,153.637,461.141,-1.58065e-08,266.173,-0.0126842,-0.0218909,-0.000813542,0.00731074,-0.00531349,0.0140919,-5.50441e-07,-9.82307e-07,0.00859195,-0.0008132111644293394,0.01419165886934004,-5.504408484569012e-07,0.007337528701627294,-9.82306517571807e-07,-0.005299398381615195
34,35.83,155.752,467.501,-8.49296e-08,269.841,-0.0134074,-0.0231354,-0.000913314,0.00794164,-0.00582829,0.0153597,-6.2514e-07,-1.1165e-06,0.00956758,-0.0009128970557120697,0.015478266462675805,-6.251398045886702e-07,0.007973258468353173,-1.1164993767298625e-06,-0.005811338466644278
35,38.53,157.734,473.459,-1.10961e-07,273.277,-0.0140722,-0.0242791,-0.00101332,0.00857179,-0.00634315,0.0166265,-7.01608e-07,-1.25393e-06,0.0105448,-0.0010128067646607564,0.016765489485550678,-7.016077538946064e-07,0.008608632986778275,-1.2539292137958569e-06,-0.006323074693360242
36,41.24,159.598,479.064,-1.14539e-07,276.51,-0.0146866,-0.0253357,-0.00111352,0.00920122,-0.006858,0.0178925,-7.79681e-07,-1.3943e-06,0.0115234,-0.0011129002666545595,0.01805352975269403,-7.796806960058689e-07,0.009243681356920552,-1.394299028012469e-06,-0.006834537583721989
37,43.94,161.359,484.36,-1.06787e-07,279.564,-0.0152571,-0.0263167,-0.00121388,0.00982995,-0.00737278,0.0191574,-8.59216e-07,-1.53734e-06,0.0125029,-0.0012131435456920192,0.01934208043455321,-8.592156308662169e-07,0.009878422656239172,-1.537338818247136e-06,-0.007345667729389049
38,46.65,163.029,489.38,-9.38082e-08,282.459,-0.0157892,-0.0272313,-0.00131437,0.010458,-0.00788744,0.0204214,-9.40085e-07,-1.68281e-06,0.0134833,-0.0013135065940712565,0.02063134346680484,-9.400845580875838e-07,0.010512876012948924,-1.6828085840359108e-06,-0.007856415765969404
39,49.35,164.617,494.153,-7.89828e-08,285.212,-0.0162872,-0.0280873,-0.00141496,0.0110853,-0.00840193,0.0216843,-1.02218e-06,-1.83051e-06,0.0144643,-0.0014139594160834656,0.021921113044045537,-1.0221794776166249e-06,0.011146969602733314,-1.8305083245850895e-06,-0.00836673243095487
40,52.06,166.131,498.705,-6.41703e-08,287.837,-0.0167549,-0.0288911,-0.00151564,0.011712,-0.00891623,0.0229462,-1.10539e-06,-1.98025e-06,0.0154457,-0.0015144919977544413,0.023211489288255116,-1.105389389022271e-06,0.011780854015517317,-1.9802480393238397e-06,-0.008876598297219651
41,54.76,167.578,503.056,-5.03704e-08,290.346,-0.0171956,-0.0296482,-0.00161639,0.0123379,-0.0094303,0.0242071,-1.18964e-06,-2.13188e-06,0.0164274,-0.0016150843452610308,0.02450247038308917,-1.189639292409339e-06,0.012414325876384025,-2.1318777275736167e-06,-0.009385974165688982
42,57.47,168.964,507.224,-3.8088e-08,292.75,-0.0176118,-0.0303633,-0.00171719,0.0129633,-0.00994413,0.0254668,-1.27485e-06,-2.28525e-06,0.0174093,-0.0017157164728146546,0.0257938493493044,-1.2748491873271206e-06,0.013047687827425714,-2.285247388766898e-06,-0.009894850621392615
43,60.17,170.295,511.225,-2.75451e-08,295.058,-0.0180061,-0.0310405,-0.00181802,0.0135879,-0.0104577,0.0267255,-1.36093e-06,-2.44022e-06,0.0183914,-0.0018163684026702986,0.0270858290042999,-1.3609290739902136e-06,0.013680635062086832,-2.440217022670055e-06,-0.010403208373140349
44,62.88,171.575,515.072,-1.88001e-08,297.277,-0.0183803,-0.0316833,-0.00191889,0.0142119,-0.0109709,0.0279831,-1.44784e-06,-2.59667e-06,0.0193734,-0.0019170501076223312,0.028378304681217603,-1.4478389518401968e-06,0.014313369170876555,-2.596666628607025e-06,-0.010910939151741794
45,65.58,172.807,518.779,-1.18212e-08,299.414,-0.0187363,-0.0322946,-0.00201977,0.0148353,-0.0114839,0.0292396,-1.53551e-06,-2.75451e-06,0.0203554,-0.002017731637145803,0.02967127415901305,-1.5355088210933232e-06,0.014945889261245071,-2.7545062063483172e-06,-0.011418211713420057
46,68.29,173.997,522.354,-6.52805e-09,301.476,-0.0190756,-0.0328773,-0.00212066,0.015458,-0.0119965,0.0304949,-1.62388e-06,-2.91364e-06,0.0213372,-0.0021184129892447556,0.03096463211574929,-1.6238786815225836e-06,0.015578092882657213,-2.913635755330546e-06,-0.011924828881022309
47,70.99,175.146,525.809,-2.81544e-09,303.469,-0.0193995,-0.0334335,-0.00222155,0.01608,-0.0125088,0.0317491,-1.71291e-06,-3.07395e-06,0.0223188,-0.002219084184114428,0.032258479159226194,-1.7129085330136462e-06,0.016209978952625992,-3.073945275433587e-06,-0.012430890152524077
48,73.7,176.257,529.15,-5.703e-10,305.396,-0.0197094,-0.0339655,-0.00232244,0.0167014,-0.0130208,0.0330022,-1.80256e-06,-3.23539e-06,0.0233002,-0.0023197452227796678,0.033552813054993136,-1.8025583753411567e-06,0.01684164807281663,-3.2353847660981927e-06,-0.012936396116196347
49,76.4,177.334,532.387,3.22251e-10,307.262,-0.0200061,-0.034475,-0.00242331,0.0173222,-0.0135324,0.0342542,-1.89278e-06,-3.39786e-06,0.0242813,-0.00242037615467261,0.034847631564188575,-1.8927782087230227e-06,0.017473099350137078,-3.3978542273160883e-06,-0.01344124870363983
50,79.11,178.378,535.525,-2.80548e-11,309.072,-0.0202908,-0.0349638,-0.00252417,0.0179423,-0.0140436,0.035505,-1.98353e-06,-3.5613e-06,0.025262,-0.0025209869616453773,0.03614282882925712,-1.9835280328228677e-06,0.01810423008090334,-3.561293658527198e-06,-0.01394544865281544
51,81.81,179.391,538.571,-1.51791e-09,310.829,-0.0205643,-0.0354332,-0.002625,0.0185618,-0.0145545,0.0367547,-2.07479e-06,-3.72565e-06,0.0262424,-0.00262155770017114,0.037438505957672064,-2.074787847639037e-06,0.018735141055935323,-3.7256430597265577e-06,-0.014449095255619215
52,84.52,180.375,541.531,-4.05149e-09,312.536,-0.0208273,-0.0358847,-0.00272581,0.0191807,-0.0150649,0.0380033,-2.16652e-06,-3.89086e-06,0.0272223,-0.0027220983531025533,0.03873466069722209,-2.1665176530571983e-06,0.019365831381724652,-3.890852430576963e-06,-0.014951992087211763
53,87.22,181.333,544.409,-7.54143e-09,314.196,-0.0210805,-0.0363194,-0.00282658,0.019799,-0.015575,0.0392506,-2.25868e-06,-4.05686e-06,0.0282018,-0.0028225889839460505,0.040031082785068284,-2.2586774491850647e-06,0.01999630016460685,-4.0568517709616e-06,-0.0154543369421003
54,89.93,182.264,547.211,-1.19081e-08,315.812,-0.0213247,-0.0367384,-0.00292732,0.0204166,-0.0160847,0.0404969,-2.35126e-06,-4.22361e-06,0.0291808,-0.002923039576550379,0.041328081580461085,-2.351257235799764e-06,0.0206264444481139,-4.223601080544093e-06,-0.015956031998714093
55,92.63,183.172,549.94,-1.70794e-08,317.385,-0.0215602,-0.0371428,-0.00302802,0.0210336,-0.016594,0.041742,-2.44423e-06,-4.39106e-06,0.0301594,-0.0030234401712104786,0.042625446681874735,-2.444227012898814e-06,0.02125636527492958,-4.391050359320303e-06,-0.016457077989425528
56,95.34,184.057,552.6,-2.29906e-08,318.92,-0.0217878,-0.0375334,-0.00312868,0.02165,-0.0171029,0.0429859,-2.53756e-06,-4.55917e-06,0.0311374,-0.0031237907809916754,0.043923175430067074,-2.5375567803687105e-06,0.021886061751001273,-4.559159606953855e-06,-0.016957475645453468
57,98.04,184.92,555.195,-2.95828e-08,320.416,-0.0220078,-0.037911,-0.0032293,0.0222658,-0.0176114,0.0442287,-2.63124e-06,-4.7279e-06,0.0321148,-0.003224091418953634,0.04522136968330681,-2.631236538319648e-06,0.02251553298212783,-4.727888823552462e-06,-0.017457225696868917
58,100.7,185.762,557.728,-3.6803e-08,321.877,-0.0222207,-0.0382764,-0.00332987,0.0228809,-0.0181195,0.0454703,-2.72523e-06,-4.89722e-06,0.0330917,-0.003324332131390939,0.046519922510683376,-2.725226286526272e-06,0.023144675759489974,-4.897208008669551e-06,-0.017956328872592797
59,103.5,186.585,560.203,-4.46037e-08,323.304,-0.0224269,-0.0386303,-0.00343039,0.0234955,-0.0186272,0.0467108,-2.81953e-06,-5.06708e-06,0.034068,-0.0034245129343536407,0.04781893602110654,-2.8195260250996057e-06,0.023773693754641556,-5.067067162412009e-06,-0.01845478590040106
60,106.2,187.39,562.621,-5.29419e-08,324.699,-0.0226267,-0.0389734,-0.00353085,0.0241094,-0.0191344,0.0479501,-2.91412e-06,-5.23746e-06,0.0350438,-0.003524623879127331,0.04911830301497089,-2.9141157539269713e-06,0.02440238138116002,-5.237446284556135e-06,-0.018952499402178358
61,108.9,188.177,564.986,-6.17792e-08,326.063,-0.0228206,-0.0393062,-0.00363127,0.0247227,-0.0196413,0.0491883,-3.00897e-06,-5.40832e-06,0.0360189,-0.0036246849122487657,0.05041812585201488,-3.008965473005887e-06,0.025030840058815507,-5.408305375098621e-06,-0.0194496663626198
62,111.6,188.946,567.301,-7.10799e-08,327.398,-0.0230088,-0.0396292,-0.00373163,0.0253354,-0.0201477,0.0504253,-3.10407e-06,-5.57963e-06,0.0369933,-0.0037246761212283985,0.05171829706379816,-3.1040651823355248e-06,0.02565906889276981,-5.579614433925961e-06,-0.019946091346159323
63,114.3,189.7,569.567,-8.08132e-08,328.705,-0.0231916,-0.039943,-0.00383193,0.0259475,-0.0206537,0.0516612,-3.19941e-06,-5.75138e-06,0.0379672,-0.0038245975250711384,0.053018919261073494,-3.1994048819150578e-06,0.026287066988048613,-5.751363460815284e-06,-0.020441873180555903
64,117.0,190.438,571.786,-9.09498e-08,329.985,-0.0233692,-0.040248,-0.00393217,0.026559,-0.0211593,0.0528959,-3.29498e-06,-5.92353e-06,0.0389404,-0.003924449142768571,0.05431988470642746,-3.294974571521614e-06,0.026914833449545705,-5.923512455985325e-06,-0.020937012587685877
65,119.7,191.162,573.961,-1.01464e-07,331.239,-0.0235421,-0.0405447,-0.00403235,0.0271699,-0.0216644,0.0541294,-3.39075e-06,-6.09607e-06,0.0399129,-0.004024230993297073,0.05562119069968707,-3.3907442513747554e-06,0.027542367382023425,-6.096051418991166e-06,-0.021431412431436203
66,122.4,191.871,576.093,-1.12332e-07,332.469,-0.0237103,-0.0408334,-0.00413247,0.0277802,-0.0221691,0.0553618,-3.48672e-06,-6.26896e-06,0.0408847,-0.0041239430956189205,0.05692294022840594,-3.48671392136346e-06,0.02816966789011599,-6.268940350162566e-06,-0.02192517138702854
67,125.1,192.566,578.184,-1.23533e-07,333.675,-0.023874,-0.0411146,-0.00423253,0.0283899,-0.0226734,0.0565931,-3.58288e-06,-6.44218e-06,0.0418559,-0.004223585468681623,0.05822513097392079,-3.5828735814869006e-06,0.028796734078330832,-6.442159249164803e-06,-0.02241829017274566
68,127.8,193.249,580.237,-1.35047e-07,334.858,-0.0240336,-0.0413886,-0.00433252,0.028999,-0.0231772,0.0578231,-3.67921e-06,-6.61573e-06,0.0428263,-0.004323148174650293,0.0595275487077227,-3.679203231743422e-06,0.029423565051051037,-6.615708116108898e-06,-0.022910671796810944
69,130.5,193.919,582.251,-1.46856e-07,336.02,-0.0241892,-0.0416557,-0.00443244,0.0296076,-0.0236807,0.0590521,-3.77571e-06,-6.78957e-06,0.0437961,-0.004422631235428187,0.06083050856991612,-3.775702872022002e-06,0.03005026291755808,-6.789546950880521e-06,-0.02340251244228808
70,133.2,194.577,584.229,-1.58944e-07,337.161,-0.0243409,-0.0419162,-0.00453231,0.0302155,-0.0241836,0.0602799,-3.87236e-06,-6.96369e-06,0.0447652,-0.004522054582459134,0.06213379619288517,-3.872352502432008e-06,0.030676620834585888,-6.963665753589865e-06,-0.02389351984462118
71,135.9,195.223,586.172,-1.71296e-07,338.281,-0.024489,-0.0421705,-0.0046321,0.0308228,-0.0246862,0.0615065,-3.96916e-06,-7.13808e-06,0.0457335,-0.004621388370290691,0.063437408849492,-3.969152122862418e-06,0.03130274084851736,-7.138054524014059e-06,-0.02438398769665162
72,138.6,195.858,588.081,-1.83898e-07,339.382,-0.0246335,-0.0424187,-0.00473182,0.0314295,-0.0251883,0.062732,-4.0661e-06,-7.31271e-06,0.0467011,-0.004720642576545475,0.06474145028221878,-4.066091733423427e-06,0.03192862206325864,-7.312683262150621e-06,-0.02487372153845946
73,141.3,196.482,589.958,-1.96739e-07,340.465,-0.0247747,-0.0426612,-0.00483148,0.0320357,-0.0256899,0.0639563,-4.16316e-06,-7.48757e-06,0.047668,-0.004819827174855629,0.06604581154161737,-4.16315133411338e-06,0.03255436683803237,-7.487541968220768e-06,-0.02536272222810998
74,144.0,197.096,591.804,-2.09806e-07,341.529,-0.0249127,-0.0428981,-0.00493106,0.0326412,-0.0261912,0.0651795,-4.26034e-06,-7.66265e-06,0.0486342,-0.004918922282438176,0.0673505966221637,-4.260330924710232e-06,0.03317976782819487,-7.662620642001627e-06,-0.025851185451920555
75,146.7,197.7,593.619,-2.23088e-07,342.576,-0.0250475,-0.0431297,-0.00503058,0.0332462,-0.026692,0.0664016,-4.35764e-06,-7.83794e-06,0.0495996,-0.005017947823699909,0.06865580317030973,-4.35763050554705e-06,0.033805030710681194,-7.83790928338135e-06,-0.02633891704006297
76,149.4,198.294,595.405,-2.36577e-07,343.606,-0.0251794,-0.0433563,-0.00513002,0.0338506,-0.0271923,0.0676225,-4.45504e-06,-8.01342e-06,0.0505642,-0.005116883919784154,0.06996132183210091,-4.455030076289113e-06,0.03443005133344812,-8.013387892580326e-06,-0.026825917846458047
77,152.1,198.878,597.163,-2.50263e-07,344.62,-0.0253085,-0.043578,-0.0052294,0.0344543,-0.0276922,0.0688422,-4.55253e-06,-8.18907e-06,0.0515282,-0.005215750491098792,0.07126714985367189,-4.552519637268659e-06,0.0350547252943012,-8.189036469707922e-06,-0.027312285992279972
78,154.8,199.454,598.893,-2.64138e-07,345.618,-0.0254348,-0.0437949,-0.00532869,0.0350576,-0.0281917,0.0700609,-4.65012e-06,-8.36489e-06,0.0524913,-0.0053145177158524515,0.07257349899135956,-4.650109188153451e-06,0.03567936221285217,-8.364855014431072e-06,-0.027798022182713877
79,157.6,200.021,600.598,-2.78195e-07,346.6,-0.0255584,-0.0440074,-0.00542792,0.0356602,-0.0286907,0.0712783,-4.7478e-06,-8.54087e-06,0.0534537,-0.005413215459290188,0.0738800451022843,-4.747788729164704e-06,0.036303650675743926,-8.54083352685997e-06,-0.028283029950142757
80,160.3,200.579,602.276,-2.92425e-07,347.569,-0.0256796,-0.0442155,-0.00552707,0.0362622,-0.0291893,0.0724947,-4.84556e-06,-8.71699e-06,0.0544154,-0.005511823850385622,0.07518710758338387,-4.845548260301591e-06,0.03692769329143175,-8.716952007103984e-06,-0.028767407266110157
81,163.0,201.129,603.93,-3.06822e-07,348.522,-0.0257982,-0.0444195,-0.00562615,0.0368637,-0.0296875,0.0737099,-4.94339e-06,-8.89325e-06,0.0553763,-0.005610352857670864,0.0764944691485232,-4.943377781452263e-06,0.03755159291794863,-8.893210455163114e-06,-0.029251154832285575
82,165.7,201.671,605.56,-3.21382e-07,349.462,-0.0259146,-0.0446194,-0.00572515,0.0374646,-0.0301852,0.074924,-5.04128e-06,-9.06963e-06,0.0563364,-0.005708792559892317,0.07780223480201509,-5.041267292726914e-06,0.0381752450276438,-9.069588871035705e-06,-0.02973417632265718
83,168.4,202.205,607.166,-3.36096e-07,350.388,-0.0260286,-0.0448154,-0.00582408,0.0380649,-0.0306824,0.0761369,-5.13924e-06,-9.24612e-06,0.0572958,-0.005807152923568815,0.07911029424489535,-5.1392267941263725e-06,0.03879864872313199,-9.24607725472093e-06,-0.03021647258140403
84,171.1,202.732,608.75,-3.50962e-07,351.302,-0.0261405,-0.0450077,-0.00592294,0.0386646,-0.0311793,0.0773487,-5.23726e-06,-9.42273e-06,0.0582543,-0.005905433970318508,0.08041875273434207,-5.237246285538788e-06,0.0394218031069371,-9.422685606219616e-06,-0.030698238311570036
85,173.8,203.251,610.311,-3.65972e-07,352.202,-0.0262502,-0.0451963,-0.00602171,0.0392638,-0.0316756,0.0785594,-5.33534e-06,-9.59943e-06,0.0592121,-0.0060036158418137475,0.08172760787386002,-5.335325767075183e-06,0.04004481128596904,-9.599383925640304e-06,-0.031179183419495438
86,176.5,203.764,611.852,-3.81124e-07,353.091,-0.0263579,-0.0453815,-0.00612041,0.0398624,-0.0321716,0.0797689,-5.43346e-06,-9.77622e-06,0.0601692,-0.00610171844348717,0.08303674895906066,-5.433445238733903e-06,0.040667568482638305,-9.77617221287197e-06,-0.03165959939150931
87,179.2,204.269,613.372,-3.96412e-07,353.967,-0.0264637,-0.0455633,-0.00621904,0.0404604,-0.0326671,0.0809773,-5.53163e-06,-9.95309e-06,0.0611254,-0.0061997417968958635,0.08434628162678903,-5.5316147005157745e-06,0.04129007379912952,-9.953040468135832e-06,-0.03213929320605369
88,181.9,204.768,614.871,-4.11833e-07,354.832,-0.0265675,-0.0457418,-0.00631758,0.0410579,-0.0331621,0.0821846,-5.62984e-06,-1.013e-05,0.0620809,-0.00629766604953208,0.08565620346780745,-5.629824152530993e-06,0.04191243052878213,-1.0129948691761648e-05,-0.03261826570044435
89,184.6,205.26,616.351,-4.27382e-07,355.686,-0.0266695,-0.0459172,-0.00641605,0.0416547,-0.0336567,0.0833908,-5.72808e-06,-1.03071e-05,0.0630355,-0.006395511100876106,0.08696651206868133,-5.728063594556687e-06,0.042534429453339184,-1.0307046881985471e-05,-0.03309661440084355
90,187.3,205.746,617.812,-4.43057e-07,356.528,-0.0267697,-0.0460895,-0.00651445,0.0422511,-0.0341509,0.0845958,-5.82636e-06,-1.04841e-05,0.0639894,-0.006493276972423967,0.0882770961840702,-5.826343026815728e-06,0.043156382435008966,-1.0484045042002954e-05,-0.03357433999828874
91,190.0,206.225,619.254,-4.58854e-07,357.36,-0.0268682,-0.0462589,-0.00661276,0.0428468,-0.0346446,0.0857998,-5.92467e-06,-1.06613e-05,0.0649425,-0.006590943817472272,0.08958817091648541,-5.924652449196266e-06,0.04377797581523257,-1.066124316850825e-05,-0.034051346587866016
92,192.7,206.699,620.679,-4.7477e-07,358.181,-0.026965,-0.0464255,-0.006711,0.043442,-0.0351379,0.0870026,-6.023e-06,-1.08384e-05,0.0658948,-0.006688531529564723,0.09089951605333213,-6.022981861808496e-06,0.0443994173891038,-1.0838341264807205e-05,-0.03452773154858324
93,195.4,207.167,622.085,-4.90802e-07,358.992,-0.0270602,-0.0465892,-0.00680916,0.0440366,-0.0356308,0.0882042,-6.12136e-06,-1.10157e-05,0.0668464,-0.006786030197996951,0.09221112877092907,-6.121341264542224e-06,0.04502060194254964,-1.1015639327371929e-05,-0.035003495568027954
94,198.1,207.629,623.475,-5.06947e-07,359.793,-0.0271539,-0.0467503,-0.00690724,0.0446307,-0.0361232,0.0894048,-6.21974e-06,-1.11929e-05,0.0677971,-0.0068834398471077085,0.09352322494585619,-6.219720657507644e-06,0.04564163314121483,-1.1192837359730312e-05,-0.035478542880563735
95,200.8,208.085,624.847,-5.23204e-07,360.585,-0.027246,-0.0469088,-0.00700524,0.0452241,-0.0366151,0.0906043,-6.31813e-06,-1.13702e-05,0.068747,-0.006980760501212768,0.0948356930495593,-6.318110040703928e-06,0.04626230102026785,-1.1370135359567435e-05,-0.03595287431394045
96,203.5,208.536,626.204,-5.39568e-07,361.367,-0.0273366,-0.0470648,-0.00710316,0.0458171,-0.0371067,0.0918026,-6.41654e-06,-1.15475e-05,0.0696962,-0.00707799218460381,0.09614842102442522,-6.4165194140208826e-06,0.046882918559686626,-1.1547433327874224e-05,-0.03642668340911004
97,206.2,208.982,627.544,-5.56039e-07,362.14,-0.0274258,-0.0472184,-0.007201,0.0464094,-0.0375978,0.0929998,-6.51496e-06,-1.17249e-05,0.0706445,-0.0071751349215480875,0.09746151577575701,-6.514938777679724e-06,0.04750317098197154,-1.1724831263659752e-05,-0.036899778086981194
98,208.9,209.423,628.869,-5.72614e-07,362.904,-0.0275137,-0.0473696,-0.00729877,0.0470012,-0.0380884,0.094196,-6.61338e-06,-1.19022e-05,0.0715921,-0.007272198663568541,0.09877508472988783,-6.613358131679625e-06,0.04812326682682122,-1.1902129169127917e-05,-0.03737215917129699
99,211.7,209.858,630.179,-5.89291e-07,363.66,-0.0276002,-0.0475185,-0.00739645,0.0475925,-0.0385786,0.095391,-6.71181e-06,-1.20796e-05,0.0725389,-0.00736916357935935,0.10008890580788665,-6.711787475799369e-06,0.04874320538126686,-1.20795270419638e-05,-0.0378439236999385
100,214.4,210.289,631.474,-6.06068e-07,364.407,-0.0276854,-0.0476652,-0.00749406,0.0481832,-0.0390684,0.0965849,-6.81025e-06,-1.2257e-05,0.0734848,-0.007466049546705933,0.10140308629647099,-6.810226810261e-06,0.04936288099585995,-1.2256924883269349e-05,-0.03831507235238585
101,217.1,210.715,632.754,-6.22943e-07,365.145,-0.0277693,-0.0478097,-0.00759159,0.0487733,-0.0395577,0.0977777,-6.90868e-06,-1.24343e-05,0.07443,-0.007562846662505507,0.1027176237320746,-6.908656135173885e-06,0.049982292771405534,-1.2434222694368557e-05,-0.03878550968560457
102,219.8,211.136,634.021,-6.39916e-07,365.875,-0.027852,-0.0479521,-0.00768903,0.0493629,-0.0400466,0.0989694,-7.00712e-06,-1.26117e-05,0.0753743,-0.007659545027505876,0.10403251564701188,-7.007095450206613e-06,0.05060154486880286,-1.2611620472835483e-05,-0.03925533259235159
103,222.5,211.553,635.273,-6.56984e-07,366.598,-0.0279335,-0.0480925,-0.0077864,0.049952,-0.0405351,0.10016,-7.10555e-06,-1.27891e-05,0.0763179,-0.007756164513610719,0.10534775956948206,-7.105524755690595e-06,0.0512206365744432,-1.2789018219772075e-05,-0.03972454174871298
104,225.2,211.965,636.512,-6.74145e-07,367.312,-0.0280139,-0.0482309,-0.00788369,0.0505404,-0.0410231,0.10135,-7.20397e-06,-1.29664e-05,0.0772607,-0.00785269522055243,0.10666390635539091,-7.20394405151481e-06,0.051839356806644865,-1.2966315936613348e-05,-0.04019304184901751
105,227.9,212.372,637.738,-6.91399e-07,368.019,-0.0280931,-0.0483674,-0.00798089,0.0511284,-0.0415106,0.102538,-7.30239e-06,-1.31438e-05,0.0782026,-0.007949127251904553,0.10797940432721798,-7.302363337569062e-06,0.05245802021766499,-1.3143713620600295e-05,-0.04066083370758611
106,230.6,212.776,638.951,-7.08743e-07,368.719,-0.0281713,-0.0485021,-0.00807802,0.0517158,-0.0419978,0.103725,-7.4008e-06,-1.33211e-05,0.0791438,-0.00804548047370468,0.1092953567434023,-7.400772614185591e-06,0.05307641566370269,-1.3321011274491923e-05,-0.04112810991167781
107,233.3,213.175,640.152,-7.26177e-07,369.411,-0.0282483,-0.0486349,-0.00817507,0.0523026,-0.0424845,0.104911,-7.49919e-06,-1.34984e-05,0.0800842,-0.0081417449885135,0.11061176151022245,-7.499161881141525e-06,0.05369454224501635,-1.349830889696424e-05,-0.041594679311710125
108,236.0,213.57,641.34,-7.437e-07,370.096,-0.0283244,-0.0487659,-0.00827204,0.0528889,-0.0429708,0.106097,-7.59758e-06,-1.36757e-05,0.0810238,-0.00823792082034136,0.11192972845928706,-7.597551138438519e-06,0.05431250449306546,-1.3675606488017245e-05,-0.042060638511998705
109,238.7,213.961,642.516,-7.61311e-07,370.774,-0.0283994,-0.0488952,-0.00836892,0.0534746,-0.0434566,0.107281,-7.69594e-06,-1.3853e-05,0.0819625,-0.008333998076514804,0.11324703294815097,-7.695910386296134e-06,0.05493019620030548,-1.3852904047650938e-05,-0.04252589243448157
110,241.4,214.348,643.68,-7.79008e-07,371.445,-0.0284735,-0.0490229,-0.00846573,0.0540598,-0.043942,0.108464,-7.79429e-06,-1.40302e-05,0.0829005,-0.008429996615277102,0.11456478348388921,-7.794259624605004e-06,0.05554772202155411,-1.4030101577189313e-05,-0.042990537587792255
111,244.1,214.731,644.832,-7.9679e-07,372.11,-0.0285466,-0.0491489,-0.00856245,0.0546445,-0.044427,0.109645,-7.89263e-06,-1.42074e-05,0.0838377,-0.008525896628204799,0.11588186207500772,-7.892598853254107e-06,0.05616508124200004,-1.42072990754194e-05,-0.04345457463898106
112,246.8,215.111,645.973,-8.14656e-07,372.768,-0.0286187,-0.0492734,-0.0086591,0.0552286,-0.0449115,0.110826,-7.99094e-06,-1.43846e-05,0.0847741,-0.008621717969654719,0.11720049705480884,-7.990908072574854e-06,0.05678216746844145,-1.4384496542119152e-05,-0.043917908645841774
113,249.5,215.487,647.103,-8.32607e-07,373.419,-0.02869,-0.0493963,-0.00875567,0.0558121,-0.0453956,0.112006,-8.08923e-06,-1.45617e-05,0.0857096,-0.008717450747818933,0.11851957174234218,-8.089197282235006e-06,0.05739897980065645,-1.456159397894563e-05,-0.04438063597407971
114,252.2,215.859,648.222,-8.5064e-07,374.065,-0.0287604,-0.0495177,-0.00885215,0.0563951,-0.0458793,0.113185,-8.1875e-06,-1.47388e-05,0.0866444,-0.00881308507469658,0.11983908401706467,-8.187466482567629e-06,0.058015623139948014,-1.473869138446382e-05,-0.044842757287409274
115,254.9,216.227,649.33,-8.68755e-07,374.704,-0.0288299,-0.0496376,-0.00894856,0.0569776,-0.0463625,0.114362,-8.28574e-06,-1.49159e-05,0.0875784,-0.008908640798826806,0.12115791059614356,-8.285705673349852e-06,0.058632096770941056,-1.4915788758562698e-05,-0.04530417777891971
116,257.6,216.592,650.428,-8.86951e-07,375.337,-0.0288986,-0.0497562,-0.00904488,0.0575596,-0.0468453,0.115539,-8.38396e-06,-1.50929e-05,0.0885116,-0.009004098121246695,0.12247829034796931,-8.383924854693525e-06,0.05924839997809839,-1.5092786102788303e-05,-0.04576499367198006
117,260.3,216.954,651.516,-9.05227e-07,375.964,-0.0289665,-0.0498733,-0.00914112,0.058141,-0.0473277,0.116714,-8.48216e-06,-1.52698e-05,0.0894439,-0.009099466977620652,0.12379797750349919,-8.482124026598648e-06,0.05986442605927489,-1.5269683417251656e-05,-0.04622520562698451
118,263.0,217.312,652.593,-9.23584e-07,376.585,-0.0290336,-0.0499891,-0.00923729,0.0587218,-0.0478096,0.117888,-8.58032e-06,-1.54468e-05,0.0903755,-0.009194757299772593,0.12511809108413674,-8.580283189174587e-06,0.06048017411385587,-1.544668069874966e-05,-0.04668471897175974
119,265.8,217.667,653.661,-9.4202e-07,377.201,-0.0291,-0.0501036,-0.00933337,0.0593022,-0.0482911,0.119061,-8.67846e-06,-1.56236e-05,0.0913063,-0.00928994929439475,0.12643862894902225,-8.678422342311976e-06,0.0610958554603549,-1.5623477952142473e-05,-0.04714362978792974
120,268.5,218.019,654.719,-9.60534e-07,377.811,-0.0291656,-0.0502168,-0.00942937,0.059882,-0.0487722,0.120234,-8.77657e-06,-1.58004e-05,0.0922363,-0.00938505289421665,0.12776071671366185,-8.776531486009986e-06,0.06171125722508264,-1.580027517433802e-05,-0.04760193873258234
121,270.5,218.283,655.511,-1.09092e-06,378.268,-0.0292145,-0.0503014,-0.00950185,0.0603197,-0.0491354,0.121119,-8.85065e-06,-1.5934e-05,0.0929384,-0.009456850063621958,0.1287592267234614,-8.850610833111006e-06,0.06217606995921621,-1.593387305454108e-05,-0.04794778689860568
