,Time,S11,S22,S33,S12,S13,S23,LE11,LE22,LE33,LE12,LE13,LE23,SDV_EPBAR,E11,E12,E13,E22,E23,E33
0,0.0002705,0.000519365,0.0015581,-7.79048e-12,0.000899567,2.21372e-21,3.68811e-20,2.50301e-10,6.7501e-09,-3.0004e-09,1.1258e-08,2.76762e-26,4.61603e-25,0.0,2.5030089112476617e-10,1.1258000087721598e-08,0.0,6.750100034480511e-09,0.0,-3.0004000395322805e-09
1,0.000541,0.00103873,0.00311619,4.33681e-19,0.00179913,-3.08331e-20,-2.03577e-20,5.00425e-10,1.35001e-08,-6.00057e-09,2.25162e-08,-1.63975e-24,4.6912e-25,0.0,5.00425034744012e-10,2.2516200237632233e-08,0.0,1.3500100148888805e-08,0.0,-6.000569929831556e-09
2,0.00094675,0.00181778,0.00545333,6.50521e-19,0.00314848,1.87371e-20,6.55005e-20,8.75688e-10,2.36252e-08,-1.05009e-08,3.94034e-08,-1.73568e-24,1.95724e-24,0.0,8.756879665838824e-10,3.9403400764470575e-08,0.0,2.3625200240573463e-08,0.0,-1.0500899927379237e-08
3,0.0015554,0.00298635,0.00895905,1.73472e-18,0.00517251,4.73565e-20,4.89771e-20,1.4375e-09,3.88125e-08,-1.725e-08,6.47354e-08,4.1359e-25,7.16359e-25,0.0,1.4374998968946784e-09,6.473540214990692e-08,0.0,3.8812500768869995e-08,0.0,-1.7249999872959165e-08
4,0.0024683,0.00473921,0.0142176,0.0,0.00820854,1.00168e-19,-5.78319e-20,2.28125e-09,6.15937e-08,-2.7375e-08,1.02732e-07,-7.41318e-35,-1.284e-34,0.0,2.281250077729169e-09,1.027320053470504e-07,0.0,6.159370191660685e-08,0.0,-2.7374999600482397e-08
5,0.0038377,0.00736849,0.0221055,-8.67362e-19,0.0127626,9.88226e-21,-8.20239e-20,3.54688e-09,9.57656e-08,-4.25625e-08,1.59728e-07,7.653e-32,1.32554e-31,0.0,3.5468799008953056e-09,1.597280128162737e-07,0.0,9.576560455748506e-08,0.0,-4.256249908074494e-08
6,0.0058918,0.0113124,0.0339373,-6.07153e-18,0.0195937,-4.73565e-20,-4.89771e-20,5.44671e-09,1.47024e-07,-6.53456e-08,2.45219e-07,-1.14621e-23,6.61761e-24,0.0,5.446709971934638e-09,2.452190299706558e-07,0.0,1.4702401074373483e-07,0.0,-6.534559782167548e-08
7,0.008973,0.0172283,0.0516849,7.80626e-18,0.0298403,6.7121e-20,-1.15071e-19,8.29297e-09,2.2391e-07,-9.95156e-08,3.7346e-07,1.78232e-31,3.08708e-31,0.0,8.292970088419338e-09,3.734600697580248e-07,0.0,2.2391002496569e-07,0.0,-9.951559509779884e-08
8,0.013595,0.0261021,0.0783064,9.54098e-18,0.0452102,-1.3116e-19,-4.58503e-19,1.25671e-08,3.39241e-07,-1.50777e-07,5.65816e-07,2.77687e-23,-3.13146e-23,0.0,1.2567100027283118e-08,5.658161601473921e-07,0.0,3.392410574676319e-07,0.0,-1.5077698867216327e-07
9,0.020527,0.0394129,0.118239,6.07153e-18,0.0682651,-4.56883e-19,3.48265e-20,1.89735e-08,5.12236e-07,-2.27663e-07,8.54355e-07,1.1462e-23,-6.61759e-24,0.0,1.8973500104380037e-08,8.543553648987512e-07,0.0,5.122361312892565e-07,0.0,-2.276629741393421e-07
10,0.030926,0.059379,0.178137,-8.67362e-19,0.102847,-1.54031e-18,-2.55477e-19,2.8587e-08,7.71729e-07,-3.42996e-07,1.28716e-06,-2.95414e-23,1.77334e-24,0.0,2.858700032248862e-08,1.2871608283671065e-06,0.0,7.717292977993395e-07,0.0,-3.429959412049044e-07
11,0.046525,0.0893282,0.267985,-4.94396e-17,0.154721,-5.5365e-19,3.95969e-19,4.30043e-08,1.16097e-06,-5.15992e-07,1.93637e-06,-9.16942e-23,5.29396e-23,0.0,4.300430100911967e-08,1.9363718748444114e-06,0.0,1.1609706738191505e-06,0.0,-5.159918669006558e-07
12,0.069922,0.134252,0.402756,-2.1684e-17,0.232531,2.20493e-19,-2.49317e-18,6.46307e-08,1.74483e-06,-7.75487e-07,2.91018e-06,-5.29397e-23,-9.16942e-23,0.0,6.463070212348043e-08,2.910184234483637e-06,0.0,1.744831522154655e-06,0.0,-7.754866993003873e-07
13,0.105,0.201637,0.604912,1.99493e-17,0.349246,-1.22407e-18,-2.88023e-18,9.70596e-08,2.62061e-06,-1.16471e-06,4.37091e-06,-1.05879e-22,-1.83388e-22,0.0,9.705960479777787e-08,4.370919552521002e-06,0.0,2.62061343381248e-06,0.0,-1.1647093217659332e-06
14,0.1577,0.302715,0.908146,-9.1073e-17,0.524319,2.72256e-18,-2.74454e-19,1.45719e-07,3.93429e-06,-1.74858e-06,6.56199e-06,1.03982e-22,-2.43423e-22,0.0,1.4571901063575865e-07,6.562011529931411e-06,0.0,3.934297739371928e-06,0.0,-1.748578471238993e-06
15,0.2366,0.454332,1.363,-7.80626e-18,0.786926,-1.38381e-17,-7.8084e-18,2.18705e-07,5.90479e-06,-2.62436e-06,9.8486e-06,-2.11758e-22,-3.66776e-22,0.0,2.1870502386889257e-07,9.848648497623458e-06,0.0,5.904807433232406e-06,0.0,-2.624356556402141e-06
16,0.3551,0.681756,2.04527,4.77049e-17,1.18084,-5.94481e-18,-2.59681e-18,3.28182e-07,8.86055e-06,-3.93804e-06,1.47785e-05,5.57568e-28,9.65736e-28,0.0,3.281820537548441e-07,1.4778609202625859e-05,0.0,8.860589254755524e-06,0.0,-3.938032245964784e-06
17,0.5328,1.02289,3.06867,7.13839e-16,1.7717,-5.94479e-18,-2.59677e-18,4.92389e-07,1.32942e-05,-5.90853e-06,2.21733e-05,8.36561e-28,1.44897e-27,0.0,4.923891212538223e-07,2.2173545829451413e-05,0.0,1.3294288368159712e-05,0.0,-5.908512544672284e-06
18,0.7993,1.53459,4.60377,-2.85362e-16,2.65799,-3.98145e-18,-3.30361e-17,7.38697e-07,1.99445e-05,-8.86424e-06,3.32654e-05,7.35553e-27,1.27402e-26,0.0,7.38697272906208e-07,3.326595329955495e-05,0.0,1.9944698892881974e-05,0.0,-8.864200712777048e-06
19,1.199,2.30213,6.90638,-1.61763e-15,3.9874,2.21215e-18,-5.61484e-17,1.10814e-06,2.99199e-05,-1.32977e-05,4.99034e-05,-4.23505e-22,-7.33532e-22,0.0,1.1081406139368255e-06,4.990464519538662e-05,0.0,2.992034760462836e-05,0.0,-1.3297611585971758e-05
20,1.799,3.45341,10.3602,-3.17194e-15,5.98148,6.53581e-17,-1.44564e-17,1.66234e-06,4.48827e-05,-1.99479e-05,7.48599e-05,-1.09041e-26,-1.88864e-26,0.0,1.6623413816585497e-06,7.486270207235357e-05,0.0,4.4883707243537074e-05,0.0,-1.994770104196686e-05
21,2.698,5.18029,15.5409,-2.8485e-14,8.97252,-6.87866e-17,2.39178e-17,2.49357e-06,6.73263e-05,-2.99228e-05,0.000112294,-4.23518e-22,-7.33555e-22,0.0,2.4935731088859825e-06,0.00011230030520725798,0.0,6.732856646629592e-05,0.0,-2.9922352317468537e-05
22,4.047,31.1929,93.5787,-1.03264e-09,54.0277,-8.08225e-16,-1.7395e-16,1.5015e-05,0.000405403,-0.000180179,0.000676171,-3.02527e-20,1.82072e-21,0.0,1.5015112725613733e-05,0.0006763996551444329,0.0,0.00040548518690219915,0.0,-0.00018016276873877857
23,6.071,70.3658,211.097,-9.04826e-07,121.877,1.29847e-16,-7.14917e-16,3.38711e-05,0.000914519,-0.000406453,0.00152533,-2.03309e-20,-3.52142e-20,0.0,3.3871673632113186e-05,0.0015264939075101402,0.0,0.0009149373000056915,0.0,-0.00040637040916957634
24,8.776,121.135,363.423,0.000249366,209.817,-0.000399161,-0.000691168,5.54898e-05,0.00159316,-0.000715672,0.00266347,-5.07651e-09,-8.79659e-09,3.01638e-05,5.549133958737684e-05,0.002667020187460123,-5.076509990153966e-09,0.001594429753610127,-8.796590011961314e-09,-0.0007154159678761651
25,11.48,127.034,381.445,0.126129,220.248,-0.00752069,-0.0129968,-2.66166e-05,0.00223465,-0.00122875,0.00392351,-1.36185e-07,-2.38769e-07,0.000937545,-2.661624578148558e-05,0.003931217041615254,-1.3618499072887147e-07,0.0022371486911980654,-2.3876897148333853e-07,-0.0012279953958236334
26,14.19,132.008,396.271,0.000299847,228.716,-0.0136633,-0.0236244,-0.000109919,0.00287507,-0.00174799,0.00518376,-2.8805e-07,-5.07542e-07,0.00186506,-0.00010991295912798904,0.005197218929773095,-2.8804995855225e-07,0.0028792069775023243,-5.075418711975033e-07,-0.0017464631552458476
27,16.89,136.181,408.874,-9.56335e-06,235.967,-0.0186197,-0.0321819,-0.000195336,0.00351409,-0.00226929,0.00644532,-4.5052e-07,-7.96418e-07,0.0028059,-0.00019531692316565596,0.006466135772358328,-4.5051989849831386e-07,0.0035202716531048672,-7.964176829133862e-07,-0.0022667171080285042
28,19.6,139.82,419.866,9.30169e-06,242.292,-0.022837,-0.0394584,-0.00028191,0.00415205,-0.00279251,0.00770705,-6.24462e-07,-1.1067e-06,0.00375623,-0.0002818702671096851,0.007736825755108256,-6.244618050432749e-07,0.004160681701885771,-1.1066993875763487e-06,-0.0027886145708018173
29,22.3,143.053,429.632,4.27848e-06,247.911,-0.0264896,-0.045757,-0.000369346,0.00478907,-0.00331706,0.00896861,-8.08524e-07,-1.43577e-06,0.00471354,-0.0003692778001629371,0.009008948485865309,-8.085236731236733e-07,0.004800555924044048,-1.4357689692712228e-06,-0.003311564634309816
30,25.01,145.966,438.429,1.91166e-06,252.974,-0.029699,-0.0512886,-0.000457445,0.0054252,-0.00384254,0.0102298,-1.00153e-06,-1.78138e-06,0.00567615,-0.00045734038798783683,0.010282303283991823,-1.0015294984455636e-06,0.005439943046787743,-1.7813784133347e-06,-0.0038351668900207248
31,27.71,148.619,446.442,7.54291e-07,257.585,-0.0325527,-0.0562048,-0.000546063,0.0060605,-0.00436869,0.0114903,-1.20246e-06,-2.1416e-06,0.00664286,-0.0005459139347343545,0.01155656706330932,-1.2024592770387699e-06,0.006078901986422025,-2.141597706728504e-06,-0.00435916115508217
32,30.42,151.058,453.808,1.65756e-07,261.824,-0.0351153,-0.0606179,-0.000635096,0.006695,-0.00489528,0.0127502,-1.41044e-06,-2.51481e-06,0.00761278,-0.0006348943692225939,0.012831830365579,-1.4104390053670812e-06,0.006717461611350339,-2.514806837883299e-06,-0.004883317644514329
33,33.12,153.317,460.628,-1.40528e-07,265.748,-0.0374357,-0.0646127,-0.000724465,0.00732874,-0.00542217,0.0140093,-1.62472e-06,-2.8996e-06,0.00858524,-0.0007242026385929634,0.014107890098015607,-1.6247186801487956e-06,0.007355660940333353,-2.8995957961353014e-06,-0.005407496568837211
34,35.83,155.422,466.983,-3.02447e-07,269.406,-0.039552,-0.068255,-0.000814108,0.00796174,-0.00594923,0.0152676,-1.84466e-06,-3.29476e-06,0.00955972,-0.0008137767039917421,0.01538474522105382,-1.844658298666424e-06,0.007993518934465316,-3.294754572280567e-06,-0.005931568372921192
35,38.53,157.393,472.936,-3.89749e-07,272.831,-0.0414941,-0.0715964,-0.000903976,0.008594,-0.00647638,0.0165249,-2.0697e-06,-3.69926e-06,0.0105358,-0.0009035675367852214,0.016662191359452683,-2.0696978582090964e-06,0.008631034433284057,-3.6992531577961785e-06,-0.006455453451512216
36,41.24,159.248,478.537,-4.39085e-07,276.055,-0.0432858,-0.0746786,-0.000994029,0.00922556,-0.00700352,0.0177813,-2.29934e-06,-4.1122e-06,0.0115132,-0.0009935351168318673,0.01794032849429228,-2.2993373565149966e-06,0.009268246647083256,-4.11219154494713e-06,-0.006979052506651984
37,43.94,161.001,483.828,-4.70242e-07,279.1,-0.0449468,-0.0775351,-0.00108423,0.00985641,-0.00753061,0.0190367,-2.53317e-06,-4.53279e-06,0.0124916,-0.0010836424350246787,0.019219053270283615,-2.5331667915517997e-06,0.009905144392829746,-4.532779726895697e-06,-0.007502325999638737
38,46.65,162.662,488.844,-4.94089e-07,281.987,-0.0464929,-0.0801937,-0.00117457,0.0104866,-0.00805758,0.0202911,-2.77081e-06,-4.96033e-06,0.0134708,-0.0011738804626538757,0.02049836386656012,-2.770806161289663e-06,0.010541777094486227,-4.960317697588756e-06,-0.008025204716108014
39,49.35,164.242,493.614,-5.16625e-07,284.732,-0.0479376,-0.0826773,-0.001265,0.0111161,-0.0085844,0.0215445,-3.01193e-06,-5.39421e-06,0.0144506,-0.0012642002247741368,0.021778258458210242,-3.0119254641469695e-06,0.011178113409008983,-5.394195451313699e-06,-0.008547659245928152
40,52.06,165.749,498.163,-5.41126e-07,287.35,-0.0492919,-0.0850053,-0.00135552,0.0117449,-0.00911102,0.0227968,-3.25623e-06,-5.8339e-06,0.0154308,-0.0013546016977373787,0.023058632910411214,-3.256224698433563e-06,0.011814142153201201,-5.833882982808625e-06,-0.009069640422689207
41,54.76,167.189,502.51,-5.69326e-07,289.852,-0.0505654,-0.087194,-0.00144611,0.012373,-0.00963743,0.0240481,-3.50345e-06,-6.27891e-06,0.0164114,-0.0014450648867774252,0.02433958743983511,-3.5034438629066855e-06,0.012449862242881915,-6.2788902877031205e-06,-0.009591138800251087
42,57.47,168.569,506.675,-6.0207e-07,292.249,-0.0517661,-0.0892575,-0.00153675,0.0130005,-0.0101636,0.0252982,-3.75336e-06,-6.72882e-06,0.0173921,-0.0015355698043513222,0.025620915085072138,-3.753352956104017e-06,0.013085373902369524,-6.7287973615215435e-06,-0.01011212515503368
43,60.17,169.893,510.673,-6.39688e-07,294.55,-0.0529011,-0.0912077,-0.00162744,0.0136273,-0.0106895,0.0265473,-4.00574e-06,-7.18322e-06,0.0183729,-0.001626116437626668,0.026902818616281188,-4.005731977008153e-06,0.013720574865917046,-7.183194200788279e-06,-0.010632570325362245
44,62.88,171.167,514.518,-6.82225e-07,296.763,-0.0539763,-0.0930551,-0.00171815,0.0142535,-0.0112151,0.0277953,-4.2604e-06,-7.64178e-06,0.0193538,-0.0017166748252669395,0.02818519336931824,-4.2603909244931515e-06,0.014355565484711397,-7.641750801701264e-06,-0.01115244521131098
45,65.58,172.393,518.222,-7.29559e-07,298.895,-0.054997,-0.0948087,-0.00180889,0.014879,-0.0117403,0.0290421,-4.51717e-06,-8.10417e-06,0.0203345,-0.0018072549445110608,0.029467934162852094,-4.517159797656767e-06,0.014990243365735845,-8.104137161346614e-06,-0.01167165159155581
46,68.29,173.577,521.795,-7.81481e-07,300.951,-0.0559679,-0.0964766,-0.00189964,0.0155038,-0.0122653,0.0302878,-4.77588e-06,-8.57011e-06,0.0213152,-0.0018978368259097156,0.030751141448160046,-4.775868595485733e-06,0.015624607424486125,-8.57007327670356e-06,-0.01219038779430237
47,70.99,174.721,525.247,-8.37746e-07,302.938,-0.056893,-0.0980657,-0.00199039,0.0161281,-0.0127899,0.0315325,-5.03641e-06,-9.03934e-06,0.0222956,-0.001988410487375858,0.03203491618538434,-5.036397317303987e-06,0.0162588598281892,-9.0392991453081e-06,-0.01270845681547994
48,73.7,175.827,528.586,-8.9809e-07,304.86,-0.0577758,-0.0995822,-0.00208115,0.0167517,-0.0133142,0.0327759,-5.29862e-06,-9.51161e-06,0.0232758,-0.0020789859088651275,0.03331894651639544,-5.298605962322789e-06,0.016892796494086815,-9.511564764808078e-06,-0.013225958096756085
49,76.4,176.899,531.821,-9.62253e-07,306.722,-0.0586196,-0.101032,-0.0021719,0.0173746,-0.0138381,0.0340183,-5.56238e-06,-9.98672e-06,0.0242557,-0.0021695431317977354,0.03460353979965802,-5.562364529976271e-06,0.017526416337436013,-9.98667013285548e-06,-0.013742793620422411
50,79.11,177.938,534.957,-1.02999e-06,308.527,-0.0594273,-0.102419,-0.00226264,0.0179969,-0.0143617,0.0352595,-5.82758e-06,-1.04644e-05,0.0252352,-0.002260082159636023,0.035888486986518364,-5.8275630197002215e-06,0.018159820089459267,-1.0464345248317741e-05,-0.014259062722636773
51,81.81,178.946,538.001,-1.10105e-06,310.279,-0.0602014,-0.103748,-0.00235336,0.0186186,-0.0148848,0.0364995,-6.09413e-06,-1.09446e-05,0.0262144,-0.002350593019348146,0.03717378543072747,-6.094111430821059e-06,0.01879300685532037,-1.0944540108082101e-05,-0.014774568964514012
52,84.52,179.926,540.958,-1.17523e-06,311.982,-0.0609443,-0.105024,-0.00244406,0.0192397,-0.0154076,0.0377385,-6.36193e-06,-1.14271e-05,0.0271931,-0.0024410757171087205,0.03845964017339387,-6.361909762997442e-06,0.019425975740017476,-1.1427034710909112e-05,-0.015289510202491141
53,87.22,180.879,543.835,-1.25232e-06,313.637,-0.0616579,-0.10625,-0.00253474,0.0198601,-0.01593,0.0389762,-6.63089e-06,-1.19116e-05,0.0281714,-0.0025315302590916966,0.03974573740712839,-6.630868015666813e-06,0.020058623842516,-1.191152905721804e-05,-0.015803788621142734
54,89.93,181.806,546.634,-1.33214e-06,315.249,-0.0623442,-0.107429,-0.00262539,0.0204799,-0.016452,0.0402129,-6.90094e-06,-1.23981e-05,0.0291492,-0.002621946677687781,0.041032386395996046,-6.900916188601336e-06,0.020691052146859512,-1.239802314390026e-05,-0.016317404977950645
55,92.63,182.71,549.361,-1.41451e-06,316.818,-0.0630048,-0.108563,-0.00271601,0.0210991,-0.0169736,0.0414483,-7.17199e-06,-1.28865e-05,0.0301266,-0.0027123249817770922,0.04231927255205625,-7.171964281349474e-06,0.02132325975762539,-1.2886416969393188e-05,-0.016830360029207014
56,95.34,183.591,552.02,-1.49928e-06,318.348,-0.0636415,-0.109657,-0.0028066,0.0217177,-0.0174948,0.0426827,-7.44398e-06,-1.33765e-05,0.0311034,-0.0028026651802358638,0.043606705902481835,-7.4439522936842195e-06,0.021955245779234467,-1.3376410535004268e-05,-0.017342654530015822
57,98.04,184.45,554.613,-1.58631e-06,319.841,-0.0642555,-0.110711,-0.00289715,0.0223357,-0.0180155,0.0439158,-7.71685e-06,-1.38682e-05,0.0320796,-0.002892957310865807,0.04489437107833272,-7.716820225156518e-06,0.022587009315952145,-1.3868103836967016e-05,-0.01785419101971919
58,100.7,185.288,557.145,-1.67547e-06,321.298,-0.0648482,-0.111729,-0.00298765,0.022953,-0.0185359,0.0451479,-7.99052e-06,-1.43613e-05,0.0330553,-0.0029831914150744154,0.046182578870382684,-7.990488075870772e-06,0.023218447150038735,-1.4361196877032967e-05,-0.01836516673130084
59,103.5,186.108,559.617,-1.76664e-06,322.722,-0.0654208,-0.112713,-0.00307812,0.0235698,-0.0190558,0.0463787,-8.26495e-06,-1.48557e-05,0.0340304,-0.0030733874456680965,0.04747101312824786,-8.264915845379583e-06,0.023849762966023702,-1.4855589654638734e-05,-0.018875386038115893
60,106.2,186.909,562.034,-1.85972e-06,324.113,-0.0659744,-0.113664,-0.00316855,0.0241859,-0.0195753,0.0476084,-8.54009e-06,-1.53515e-05,0.035005,-0.003163535443138188,0.048759880530799604,-8.540053533567793e-06,0.024480751160941727,-1.5351382166350902e-05,-0.019384947904914074
61,108.9,187.692,564.398,-1.95459e-06,325.473,-0.0665099,-0.114584,-0.00325893,0.0248014,-0.0200944,0.048837,-8.81588e-06,-1.58485e-05,0.0359789,-0.0032536254515761476,0.05004917877375159,-8.815841140208391e-06,0.02511151316037319,-1.5848374413152122e-05,-0.019893853080690582
62,111.6,188.458,566.711,-2.05118e-06,326.805,-0.0670284,-0.115475,-0.00334926,0.0254163,-0.020613,0.0500644,-9.09227e-06,-1.63465e-05,0.0369521,-0.003343657485231022,0.05133880041467731,-9.092228665408264e-06,0.025742048067905587,-1.634636639669118e-05,-0.020402004353469283
63,114.3,189.208,568.975,-2.1494e-06,328.108,-0.0675308,-0.116338,-0.00343954,0.0260306,-0.0211313,0.0512907,-9.36923e-06,-1.68456e-05,0.0379248,-0.0034336315583425314,0.05262884801664747,-9.369186108942884e-06,0.026372354986982538,-1.6845458113645684e-05,-0.020909598440242094
64,117.0,189.943,571.193,-2.24917e-06,329.385,-0.0680177,-0.117174,-0.00352977,0.0266443,-0.021649,0.0525158,-9.64671e-06,-1.73456e-05,0.0388968,-0.0035235476851398495,0.05391921387056686,-9.646663470697092e-06,0.027002433020907546,-1.7345449565997484e-05,-0.021416342359148355
65,119.7,190.663,573.367,-2.35042e-06,330.636,-0.06849,-0.117986,-0.00361995,0.0272574,-0.0221664,0.0537398,-9.92467e-06,-1.78465e-05,0.0398681,-0.0036134058798427127,0.05521000078878613,-9.924620750667579e-06,0.027632281272844672,-1.784634075219227e-05,-0.021922530581426236
66,122.4,191.369,575.498,-2.45309e-06,331.862,-0.0689484,-0.118773,-0.00371008,0.0278699,-0.0226833,0.0549626,-1.02031e-05,-1.83482e-05,0.0408387,-0.0037032061566606433,0.0565011007954197,-1.020304794852045e-05,0.02826189884582231,-1.8348031672776877e-05,-0.02242796818376669
67,125.1,192.062,577.588,-2.55711e-06,333.065,-0.0693934,-0.119538,-0.00380015,0.0284818,-0.0231998,0.0561843,-1.04819e-05,-1.88507e-05,0.0418087,-0.003792938567722226,0.057792616952268006,-1.0481845065024586e-05,0.028891284842733622,-1.8850522326641084e-05,-0.022932753766101155
68,127.8,192.741,579.638,-2.66243e-06,334.246,-0.0698258,-0.120281,-0.00389017,0.0290931,-0.0237158,0.0574048,-1.07611e-05,-1.93538e-05,0.0427779,-0.0038826130910815104,0.05908444101653276,-1.0761042099516338e-05,0.02952043836634033,-1.9353612716432878e-05,-0.023436790412519448
69,130.5,193.408,581.651,-2.76899e-06,335.405,-0.0702461,-0.121003,-0.00398013,0.0297038,-0.0242314,0.0586242,-1.10406e-05,-1.98576e-05,0.0437465,-0.003972219780638553,0.06037667629963783,-1.1040539052764586e-05,0.030149358519272695,-1.985740283916293e-05,-0.02394017661926684
70,133.2,194.063,583.628,-2.87676e-06,336.542,-0.0706548,-0.121706,-0.00407004,0.030314,-0.0247465,0.0598424,-1.13205e-05,-2.0362e-05,0.0447144,-0.004061768612630079,0.061669214291752095,-1.1320435923334315e-05,0.030778147481843376,-2.036179269593319e-05,-0.02444281556851524
71,135.9,194.706,585.57,-2.98567e-06,337.66,-0.0710524,-0.122389,-0.00415988,0.0309235,-0.0252612,0.0610595,-1.16007e-05,-2.08669e-05,0.0456815,-0.00415123968423714,0.06296215855409071,-1.160063271210543e-05,0.03140659826365422,-2.0866682287734584e-05,-0.024944805653111635
72,138.6,195.339,587.478,-3.0957e-06,338.758,-0.0714393,-0.123054,-0.00424967,0.0315324,-0.0257755,0.0622754,-1.18811e-05,-2.13723e-05,0.0466479,-0.004240652930158073,0.06425540030967314,-1.1881029419957834e-05,0.03203481298189792,-2.1372071614012e-05,-0.025446147608429892
73,141.3,195.96,589.354,-3.2068e-06,339.838,-0.0718161,-0.123702,-0.00433939,0.0321407,-0.0262893,0.0634902,-1.21618e-05,-2.18781e-05,0.0476136,-0.004329988451125866,0.06554904336967415,-1.2161726045567534e-05,0.03266279073870537,-2.1877860676089433e-05,-0.02594674476336678
74,144.0,196.571,591.198,-3.31894e-06,340.9,-0.0721831,-0.124333,-0.00442906,0.0327485,-0.0268026,0.0647039,-1.24426e-05,-2.23843e-05,0.0485786,-0.00441926617823496,0.06684308537415129,-1.2442522591138427e-05,0.03329063396514487,-2.238404947341177e-05,-0.026446598000971377
75,146.7,197.172,593.012,-3.43208e-06,341.944,-0.0725408,-0.124948,-0.00451866,0.0333556,-0.0273155,0.0659164,-1.27237e-05,-2.28909e-05,0.0495428,-0.00450846621576384,0.06813741714523114,-1.2723619054022528e-05,0.033918135167742,-2.289063800531288e-05,-0.026945805508147735
76,149.4,197.764,594.797,-3.54618e-06,342.971,-0.0728894,-0.125548,-0.0046082,0.0339622,-0.027828,0.0671278,-1.30049e-05,-2.33978e-05,0.0505063,-0.004597598537185221,0.06943214286939892,-1.3004815436645778e-05,0.034545500169102406,-2.3397526273560842e-05,-0.02744436801526995
77,152.1,198.346,596.554,-3.66122e-06,343.983,-0.0732294,-0.126133,-0.00469767,0.0345682,-0.02834,0.0683381,-1.32863e-05,-2.39049e-05,0.051469,-0.004686653206124158,0.07072726017405717,-1.3286211737462139e-05,0.03517262474175831,-2.3904614280145786e-05,-0.027942189045787158
78,154.8,198.919,598.283,-3.77718e-06,344.978,-0.073561,-0.126703,-0.00478709,0.0351736,-0.0288516,0.0695472,-1.35679e-05,-2.44124e-05,0.052431,-0.004775650146481958,0.07202265948016962,-1.3567807956471611e-05,0.035799507987188894,-2.441210201975519e-05,-0.028439366633000507
79,157.6,199.483,599.986,-3.89401e-06,345.958,-0.0738846,-0.12726,-0.00487644,0.0357784,-0.0293627,0.0707551,-1.38495e-05,-2.492e-05,0.0533922,-0.004864569469611446,0.0733183380180733,-1.3849404096100137e-05,0.036426149006762554,-2.4919689499358633e-05,-0.028935804397236864
80,160.3,200.039,601.664,-4.0117e-06,346.924,-0.0742004,-0.127803,-0.00496572,0.0363827,-0.0298733,0.071962,-1.41313e-05,-2.54278e-05,0.0543527,-0.004953411194895563,0.07461450793663071,-1.413120015369973e-05,0.03705265060700058,-2.5427476716188835e-05,-0.029431503212834498
81,163.0,200.586,603.317,-4.13023e-06,347.875,-0.0745088,-0.128334,-0.00505494,0.0369863,-0.0303835,0.0731677,-1.44131e-05,-2.59357e-05,0.0553124,-0.0050421852912775345,0.0759109520531307,-1.4412996131807354e-05,0.03767880454115358,-2.5935363672680012e-05,-0.029926560959925186
82,165.7,201.126,604.945,-4.24956e-06,348.813,-0.07481,-0.128852,-0.00514409,0.0375894,-0.0308933,0.0743723,-1.46949e-05,-2.64438e-05,0.0562713,-0.00513088182675181,0.07720777530580492,-1.4694792030534032e-05,0.03830481738336977,-2.6443450365842835e-05,-0.030420978361444084
83,168.4,201.658,606.551,-4.36969e-06,349.737,-0.0751043,-0.129359,-0.00523318,0.0381919,-0.0314026,0.0755757,-1.49769e-05,-2.6952e-05,0.0572295,-0.00521951076845506,0.0785048674464146,-1.4976787846787687e-05,0.03893058452926601,-2.6951636798111522e-05,-0.03091465923066017
84,171.1,202.182,608.133,-4.49058e-06,350.648,-0.0753918,-0.129854,-0.0053222,0.0387939,-0.0319114,0.0767781,-1.52588e-05,-2.74602e-05,0.0581869,-0.0053080621861243404,0.0798024416443075,-1.5258683585095412e-05,0.039556209035235046,-2.7459822972142334e-05,-0.031407604436148984
85,173.8,202.699,609.694,-4.61222e-06,351.546,-0.0756729,-0.130337,-0.00541115,0.0393952,-0.0324198,0.0779793,-1.55408e-05,-2.79685e-05,0.0591435,-0.005396536099057325,0.0811002796626723,-1.554067924236513e-05,0.04018148215325135,-2.7968108885167986e-05,-0.03189991165495476
86,176.5,203.21,611.234,-4.73459e-06,352.433,-0.0759477,-0.130811,-0.00550004,0.039996,-0.0329278,0.0791794,-1.58228e-05,-2.84768e-05,0.0600993,-0.005484942471684073,0.08239848694176244,-1.582267482014288e-05,0.04080661095761795,-2.8476394539733718e-05,-0.032391581605093034
87,179.2,203.713,612.752,-4.85767e-06,353.307,-0.0762165,-0.131274,-0.00558886,0.0405962,-0.0334353,0.0803783,-1.61048e-05,-2.89851e-05,0.0610544,-0.005573271376348887,0.08369695269752375,-1.610467031842866e-05,0.041431490593134335,-2.8984679936061575e-05,-0.0328825182917073
88,181.9,204.209,614.251,-4.98145e-06,354.169,-0.0764794,-0.131726,-0.00567761,0.0411958,-0.0339423,0.0815762,-1.63867e-05,-2.94933e-05,0.0620086,-0.005661522832298038,0.08499589112100114,-1.638656573876851e-05,0.04205612016012439,-2.949286507691884e-05,-0.03337272257764645
89,184.6,204.699,615.73,-5.10592e-06,355.021,-0.0767366,-0.132169,-0.00576629,0.0417949,-0.0344489,0.0827729,-1.66687e-05,-3.00016e-05,0.0629621,-0.005749696858759257,0.08629508292027244,-1.6668561077959332e-05,0.04268060302687671,-3.00011499565489e-05,-0.03386229193799917
90,187.3,205.183,617.19,-5.23104e-06,355.861,-0.0769884,-0.132603,-0.00585491,0.0423934,-0.0349551,0.0839685,-1.69506e-05,-3.05097e-05,0.0639148,-0.005837803416564258,0.0875946340382654,-1.6950456339426268e-05,0.04330483415031883,-3.050923458380872e-05,-0.034351227085894
91,190.0,205.661,618.631,-5.35682e-06,356.691,-0.0772348,-0.133028,-0.00594345,0.0429913,-0.0354608,0.085163,-1.72324e-05,-3.10177e-05,0.0648668,-0.00592582264078112,0.08889454204411829,-1.7232251523058295e-05,0.04392881263043491,-3.101721895615306e-05,-0.034839432217284916
92,192.7,206.132,620.055,-5.48324e-06,357.51,-0.077476,-0.133444,-0.00603193,0.0435887,-0.035966,0.0863564,-1.75142e-05,-3.15257e-05,0.0658179,-0.00601377443294937,0.09019480450288309,-1.7514046627309376e-05,0.044552642022386735,-3.1525203070370544e-05,-0.03532690818933004
93,195.4,206.598,621.46,-5.61028e-06,358.319,-0.0777123,-0.133851,-0.00612033,0.0441855,-0.0364708,0.0875487,-1.77959e-05,-3.20335e-05,0.0667682,-0.0061016389316214115,0.09149541897553237,-1.7795741653947594e-05,0.04517621709543951,-3.203298693288392e-05,-0.035813752276290245
94,198.1,207.058,622.849,-5.73793e-06,359.119,-0.0779437,-0.13425,-0.00620867,0.0447817,-0.0369751,0.0887398,-1.80775e-05,-3.25412e-05,0.0677178,-0.006189436034783058,0.09279627373933308,-1.807733660297295e-05,0.045799536949256536,-3.254067054092591e-05,-0.03629986881642944
95,200.8,207.513,624.221,-5.86618e-06,359.908,-0.0781703,-0.13464,-0.00629694,0.0453774,-0.037479,0.0899299,-1.8359e-05,-3.30487e-05,0.0686665,-0.0062771558216944134,0.09409758477625152,-1.8358831474607484e-05,0.04642270532569026,-3.304815389770788e-05,-0.036785354984020135
96,203.5,207.962,625.576,-5.99502e-06,360.688,-0.0783924,-0.135023,-0.00638514,0.0459725,-0.0379825,0.0911188,-1.86404e-05,-3.3556e-05,0.0696145,-0.006364798311460418,0.09539913094560304,-1.86402262688512e-05,0.04704561680655717,-3.3555437003673916e-05,-0.03727021148491849
97,206.2,208.406,626.916,-6.12443e-06,361.46,-0.0786101,-0.135399,-0.00647327,0.0465671,-0.0384854,0.0923067,-1.89217e-05,-3.40632e-05,0.0705617,-0.006452363523167581,0.09670112874173942,-1.892152098581512e-05,0.04766837525805023,-3.40626198558347e-05,-0.03775424657473814
98,208.9,208.845,628.24,-6.25441e-06,362.222,-0.0788234,-0.135767,-0.00656132,0.0471611,-0.038988,0.0934934,-1.92029e-05,-3.45701e-05,0.0715081,-0.006539841541282954,0.09800335649523206,-1.9202715625499245e-05,0.048290875137114275,-3.456950246094603e-05,-0.03823774977587724
99,211.7,209.278,629.549,-6.38495e-06,362.975,-0.0790326,-0.136128,-0.00664931,0.0477545,-0.0394901,0.0946791,-1.9484e-05,-3.50768e-05,0.0724536,-0.00662725225493499,0.09930603121311754,-1.9483810188125616e-05,0.04891311554289013,-3.507618481624064e-05,-0.038720529389750014
100,214.4,209.707,630.843,-6.51604e-06,363.72,-0.0792376,-0.136482,-0.00673723,0.0483474,-0.0399917,0.0958636,-1.97649e-05,-3.55833e-05,0.0733984,-0.006714585747680135,0.10060893069697396,-1.9764704675684364e-05,0.049535200527965895,-3.5582666921940564e-05,-0.03920258626223738
101,217.1,210.131,632.123,-6.64766e-06,364.457,-0.0794387,-0.136829,-0.00682508,0.0489397,-0.0404929,0.0970471,-2.00457e-05,-3.60896e-05,0.0743424,-0.006801842038533512,0.10191227246681644,-2.004549908629638e-05,0.05015702436218805,-3.608894877826785e-05,-0.039684017269314364
102,219.8,210.55,633.388,-6.77981e-06,365.185,-0.0796359,-0.137169,-0.00691285,0.0495314,-0.0409936,0.0982294,-2.03264e-05,-3.65956e-05,0.0752856,-0.006889011215382546,0.10321583379498622,-2.0326193420183714e-05,0.05077858614442188,-3.659493038921102e-05,-0.040164727126112076
103,222.5,210.965,634.64,-6.91248e-06,365.906,-0.0798294,-0.137503,-0.00700056,0.0501226,-0.0414939,0.0994107,-2.06069e-05,-3.71013e-05,0.076228,-0.006976113160297115,0.10451983271476939,-2.060668767933649e-05,0.0513999901134643,-3.71006117553252e-05,-0.040644812609733294
104,225.2,211.376,635.878,-7.04566e-06,366.619,-0.0800192,-0.137831,-0.00708819,0.0507133,-0.0419938,0.100591,-2.08872e-05,-3.76067e-05,0.0771696,-0.007063128030888932,0.10582426713386028,-2.088698186397675e-05,0.05202123555440119,-3.760599287694344e-05,-0.041124274416446394
105,227.9,211.781,637.103,-7.17934e-06,367.324,-0.0802054,-0.138153,-0.00717575,0.0513034,-0.0424932,0.10177,-2.11674e-05,-3.81119e-05,0.0781104,-0.0071500657772083365,0.10712880281748327,-2.116717597211437e-05,0.05264221648790679,-3.8111173750743355e-05,-0.041603017401729336
106,230.6,212.183,638.316,-7.31352e-06,368.022,-0.0803882,-0.138469,-0.00726325,0.051893,-0.0429921,0.102948,-2.14474e-05,-3.86167e-05,0.0790504,-0.007236936345809908,0.10843376902138968,-2.144717000618357e-05,0.053263037338750374,-3.861595438481302e-05,-0.04208104240309629
107,233.3,212.581,639.515,-7.44819e-06,368.712,-0.0805676,-0.138779,-0.00735067,0.052482,-0.0434906,0.104125,-2.17272e-05,-3.91213e-05,0.0799896,-0.007323719899470338,0.10973916364156167,-2.172696396607332e-05,0.05388359200315085,-3.912053477195254e-05,-0.042558446000725
108,236.0,212.974,640.702,-7.58334e-06,369.396,-0.0807437,-0.139083,-0.00743802,0.0530704,-0.0439887,0.105301,-2.20068e-05,-3.96255e-05,0.080928,-0.0074104263855760966,0.11104498457021705,-2.2006557852116693e-05,0.05450387957939462,-3.962471492024999e-05,-0.04303522888613709
109,238.7,213.363,641.878,-7.71896e-06,370.072,-0.0809166,-0.139382,-0.00752529,0.0536583,-0.0444863,0.106475,-2.22862e-05,-4.01293e-05,0.0818656,-0.007497045897968069,0.11235011734513844,-2.228595166453573e-05,0.05512400467811118,-4.012849483037151e-05,-0.04351129610089699
110,241.4,213.749,643.041,-7.85505e-06,370.742,-0.0810863,-0.139675,-0.0076125,0.0542457,-0.0449835,0.107649,-2.25655e-05,-4.06329e-05,0.0828024,-0.007583598306422523,0.11365678324570672,-2.256524540100724e-05,0.05574396658344494,-4.063207449489514e-05,-0.043986744078314044
111,244.1,214.131,644.192,-7.9916e-06,371.405,-0.081253,-0.139964,-0.00769963,0.0548325,-0.0454802,0.108822,-2.28446e-05,-4.1136e-05,0.0837384,-0.007670063780579106,0.11496386910844092,-2.2844339064076458e-05,0.056363658942992556,-4.1135153926341594e-05,-0.04446147795261235
112,246.8,214.508,645.333,-8.1286e-06,372.061,-0.0814167,-0.140247,-0.0077867,0.0554187,-0.0459765,0.109993,-2.31234e-05,-4.16389e-05,0.0846736,-0.007756462186716662,0.11627025653972689,-2.3123132656288625e-05,0.056983080854689616,-4.163803311307834e-05,-0.044935594059460904
113,249.5,214.883,646.462,-8.26605e-06,372.711,-0.0815775,-0.140525,-0.00787369,0.0560045,-0.0464723,0.111164,-2.3402e-05,-4.21413e-05,0.0856081,-0.00784277369789721,0.11757817464673082,-2.3401726175320547e-05,0.0576024429368962,-4.214041206784813e-05,-0.04540899762548456
114,252.2,215.253,647.58,-8.40395e-06,373.355,-0.0817354,-0.140798,-0.00796061,0.0565897,-0.0469677,0.112333,-2.36805e-05,-4.26434e-05,0.0865417,-0.007929008256199133,0.1188853874499105,-2.3680219619182097e-05,0.0582215330145921,-4.264249078311799e-05,-0.04588178488898642
115,254.9,215.62,648.688,-8.54228e-06,373.992,-0.0818906,-0.141067,-0.00804746,0.0571743,-0.0474627,0.113501,-2.39587e-05,-4.31451e-05,0.0874745,-0.008015165880383202,0.12019300908482955,-2.3958412992630684e-05,0.05884035018542755,-4.314416926354259e-05,-0.04635395653334318
116,257.6,215.984,649.785,-8.68104e-06,374.624,-0.082043,-0.141331,-0.00813424,0.0577584,-0.0479572,0.114668,-2.42367e-05,-4.36464e-05,0.0884065,-0.008101246589192201,0.12150103741251139,-2.423640629356516e-05,0.05945899949291222,-4.364544750978805e-05,-0.04682541792340156
117,260.3,216.344,650.872,-8.82023e-06,375.25,-0.0821928,-0.14159,-0.00822094,0.058342,-0.0484513,0.115835,-2.45145e-05,-4.41473e-05,0.0893377,-0.008187240483223723,0.12281059310029341,-2.4514199522096547e-05,0.0600774802201387,-4.414632552229847e-05,-0.04729626515201868
118,263.0,216.701,651.948,-8.95985e-06,375.87,-0.08234,-0.141845,-0.00830757,0.058925,-0.0489449,0.117,-2.4792e-05,-4.46478e-05,0.0902681,-0.008273157501031303,0.12411942969053702,-2.4791692680881106e-05,0.060695685580459235,-4.4646803301851e-05,-0.047766403675806424
119,265.8,217.054,653.015,-9.09987e-06,376.484,-0.0824847,-0.142096,-0.00839414,0.0595075,-0.0494381,0.118164,-2.50693e-05,-4.51479e-05,0.0911978,-0.00835900757771224,0.12542866653471663,-2.5068985767706664e-05,0.06131372080259312,-4.514688084888974e-05,-0.04823592949093003
120,268.5,217.405,654.072,-9.24031e-06,377.092,-0.0826269,-0.142342,-0.00848063,0.0600894,-0.0499308,0.119327,-2.53464e-05,-4.56476e-05,0.0921266,-0.00844477089825868,0.12673830147900222,-2.5346078782684245e-05,0.061931478976037235,-4.564655816419183e-05,-0.0487047481455104
121,270.5,217.667,654.865,-9.61268e-06,377.548,-0.0827325,-0.142525,-0.00854593,0.0605288,-0.0503028,0.120205,-2.55555e-05,-4.60247e-05,0.0928278,-0.00850951734072447,0.12772801212709606,-2.5555173461033753e-05,0.0623981941977243,-4.60236408796888e-05,-0.04905856416534027
