,Time,S11,S22,S33,S12,S13,S23,LE11,LE22,LE33,LE12,LE13,LE23,SDV_EPBAR,E11,E12,E13,E22,E23,E33
0,0.0002705,0.000519365,0.0015581,-7.79048e-12,0.000899567,2.21372e-21,3.68811e-20,2.50301e-10,6.7501e-09,-3.0004e-09,1.1258e-08,2.76762e-26,4.61603e-25,0.0,2.5030089112476617e-10,1.1258000087721598e-08,0.0,6.750100034480511e-09,0.0,-3.0004000395322805e-09
1,0.000541,0.00103873,0.00311619,4.33681e-19,0.00179913,-3.08331e-20,-2.03577e-20,5.00425e-10,1.35001e-08,-6.00057e-09,2.25162e-08,-1.63975e-24,4.6912e-25,0.0,5.00425034744012e-10,2.2516200237632233e-08,0.0,1.3500100148888805e-08,0.0,-6.000569929831556e-09
2,0.00094675,0.00181778,0.00545333,6.50521e-19,0.00314848,1.87371e-20,6.55005e-20,8.75688e-10,2.36252e-08,-1.05009e-08,3.94034e-08,-1.73568e-24,1.95724e-24,0.0,8.756879665838824e-10,3.9403400764470575e-08,0.0,2.3625200240573463e-08,0.0,-1.0500899927379237e-08
3,0.0015554,0.00298635,0.00895905,1.73472e-18,0.00517251,4.73565e-20,4.89771e-20,1.4375e-09,3.88125e-08,-1.725e-08,6.47354e-08,4.1359e-25,7.16359e-25,0.0,1.4374998968946784e-09,6.473540214990692e-08,0.0,3.8812500768869995e-08,0.0,-1.7249999872959165e-08
4,0.0024683,0.00473921,0.0142176,0.0,0.00820854,1.00168e-19,-5.78319e-20,2.28125e-09,6.15937e-08,-2.7375e-08,1.02732e-07,-7.41318e-35,-1.284e-34,0.0,2.281250077729169e-09,1.027320053470504e-07,0.0,6.159370191660685e-08,0.0,-2.7374999600482397e-08
5,0.0038377,0.00736849,0.0221055,-8.67362e-19,0.0127626,9.88226e-21,-8.20239e-20,3.54688e-09,9.57656e-08,-4.25625e-08,1.59728e-07,7.653e-32,1.32554e-31,0.0,3.5468799008953056e-09,1.597280128162737e-07,0.0,9.576560455748506e-08,0.0,-4.256249908074494e-08
6,0.0058918,0.0113124,0.0339373,-6.07153e-18,0.0195937,-4.73565e-20,-4.89771e-20,5.44671e-09,1.47024e-07,-6.53456e-08,2.45219e-07,-1.14621e-23,6.61761e-24,0.0,5.446709971934638e-09,2.452190299706558e-07,0.0,1.4702401074373483e-07,0.0,-6.534559782167548e-08
7,0.008973,0.0172283,0.0516849,7.80626e-18,0.0298403,6.7121e-20,-1.15071e-19,8.29297e-09,2.2391e-07,-9.95156e-08,3.7346e-07,1.78232e-31,3.08708e-31,0.0,8.292970088419338e-09,3.734600697580248e-07,0.0,2.2391002496569e-07,0.0,-9.951559509779884e-08
8,0.013595,0.0261021,0.0783064,9.54098e-18,0.0452102,-1.3116e-19,-4.58503e-19,1.25671e-08,3.39241e-07,-1.50777e-07,5.65816e-07,2.77687e-23,-3.13146e-23,0.0,1.2567100027283118e-08,5.658161601473921e-07,0.0,3.392410574676319e-07,0.0,-1.5077698867216327e-07
9,0.020527,0.0394129,0.118239,6.07153e-18,0.0682651,-4.56883e-19,3.48265e-20,1.89735e-08,5.12236e-07,-2.27663e-07,8.54355e-07,1.1462e-23,-6.61759e-24,0.0,1.8973500104380037e-08,8.543553648987512e-07,0.0,5.122361312892565e-07,0.0,-2.276629741393421e-07
10,0.030926,0.059379,0.178137,-8.67362e-19,0.102847,-1.54031e-18,-2.55477e-19,2.8587e-08,7.71729e-07,-3.42996e-07,1.28716e-06,-2.95414e-23,1.77334e-24,0.0,2.858700032248862e-08,1.2871608283671065e-06,0.0,7.717292977993395e-07,0.0,-3.429959412049044e-07
11,0.046525,0.0893282,0.267985,-4.94396e-17,0.154721,-5.5365e-19,3.95969e-19,4.30043e-08,1.16097e-06,-5.15992e-07,1.93637e-06,-9.16942e-23,5.29396e-23,0.0,4.300430100911967e-08,1.9363718748444114e-06,0.0,1.1609706738191505e-06,0.0,-5.159918669006558e-07
12,0.069922,0.134252,0.402756,-2.1684e-17,0.232531,2.20493e-19,-2.49317e-18,6.46307e-08,1.74483e-06,-7.75487e-07,2.91018e-06,-5.29397e-23,-9.16942e-23,0.0,6.463070212348043e-08,2.910184234483637e-06,0.0,1.744831522154655e-06,0.0,-7.754866993003873e-07
13,0.105,0.201637,0.604912,1.99493e-17,0.349246,-1.22407e-18,-2.88023e-18,9.70596e-08,2.62061e-06,-1.16471e-06,4.37091e-06,-1.05879e-22,-1.83388e-22,0.0,9.705960479777787e-08,4.370919552521002e-06,0.0,2.62061343381248e-06,0.0,-1.1647093217659332e-06
14,0.1577,0.302715,0.908146,-9.1073e-17,0.524319,2.72256e-18,-2.74454e-19,1.45719e-07,3.93429e-06,-1.74858e-06,6.56199e-06,1.03982e-22,-2.43423e-22,0.0,1.4571901063575865e-07,6.562011529931411e-06,0.0,3.934297739371928e-06,0.0,-1.748578471238993e-06
15,0.2366,0.454332,1.363,-7.80626e-18,0.786926,-1.38381e-17,-7.8084e-18,2.18705e-07,5.90479e-06,-2.62436e-06,9.8486e-06,-2.11758e-22,-3.66776e-22,0.0,2.1870502386889257e-07,9.848648497623458e-06,0.0,5.904807433232406e-06,0.0,-2.624356556402141e-06
16,0.3551,0.681756,2.04527,4.77049e-17,1.18084,-5.94481e-18,-2.59681e-18,3.28182e-07,8.86055e-06,-3.93804e-06,1.47785e-05,5.57568e-28,9.65736e-28,0.0,3.281820537548441e-07,1.4778609202625859e-05,0.0,8.860589254755524e-06,0.0,-3.938032245964784e-06
17,0.5328,1.02289,3.06867,7.13839e-16,1.7717,-5.94479e-18,-2.59677e-18,4.92389e-07,1.32942e-05,-5.90853e-06,2.21733e-05,8.36561e-28,1.44897e-27,0.0,4.923891212538223e-07,2.2173545829451413e-05,0.0,1.3294288368159712e-05,0.0,-5.908512544672284e-06
18,0.7993,1.53459,4.60377,-2.85362e-16,2.65799,-3.98145e-18,-3.30361e-17,7.38697e-07,1.99445e-05,-8.86424e-06,3.32654e-05,7.35553e-27,1.27402e-26,0.0,7.38697272906208e-07,3.326595329955495e-05,0.0,1.9944698892881974e-05,0.0,-8.864200712777048e-06
19,1.199,2.30213,6.90638,-1.61763e-15,3.9874,2.21215e-18,-5.61484e-17,1.10814e-06,2.99199e-05,-1.32977e-05,4.99034e-05,-4.23505e-22,-7.33532e-22,0.0,1.1081406139368255e-06,4.990464519538662e-05,0.0,2.992034760462836e-05,0.0,-1.3297611585971758e-05
20,1.799,3.45341,10.3602,-3.17194e-15,5.98148,6.53581e-17,-1.44564e-17,1.66234e-06,4.48827e-05,-1.99479e-05,7.48599e-05,-1.09041e-26,-1.88864e-26,0.0,1.6623413816585497e-06,7.486270207235357e-05,0.0,4.4883707243537074e-05,0.0,-1.994770104196686e-05
21,2.698,5.18029,15.5409,-2.8485e-14,8.97252,-6.87866e-17,2.39178e-17,2.49357e-06,6.73263e-05,-2.99228e-05,0.000112294,-4.23518e-22,-7.33555e-22,0.0,2.4935731088859825e-06,0.00011230030520725798,0.0,6.732856646629592e-05,0.0,-2.9922352317468537e-05
22,4.047,31.1929,93.5787,-1.03264e-09,54.0277,-8.08225e-16,-1.7395e-16,1.5015e-05,0.000405403,-0.000180179,0.000676171,-3.02527e-20,1.82072e-21,0.0,1.5015112725613733e-05,0.0006763996551444329,0.0,0.00040548518690219915,0.0,-0.00018016276873877857
23,6.071,70.3658,211.097,-9.04826e-07,121.877,1.29847e-16,-7.14917e-16,3.38711e-05,0.000914519,-0.000406453,0.00152533,-2.03309e-20,-3.52142e-20,0.0,3.3871673632113186e-05,0.0015264939075101402,0.0,0.0009149373000056915,0.0,-0.00040637040916957634
24,8.776,120.748,362.305,0.00109997,209.16,-0.00138403,-0.00239635,5.56649e-05,0.00159312,-0.000718704,0.00266343,-1.76665e-08,-3.06156e-08,3.741e-05,5.5666449319202727e-05,0.002666980080780146,-1.7666499818602688e-08,0.0015943896898338306,-3.06155995000168e-08,-0.0007184457941417088
25,11.48,126.618,380.255,0.00024667,219.425,-0.0213636,-0.0369556,5.714e-07,0.00224011,-0.00126474,0.00389835,-3.86651e-07,-6.78549e-07,0.000942533,5.714001631851318e-07,0.0039059584499487876,-3.8665092527701006e-07,0.0022426209209691628,-6.785487698390824e-07,-0.0012639405534323744
26,14.19,131.441,395.008,0.000135555,227.86,-0.0378376,-0.0654227,-5.63482e-05,0.00288576,-0.00181578,0.00513431,-7.99883e-07,-1.40969e-06,0.00186737,-5.6346612470004054e-05,0.005147513156282368,-7.998826800914571e-07,0.002889927813527704,-1.409689006415249e-06,-0.001814132468831442
27,16.89,135.547,407.565,5.5482e-05,235.041,-0.051547,-0.0890943,-0.000114505,0.0035303,-0.00237007,0.00637058,-1.24871e-06,-2.20771e-06,0.00280542,-0.00011449844455269087,0.00639091530439484,-1.2487092203583572e-06,0.0035365388485537608,-2.2077075629844956e-06,-0.0023672636016558446
28,19.6,139.131,418.521,2.46702e-05,241.307,-0.063205,-0.10921,-0.000173558,0.00417386,-0.00292658,0.00760673,-1.72895e-06,-3.06439e-06,0.00375282,-0.0001735429396815258,0.007635734667562399,-1.7289485053639808e-06,0.004182582685183123,-3.0643853047296332e-06,-0.002922301739326727
29,22.3,142.315,428.256,1.13186e-05,246.876,-0.0732945,-0.12661,-0.000233288,0.00481654,-0.00348465,0.00884248,-2.23688e-06,-3.9725e-06,0.00470712,-0.00023326079047036874,0.008881690212904303,-2.236877498229539e-06,0.004828158174430497,-3.97249210959405e-06,-0.0034785856532756343
30,25.01,145.186,437.027,4.96403e-06,251.893,-0.0821514,-0.141878,-0.000293545,0.00545838,-0.00404383,0.0100777,-2.76923e-06,-4.92583e-06,0.00566665,-0.0002935019198818667,0.01012865103121241,-2.7692261657108475e-06,0.005473304097554976,-4.92581786815105e-06,-0.004035664729495458
31,27.71,147.801,445.019,1.71107e-06,256.465,-0.0900178,-0.155432,-0.000354221,0.00609944,-0.00460379,0.0113121,-3.32318e-06,-5.91902e-06,0.00663022,-0.0003541582711485969,0.0113763237432154,-3.32317447826469e-06,0.006118079461645776,-5.919002482590585e-06,-0.004593208802915361
32,30.42,150.205,452.364,-7.15855e-08,260.668,-0.0970727,-0.167583,-0.000415235,0.00673975,-0.00516431,0.0125458,-3.8963e-06,-6.94753e-06,0.00759696,-0.0004151488018786509,0.01262482869574355,-3.896292409377722e-06,0.006762513225779809,-6.947505865939618e-06,-0.005150997876947394
33,33.12,152.432,459.167,-1.12591e-06,264.56,-0.103452,-0.178567,-0.000476526,0.00737932,-0.0057252,0.0137786,-4.48651e-06,-8.00747e-06,0.00856621,-0.00047641247951812904,0.013873962392368044,-4.486499935674182e-06,0.007406614278262946,-8.0074379402717e-06,-0.005708842274451453
34,35.83,154.508,465.505,-1.81152e-06,268.187,-0.109261,-0.188567,-0.000538048,0.00801817,-0.00628633,0.0150104,-5.09202e-06,-9.09549e-06,0.00953745,-0.0005379032781317461,0.0151236218464883,-5.092007035689683e-06,0.008050401613668434,-9.095448636142756e-06,-0.006266612366384816
35,38.53,156.452,471.443,-2.31139e-06,271.585,-0.114583,-0.197725,-0.000599762,0.00865632,-0.00684759,0.0162413,-5.71127e-06,-1.02087e-05,0.0105103,-0.0005995821787235789,0.016373906842659824,-5.711253690754425e-06,0.008693894278042347,-1.020864789136322e-05,-0.006824198677444326
36,41.24,158.282,477.03,-2.7221e-06,274.783,-0.119484,-0.206158,-0.000661637,0.00929378,-0.0074089,0.0174712,-6.3429e-06,-1.13446e-05,0.0114844,-0.0006614181665055563,0.017624714136961206,-6.342879883880492e-06,0.009337101275474158,-1.1344535650215093e-05,-0.007381521756343212
37,43.94,160.012,482.308,-3.09589e-06,277.804,-0.124019,-0.213959,-0.000723648,0.00993056,-0.00797017,0.0187001,-6.98574e-06,-1.2501e-05,0.0124595,-0.0007233862299329541,0.01887604186901015,-6.985715599761022e-06,0.009980031635696829,-1.250092186277918e-05,-0.007938492409545916
38,46.65,161.651,487.313,-3.46142e-06,280.669,-0.128232,-0.221205,-0.000785774,0.0105667,-0.00853136,0.0199279,-7.63872e-06,-1.3676e-05,0.0134354,-0.0007854653604559836,0.020127786161788563,-7.638690825095829e-06,0.010622724732741506,-1.3675906483934241e-05,-0.008495071219152384
39,49.35,163.21,492.071,-3.83439e-06,283.393,-0.13216,-0.22796,-0.000847997,0.0112021,-0.00909241,0.0211547,-8.30094e-06,-1.48678e-05,0.0144118,-0.0008476375521546675,0.02138004690953621,-8.300905547264925e-06,0.011265078466206058,-1.4867689474784562e-05,-0.009051199037100832
40,52.06,164.697,496.609,-4.22323e-06,285.99,-0.135834,-0.234278,-0.000910301,0.0118369,-0.00965328,0.0223804,-8.97156e-06,-1.6075e-05,0.0153887,-0.0009098868017358708,0.02263271997689431,-8.971519755651691e-06,0.011907233336408085,-1.6074870797910812e-05,-0.009606836656295248
41,54.76,166.119,500.947,-4.63225e-06,288.474,-0.139281,-0.240204,-0.000972674,0.012471,-0.0102139,0.023605,-9.64986e-06,-1.72962e-05,0.0163659,-0.0009722011059811742,0.023885803111983073,-9.649813440204547e-06,0.012549087191324748,-1.7296050421555798e-05,-0.010161915262906773
42,57.47,167.481,505.102,-5.06382e-06,290.853,-0.142524,-0.245778,-0.00103511,0.0131045,-0.0107744,0.0248285,-1.03352e-05,-1.85302e-05,0.0173433,-0.0010345744584414618,0.025139294058809325,-1.0335146591988753e-05,0.013190740260210942,-1.8530028316865454e-05,-0.010716564054557343
43,60.17,168.788,509.091,-5.51745e-06,293.137,-0.145581,-0.251034,-0.00109758,0.0137373,-0.0113345,0.0260509,-1.10269e-05,-1.97759e-05,0.0183208,-0.001096977879383676,0.026393190557269186,-1.1026839203953642e-05,0.013832090262386743,-1.977570445821364e-05,-0.011270506560949856
44,62.88,170.046,512.927,-5.99344e-06,295.333,-0.148469,-0.255999,-0.0011601,0.0143695,-0.0118943,0.0272722,-1.17246e-05,-2.10323e-05,0.0192983,-0.0011594273441359881,0.02764749034315428,-1.1724531267187643e-05,0.014473237555155727,-2.1032078822758038e-05,-0.011823842438214882
45,65.58,171.257,516.622,-6.49105e-06,297.449,-0.151204,-0.2607,-0.00122265,0.015001,-0.0124539,0.0284923,-1.24276e-05,-2.22986e-05,0.0202757,-0.0012219028680133803,0.028902088257942493,-1.2427522777747058e-05,0.015114079729291019,-2.2298351388116977e-05,-0.01237667112009444
46,68.29,172.426,520.187,-7.00935e-06,299.49,-0.153799,-0.265158,-0.00128523,0.0156319,-0.0130131,0.0297113,-1.31356e-05,-2.3574e-05,0.0212529,-0.001284404445637155,0.030157084668434697,-1.3135513728390613e-05,0.015754717270054952,-2.3573722135461495e-05,-0.012928795697184747
47,70.99,173.555,523.632,-7.5473e-06,301.463,-0.156263,-0.269394,-0.00134782,0.0162622,-0.0135719,0.0309292,-1.38482e-05,-2.48577e-05,0.02223,-0.0013469120985654115,0.031412477298019326,-1.384810411408921e-05,0.01639514927929553,-2.4857391049959432e-05,-0.013480217004687156
48,73.7,174.648,526.964,-8.10388e-06,303.371,-0.158609,-0.273424,-0.00141043,0.0168918,-0.0141304,0.032146,-1.4565e-05,-2.6149e-05,0.0232068,-0.0014094358110737781,0.03266826386600008,-1.4564893930923972e-05,0.017035273155132646,-2.6148658117897128e-05,-0.014031034473394155
49,76.4,175.706,530.191,-8.67802e-06,305.219,-0.160844,-0.277265,-0.00147304,0.0175208,-0.0146886,0.0333616,-1.52856e-05,-2.74474e-05,0.0241833,-0.001471955609094855,0.033924338695163536,-1.52854831758642e-05,0.017675189574563044,-2.7447023323579067e-05,-0.014581248770854094
50,79.11,176.732,533.32,-9.26875e-06,307.011,-0.162976,-0.280929,-0.00153566,0.0181491,-0.0152463,0.0345761,-1.60098e-05,-2.87523e-05,0.0251595,-0.0015344814775292148,0.03518080263779644,-1.600967184378632e-05,0.018314795807429896,-2.8751886656630532e-05,-0.015130663589852156
51,81.81,177.729,536.358,-9.87511e-06,308.75,-0.165013,-0.28443,-0.00159829,0.0187769,-0.0158037,0.0357895,-1.67373e-05,-3.0063e-05,0.0261352,-0.0015970134147462733,0.03643765340086569,-1.6737159932223022e-05,0.018954294553890305,-3.006254811255271e-05,-0.015679476789518643
52,84.52,178.697,539.309,-1.04962e-05,310.441,-0.166961,-0.287777,-0.0016609,0.019404,-0.0163606,0.0370017,-1.74677e-05,-3.13793e-05,0.0271106,-0.0016595214689014703,0.03769478491779199,-1.7467547440586095e-05,0.019593481188027173,-3.137880767489776e-05,-0.016227492279818012
53,87.22,179.638,542.179,-1.11313e-05,312.084,-0.168826,-0.290983,-0.00172352,0.0200305,-0.0169172,0.0382128,-1.82009e-05,-3.27006e-05,0.0280855,-0.0017220355923293074,0.03895229840539205,-1.820073436464842e-05,0.020232456642152785,-3.2700065341173534e-05,-0.01677490769777179
54,89.93,180.554,544.972,-1.17795e-05,313.684,-0.170613,-0.294054,-0.00178612,0.0206564,-0.0174733,0.0394227,-1.89367e-05,-3.40265e-05,0.02906,-0.0017845258369362238,0.040210087537332795,-1.8936520701839932e-05,0.020871220016909886,-3.402592110524072e-05,-0.01732152716997004
55,92.63,181.447,547.693,-1.24401e-05,315.243,-0.172328,-0.297,-0.00184871,0.0212816,-0.018029,0.0406315,-1.96748e-05,-3.53566e-05,0.0300339,-0.001847002188246183,0.041468253773618624,-1.9674606452357857e-05,0.021509668261789683,-3.535597496273635e-05,-0.017867449898642862
56,95.34,182.317,550.346,-1.31125e-05,316.762,-0.173973,-0.299828,-0.00191129,0.0219063,-0.0185843,0.0418392,-2.04149e-05,-3.66906e-05,0.0310073,-0.0019094646483784894,0.04272679480073105,-2.0414691617398617e-05,0.022148004715184966,-3.66899269081955e-05,-0.01841267670748037
57,98.04,183.166,552.933,-1.3796e-05,318.244,-0.175554,-0.302546,-0.00197385,0.0225303,-0.0191391,0.0430457,-2.11571e-05,-3.80282e-05,0.0319802,-0.001971903239170514,0.043985603902550796,-2.1156876190087104e-05,0.022786024111476566,-3.802747693715247e-05,-0.01895711031459557
58,100.7,183.995,555.459,-1.44902e-05,319.691,-0.177074,-0.305159,-0.00203639,0.0231537,-0.0196936,0.0442511,-2.1901e-05,-3.9369e-05,0.0329525,-0.002034317964613286,0.04524478290421485,-2.1900760174831113e-05,0.02342382770163076,-3.936822505112847e-05,-0.019500947804047652
59,103.5,184.805,557.927,-1.51943e-05,321.105,-0.178537,-0.307672,-0.00209892,0.0237765,-0.0202475,0.0454553,-2.26465e-05,-4.07127e-05,0.0339242,-0.002096718807728326,0.04650422482957861,-2.2646243569957036e-05,0.024061414585470065,-4.071187124932152e-05,-0.020043895845717308
60,106.2,185.596,560.338,-1.5908e-05,322.486,-0.179945,-0.310092,-0.00216142,0.0243987,-0.0208011,0.0466584,-2.33935e-05,-4.20591e-05,0.0348954,-0.0021590858138135216,0.047764031747363545,-2.3393226374235354e-05,0.024698783862645346,-4.2058215528495424e-05,-0.02058624940765963
61,108.9,186.37,562.697,-1.66308e-05,323.838,-0.181301,-0.312424,-0.00222389,0.0250203,-0.0213541,0.0478604,-2.41418e-05,-4.34079e-05,0.0358659,-0.002221418988725632,0.049024201323714545,-2.4141508589092808e-05,0.025335934632638057,-4.340695789073479e-05,-0.021127715482568865
62,111.6,187.128,565.005,-1.73623e-05,325.16,-0.182608,-0.314671,-0.00228634,0.0256413,-0.0219068,0.0490612,-2.48913e-05,-4.47589e-05,0.0368358,-0.0022837283154808485,0.05028462619230223,-2.4890990214188058e-05,0.025972865994764005,-4.475789833535693e-05,-0.02166858871013644
63,114.3,187.869,567.264,-1.8102e-05,326.454,-0.183868,-0.316838,-0.00234877,0.0262616,-0.0224589,0.0502609,-2.56418e-05,-4.61118e-05,0.037805,-0.0023460137980607643,0.05154540878756686,-2.5641471251836023e-05,0.026609474387220944,-4.6110736867333024e-05,-0.022208576404990077
64,117.0,188.596,569.477,-1.88495e-05,327.722,-0.185084,-0.318929,-0.00241116,0.0268814,-0.0230106,0.0514594,-2.63933e-05,-4.74665e-05,0.0387736,-0.0024082554886101226,0.05280644148289548,-2.639295169992728e-05,0.027245964167253334,-4.746537348354618e-05,-0.022747875154148556
65,119.7,189.307,571.646,-1.96045e-05,328.965,-0.186258,-0.320948,-0.00247353,0.0275006,-0.0235619,0.0526568,-2.71457e-05,-4.88227e-05,0.0397416,-0.0024704733454311567,0.05406782695669898,-2.7145331558786623e-05,0.027882231836406923,-4.882150819141007e-05,-0.02328648576891823
66,122.4,190.005,573.772,-2.03667e-05,330.183,-0.187392,-0.322897,-0.00253586,0.0281191,-0.0241127,0.0538531,-2.78987e-05,-5.01803e-05,0.0407088,-0.002532647423152179,0.05532956285493884,-2.7898310834939544e-05,0.028518173641527866,-5.017904098980619e-05,-0.02382431144176922
67,125.1,190.69,575.857,-2.11358e-05,331.378,-0.188487,-0.32478,-0.00259817,0.0287371,-0.024663,0.0550483,-2.86524e-05,-5.1539e-05,0.0416754,-0.002594797677580085,0.056591646819599495,-2.8651989523953425e-05,0.029153994321192256,-5.153767188859071e-05,-0.024361353142606235
68,127.8,191.362,577.904,-2.19114e-05,332.55,-0.189545,-0.326601,-0.00266044,0.0293545,-0.0252129,0.0562423,-2.94067e-05,-5.28988e-05,0.0426413,-0.002656904165823204,0.05785397070329279,-2.9406267627263283e-05,0.029789590185539394,-5.289740088310069e-05,-0.024897709349858244
69,130.5,192.021,579.912,-2.26932e-05,333.701,-0.190567,-0.32836,-0.00272268,0.0299712,-0.0257622,0.0574352,-3.01614e-05,-5.42594e-05,0.0436065,-0.002718976868385292,0.05911663767292641,-3.0160945149515506e-05,0.03042485729028499,-5.4257927985412735e-05,-0.025433185955998305
70,133.2,192.669,581.884,-2.3481e-05,334.831,-0.191556,-0.330062,-0.00278488,0.0305874,-0.0263112,0.0586269,-3.09164e-05,-5.56206e-05,0.0445709,-0.0027810058189038367,0.060379539320529085,-3.091592209303329e-05,0.031060000754951522,-5.561905320305982e-05,-0.025968076296075338
71,135.9,193.305,583.822,-2.42746e-05,335.941,-0.192513,-0.331708,-0.00284705,0.031203,-0.0268596,0.0598175,-3.16718e-05,-5.69825e-05,0.0455347,-0.002843000996631817,0.06164277905743609,-3.16712984538281e-05,0.031694916698493,-5.6980876528167634e-05,-0.026502088963377912
72,138.6,193.93,585.725,-2.50737e-05,337.032,-0.193439,-0.333301,-0.00290918,0.0318179,-0.0274076,0.061007,-3.24273e-05,-5.83447e-05,0.0464978,-0.0029049524364386237,0.06290635450563564,-3.2426774240756906e-05,0.03232950098571519,-5.8342997981131184e-05,-0.027035419672664984
73,141.3,194.544,587.597,-2.5878e-05,338.105,-0.194334,-0.334843,-0.00297127,0.0324323,-0.0279551,0.0621954,-3.3183e-05,-5.97072e-05,0.0474601,-0.002966860145997008,0.06417026328317488,-3.3182449450386287e-05,0.03296395911670036,-5.97054175606182e-05,-0.027567971980896666
74,144.0,195.149,589.437,-2.66874e-05,339.159,-0.195202,-0.336336,-0.00303333,0.0330461,-0.0285021,0.0633826,-3.39388e-05,-6.10699e-05,0.0484217,-0.00302873410268778,0.0654343964607218,-3.3938224085483526e-05,0.03359818701943751,-6.106803527161642e-05,-0.028099746846538043
75,146.7,195.743,591.247,-2.75017e-05,340.196,-0.196041,-0.337781,-0.00309535,0.0336593,-0.0290487,0.0645688,-3.46946e-05,-6.24326e-05,0.0493825,-0.003090564343222968,0.06669896460889424,-3.469399814937102e-05,0.03423218379126203,-6.243065112576662e-05,-0.02863084236328406
76,149.4,196.328,593.028,-2.83205e-05,341.217,-0.196854,-0.339181,-0.00315733,0.034272,-0.0295948,0.0657538,-3.54503e-05,-6.37952e-05,0.0503426,-0.0031523508752606677,0.0679637521205525,-3.5449671645482184e-05,0.034866052015971816,-6.379316512949984e-05,-0.029161162243246497
77,152.1,196.904,594.781,-2.91438e-05,342.222,-0.197641,-0.340537,-0.00321927,0.034884,-0.0301404,0.0669377,-3.62059e-05,-6.51577e-05,0.051302,-0.0032140937064520925,0.06922886314138976,-3.620524457426111e-05,0.03549958388078256,-6.515557728314914e-05,-0.02969070744006086
78,154.8,197.471,596.506,-2.99714e-05,343.211,-0.198404,-0.341851,-0.00328117,0.0354954,-0.0306855,0.0681204,-3.69613e-05,-6.65199e-05,0.0522606,-0.0032757928444436812,0.07049418822032005,-3.69606169395853e-05,0.03613288190584574,-6.651768760046473e-05,-0.03021947890567922
79,157.6,198.029,598.206,-3.08031e-05,344.184,-0.199142,-0.343124,-0.00334303,0.0361063,-0.0312302,0.0693021,-3.77165e-05,-6.78817e-05,0.0532185,-0.003337448296875656,0.07175993892405064,-3.7715788741787826e-05,0.03676604886455803,-6.787939608954296e-05,-0.030747574515623044
80,160.3,198.579,599.879,-3.16387e-05,345.144,-0.199858,-0.344357,-0.00340485,0.0367166,-0.0317743,0.0704826,-3.84715e-05,-6.9243e-05,0.0541756,-0.0033990600713822428,0.07302589861764153,-3.8470759981312774e-05,0.03739898030356348,-6.924060275881327e-05,-0.03127480131527138
81,163.0,199.12,601.528,-3.24781e-05,346.089,-0.200552,-0.345552,-0.00346663,0.0373263,-0.032318,0.0716621,-3.92261e-05,-7.06037e-05,0.0551319,-0.0034606281755927837,0.07429227936628968,-3.922533066658129e-05,0.03803167531933038,-7.060120761737121e-05,-0.03180135404946416
82,165.7,199.654,603.153,-3.33211e-05,347.02,-0.201223,-0.346711,-0.00352836,0.0379354,-0.0328613,0.0728404,-3.99803e-05,-7.19638e-05,0.0560875,-0.003522142652351623,0.0755588640208733,-3.997950079848156e-05,0.03866413300820293,-7.19612106678813e-05,-0.03232723350571931
83,168.4,200.18,604.754,-3.41675e-05,347.938,-0.201875,-0.347834,-0.00359005,0.0385439,-0.033404,0.0740176,-4.07341e-05,-7.33232e-05,0.0570423,-0.003583613475284353,0.07682575746277331,-4.073327037779073e-05,0.03929635246640073,-7.33205119198832e-05,-0.03285224704078715
84,171.1,200.699,606.333,-3.50173e-05,348.843,-0.202506,-0.348922,-0.0036517,0.0391519,-0.0339463,0.0751937,-4.14875e-05,-7.46818e-05,0.0579963,-0.003645040652001441,0.07809295726690313,-4.148663940561903e-05,0.039928436782860954,-7.467901138380473e-05,-0.03337658907902308
85,173.8,201.211,607.891,-3.58702e-05,349.736,-0.203117,-0.349977,-0.00371331,0.0397592,-0.034488,0.0763687,-4.22403e-05,-7.60395e-05,0.0589496,-0.0037064241901076933,0.0793604610043086,-4.223940789105374e-05,0.04056017713105997,-7.603660907051779e-05,-0.03390006718387362
86,176.5,201.716,609.426,-3.67262e-05,350.616,-0.203709,-0.350999,-0.00377487,0.040366,-0.0350294,0.0775426,-4.29927e-05,-7.73962e-05,0.0599021,-0.0037677541348793975,0.08062826624217534,-4.2991775827116996e-05,0.041191780655672305,-7.73932049913384e-05,-0.034422972124360185
87,179.2,202.214,610.942,-3.75851e-05,351.485,-0.204284,-0.35199,-0.00383639,0.0409722,-0.0355702,0.0787154,-4.37444e-05,-7.87519e-05,0.0608538,-0.0038290404574584658,0.08189637054383447,-4.374344322766177e-05,0.04182314245953411,-7.874879915048538e-05,-0.03494501500791636
88,181.9,202.705,612.437,-3.84468e-05,352.342,-0.20484,-0.35295,-0.00389787,0.0415779,-0.0361105,0.0798871,-4.44955e-05,-8.01066e-05,0.0618047,-0.00389028316543083,0.08316477146876888,-4.449451008992078e-05,0.042454365883637823,-8.010339155195556e-05,-0.03546629338027418
89,184.6,203.19,613.912,-3.93111e-05,353.188,-0.205379,-0.353881,-0.0039593,0.042183,-0.0366504,0.0810577,-4.52459e-05,-8.146e-05,0.0627549,-0.003951472305892434,0.08443346657261963,-4.524487641965891e-05,0.043085345904186445,-8.145668222425684e-05,-0.03598690457683951
90,187.3,203.669,615.369,-4.0178e-05,354.023,-0.205901,-0.354783,-0.00402069,0.0427875,-0.0371898,0.0822272,-4.59957e-05,-8.28123e-05,0.0637043,-0.00401261784812601,0.08570245340719174,-4.599464221399785e-05,0.04371608161644791,-8.280887115608149e-05,-0.036506753024780125
91,190.0,204.141,616.806,-4.10474e-05,354.847,-0.206407,-0.355657,-0.00408203,0.0433914,-0.0377287,0.0833956,-4.67447e-05,-8.41633e-05,0.0646528,-0.004073709840436646,0.08697172952046106,-4.67436074835792e-05,0.04434657211558046,-8.415975836884027e-05,-0.03702583965511985
92,192.7,204.608,618.226,-4.19191e-05,355.662,-0.206897,-0.356504,-0.00414333,0.0439948,-0.0382671,0.0845629,-4.7493e-05,-8.55129e-05,0.0656006,-0.004134758250870396,0.0882412924565803,-4.74918722253026e-05,0.044976920994326486,-8.550924387618064e-05,-0.03754416539723926
93,195.4,205.069,619.629,-4.2793e-05,356.466,-0.207372,-0.357324,-0.00420458,0.0445975,-0.0388051,0.0857291,-4.82405e-05,-8.68612e-05,0.0665477,-0.004195753128940383,0.0895111397558852,-4.8239336445821124e-05,0.04560691841526232,-8.685742767511329e-05,-0.03806182737269781
94,198.1,205.525,621.014,-4.3669e-05,357.26,-0.207831,-0.358118,-0.00426578,0.0451998,-0.0393425,0.0868942,-4.89872e-05,-8.8208e-05,0.0674939,-0.004256694484024326,0.0907812689549008,-4.898600014668908e-05,0.046236877155254374,-8.820410978871429e-05,-0.03857863406827089
95,200.8,205.975,622.382,-4.4547e-05,358.045,-0.208276,-0.358888,-0.00432694,0.0458014,-0.0398795,0.0880583,-4.97331e-05,-8.95533e-05,0.0684393,-0.004317592282316096,0.0920517867915216,-4.973186332990487e-05,0.04686648262688764,-8.954929022286784e-05,-0.03909477874452738
96,203.5,206.419,623.734,-4.5427e-05,358.82,-0.208706,-0.359633,-0.00438806,0.0464025,-0.0404161,0.0892212,-5.04781e-05,-9.08971e-05,0.0693839,-0.004378446531351221,0.0933224725113937,-5.0476826002121555e-05,0.04749594323502748,-9.089296898379118e-05,-0.03961026216968111
97,206.2,206.859,625.071,-4.63088e-05,359.586,-0.209123,-0.360354,-0.00444912,0.047003,-0.0409521,0.0903831,-5.12222e-05,-9.22393e-05,0.0703278,-0.004439237327444001,0.09459354217713045,-5.1220888165448564e-05,0.04812515345039947,-9.223504608657507e-05,-0.040124893135738415
98,208.9,207.293,626.391,-4.71923e-05,360.344,-0.209526,-0.361052,-0.00451014,0.047603,-0.0414877,0.0915439,-5.19653e-05,-9.35799e-05,0.0712709,-0.004499984591764261,0.09586488410498806,-5.196394982720509e-05,0.04875421724273554,-9.35755215376588e-05,-0.04063886458913257
99,211.7,207.722,627.697,-4.80775e-05,361.093,-0.209916,-0.361727,-0.00457112,0.0482024,-0.0420227,0.0927036,-5.27076e-05,-9.49188e-05,0.0722131,-0.004560688331827989,0.09713649581261707,-5.270621097885897e-05,0.049383028956594854,-9.491429535324336e-05,-0.04115198552448829
100,214.4,208.147,628.988,-4.89642e-05,361.833,-0.210293,-0.36238,-0.00463204,0.0488012,-0.0425573,0.0938623,-5.34488e-05,-9.62559e-05,0.0731546,-0.004621328647572254,0.09840848465473795,-5.344737163837099e-05,0.050011587686036085,-9.62512675494187e-05,-0.04166444867942054
101,217.1,208.567,630.264,-4.98523e-05,362.565,-0.210657,-0.363012,-0.00469292,0.0493995,-0.0430915,0.0950198,-5.41891e-05,-9.75913e-05,0.0740953,-0.004681925456498481,0.09968062858699112,-5.418763179720898e-05,0.05063999758902571,-9.758653812397267e-05,-0.042176254815345815
102,219.8,208.982,631.527,-5.07407e-05,363.289,-0.211008,-0.363623,-0.00475376,0.0499972,-0.0436251,0.0961763,-5.49284e-05,-9.89249e-05,0.0750352,-0.004742478766103342,0.10095314492469254,-5.492689146302521e-05,0.05126815282107522,-9.892000709343929e-05,-0.04268721322994773
103,222.5,209.393,632.775,-5.16038e-05,364.005,-0.211346,-0.364214,-0.00481454,0.0505944,-0.0441583,0.0973318,-5.56666e-05,-0.000100257,0.0759742,-0.004802968679936903,0.10222603155227428,-5.566505064358296e-05,0.05189615766552169,-0.00010025197443486178,-0.04319751634895197
104,225.2,209.799,634.01,-4.91332e-05,364.714,-0.211653,-0.364815,-0.00487528,0.051191,-0.044691,0.0984861,-5.6404e-05,-0.000101587,0.0769125,-0.004863415111842517,0.10349906565077482,-5.640240932425211e-05,0.05252390615193914,-0.00010158184021535899,-0.04370706930051471
105,227.9,210.201,635.232,-5.344e-05,365.414,-0.212027,-0.365388,-0.00493597,0.051787,-0.0452232,0.0996394,-5.71416e-05,-0.000102915,0.07785,-0.004923808118534989,0.10477246528794515,-5.71399674498263e-05,0.05315139737381491,-0.00010290970443305181,-0.04421587299356078
106,230.6,210.599,636.441,-5.43536e-05,366.108,-0.212369,-0.365982,-0.00499661,0.0523825,-0.045755,0.100792,-5.78779e-05,-0.000104242,0.0787867,-0.004984147709295783,0.10604656015125413,-5.787622510666779e-05,0.05377873580242931,-0.00010423656699143358,-0.044724023863010776
107,233.3,210.993,637.638,-5.52727e-05,366.794,-0.212714,-0.366581,-0.00505721,0.0529775,-0.0462863,0.101943,-5.86134e-05,-0.000105567,0.0797226,-0.00504444384295355,0.10732035266895523,-5.8611682268172594e-05,0.05440592071924133,-0.00010556142800033363,-0.04523142718550377
108,236.0,211.382,638.822,-5.61967e-05,367.473,-0.213062,-0.367184,-0.00511776,0.0535718,-0.0468171,0.103093,-5.93482e-05,-0.000106892,0.0806578,-0.0051046865780115525,0.1085945035708713,-5.9346438930352186e-05,0.05503274039894346,-0.00010688628725363802,-0.045738083865375145
109,238.7,211.767,639.995,-5.71256e-05,368.145,-0.213412,-0.367792,-0.00517826,0.0541657,-0.0473474,0.104242,-6.00823e-05,-0.000108215,0.0815921,-0.0051648759237272746,0.10986901071961364,-6.008049509476088e-05,0.055659510444408866,-0.00010820914496800782,-0.04624399480535979
110,241.4,212.149,641.155,-5.80597e-05,368.811,-0.213765,-0.368404,-0.00523872,0.054759,-0.0478773,0.10539,-6.08157e-05,-0.000109536,0.0825256,-0.005225021837099719,0.1111438719742679,-6.081385076284196e-05,0.05628601906736064,-0.0001095300011513256,-0.046749256231674585
111,244.1,212.526,642.304,-5.89989e-05,369.47,-0.214121,-0.369021,-0.00529913,0.0553517,-0.0484066,0.106537,-6.15484e-05,-0.000110857,0.0834583,-0.005285114378417055,0.11241908519039501,-6.154650593603872e-05,0.056912265360617775,-0.00011085085558981689,-0.047253678343262995
112,246.8,212.9,643.442,-5.99432e-05,370.122,-0.214478,-0.369642,-0.00535949,0.0559439,-0.0489356,0.107683,-6.22805e-05,-0.000112176,0.0843902,-0.005345153556912452,0.11369464822003783,-6.227856060991854e-05,0.05753835417076347,-0.00011216970850769226,-0.04775754786218123
113,249.5,213.27,644.569,-6.08928e-05,370.768,-0.214839,-0.370267,-0.0054198,0.0565355,-0.049464,0.108827,-6.30119e-05,-0.000113494,0.0853213,-0.005405139381810864,0.11496944394172348,-6.300991479191165e-05,0.058164178961811475,-0.00011348755979956326,-0.048260579861132524
114,252.2,213.637,645.685,-6.18476e-05,371.407,-0.215202,-0.370897,-0.00548007,0.0571266,-0.049992,0.109971,-6.37427e-05,-0.000114811,0.0862517,-0.00546508180767713,0.11624569886421843,-6.374066847725235e-05,0.05878984470528903,-0.0001148044094693157,-0.04876296563345062
115,254.9,214.0,646.79,-6.28078e-05,372.041,-0.215568,-0.371531,-0.00554029,0.0577172,-0.0505195,0.111114,-6.44729e-05,-0.000116127,0.0871812,-0.005524970897172077,0.11752229713494788,-6.447082166727292e-05,0.05941535068130488,-0.00011612025752094635,-0.049264610848521184
116,257.6,214.36,647.885,-6.37733e-05,372.668,-0.215936,-0.37217,-0.00560046,0.0583072,-0.0510465,0.112255,-6.52026e-05,-0.000117442,0.08811,-0.005584806659496122,0.11879811779325045,-6.520047435665255e-05,0.0600405901657175,-0.00011743510395822998,-0.04976551639839866
117,260.3,214.716,648.969,-6.47443e-05,373.289,-0.216306,-0.372813,-0.00566059,0.0588966,-0.0515731,0.113396,-6.59317e-05,-0.000118756,0.0890379,-0.00564459904739556,0.12007539499372344,-6.592952655326556e-05,0.060665562250742155,-0.00011874894878527442,-0.0502657781469843
118,263.0,215.068,650.044,-6.57208e-05,373.905,-0.21668,-0.37346,-0.00572067,0.0594855,-0.0520992,0.114536,-6.66603e-05,-0.000120069,0.089965,-0.00570433812530502,0.12135300904566027,-6.665807825156911e-05,0.06129037215757149,-0.00012006179200607647,-0.050765301909853955
119,265.8,215.418,651.109,-6.67027e-05,374.515,-0.217055,-0.374112,-0.0057807,0.0600739,-0.0526248,0.115674,-6.73884e-05,-0.000121382,0.0908914,-0.005764023902400939,0.12262983514621006,-6.738612945278444e-05,0.06191501916567699,-0.00012137463350303523,-0.05126408857455189
120,268.5,215.764,652.164,-6.76903e-05,375.12,-0.217434,-0.374768,-0.00584068,0.0606618,-0.0531499,0.116811,-6.8116e-05,-0.000122693,0.091817,-0.005823656387850984,0.12390699119439552,-6.811368015791075e-05,0.06253950255435003,-0.00012268547352167758,-0.05176213902705118
121,270.5,216.024,652.955,-6.9368e-05,375.573,-0.217721,-0.375267,-0.00588597,0.0611055,-0.0535464,0.11767,-6.86651e-05,-0.000123683,0.0925157,-0.005868681614849325,0.12487284207339377,-6.866274260597383e-05,0.06301105593801548,-0.00012367535157309373,-0.05213804081147344
