,Time,S11,S22,S33,S12,S13,S23,LE11,LE22,LE33,LE12,LE13,LE23,SDV_EPBAR,E11,E12,E13,E22,E23,E33
0,0.0002705,0.000519365,0.0015581,-7.79048e-12,0.000899567,2.21372e-21,3.68811e-20,2.50301e-10,6.7501e-09,-3.0004e-09,1.1258e-08,2.76762e-26,4.61603e-25,0.0,2.5030089112476617e-10,1.1258000087721598e-08,0.0,6.750100034480511e-09,0.0,-3.0004000395322805e-09
1,0.000541,0.00103873,0.00311619,4.33681e-19,0.00179913,-3.08331e-20,-2.03577e-20,5.00425e-10,1.35001e-08,-6.00057e-09,2.25162e-08,-1.63975e-24,4.6912e-25,0.0,5.00425034744012e-10,2.2516200237632233e-08,0.0,1.3500100148888805e-08,0.0,-6.000569929831556e-09
2,0.00094675,0.00181778,0.00545333,6.50521e-19,0.00314848,1.87371e-20,6.55005e-20,8.75688e-10,2.36252e-08,-1.05009e-08,3.94034e-08,-1.73568e-24,1.95724e-24,0.0,8.756879665838824e-10,3.9403400764470575e-08,0.0,2.3625200240573463e-08,0.0,-1.0500899927379237e-08
3,0.0015554,0.00298635,0.00895905,1.73472e-18,0.00517251,4.73565e-20,4.89771e-20,1.4375e-09,3.88125e-08,-1.725e-08,6.47354e-08,4.1359e-25,7.16359e-25,0.0,1.4374998968946784e-09,6.473540214990692e-08,0.0,3.8812500768869995e-08,0.0,-1.7249999872959165e-08
4,0.0024683,0.00473921,0.0142176,0.0,0.00820854,1.00168e-19,-5.78319e-20,2.28125e-09,6.15937e-08,-2.7375e-08,1.02732e-07,-7.41318e-35,-1.284e-34,0.0,2.281250077729169e-09,1.027320053470504e-07,0.0,6.159370191660685e-08,0.0,-2.7374999600482397e-08
5,0.0038377,0.00736849,0.0221055,-8.67362e-19,0.0127626,9.88226e-21,-8.20239e-20,3.54688e-09,9.57656e-08,-4.25625e-08,1.59728e-07,7.653e-32,1.32554e-31,0.0,3.5468799008953056e-09,1.597280128162737e-07,0.0,9.576560455748506e-08,0.0,-4.256249908074494e-08
6,0.0058918,0.0113124,0.0339373,-6.07153e-18,0.0195937,-4.73565e-20,-4.89771e-20,5.44671e-09,1.47024e-07,-6.53456e-08,2.45219e-07,-1.14621e-23,6.61761e-24,0.0,5.446709971934638e-09,2.452190299706558e-07,0.0,1.4702401074373483e-07,0.0,-6.534559782167548e-08
7,0.008973,0.0172283,0.0516849,7.80626e-18,0.0298403,6.7121e-20,-1.15071e-19,8.29297e-09,2.2391e-07,-9.95156e-08,3.7346e-07,1.78232e-31,3.08708e-31,0.0,8.292970088419338e-09,3.734600697580248e-07,0.0,2.2391002496569e-07,0.0,-9.951559509779884e-08
8,0.013595,0.0261021,0.0783064,9.54098e-18,0.0452102,-1.3116e-19,-4.58503e-19,1.25671e-08,3.39241e-07,-1.50777e-07,5.65816e-07,2.77687e-23,-3.13146e-23,0.0,1.2567100027283118e-08,5.658161601473921e-07,0.0,3.392410574676319e-07,0.0,-1.5077698867216327e-07
9,0.020527,0.0394129,0.118239,6.07153e-18,0.0682651,-4.56883e-19,3.48265e-20,1.89735e-08,5.12236e-07,-2.27663e-07,8.54355e-07,1.1462e-23,-6.61759e-24,0.0,1.8973500104380037e-08,8.543553648987512e-07,0.0,5.122361312892565e-07,0.0,-2.276629741393421e-07
10,0.030926,0.059379,0.178137,-8.67362e-19,0.102847,-1.54031e-18,-2.55477e-19,2.8587e-08,7.71729e-07,-3.42996e-07,1.28716e-06,-2.95414e-23,1.77334e-24,0.0,2.858700032248862e-08,1.2871608283671065e-06,0.0,7.717292977993395e-07,0.0,-3.429959412049044e-07
11,0.046525,0.0893282,0.267985,-4.94396e-17,0.154721,-5.5365e-19,3.95969e-19,4.30043e-08,1.16097e-06,-5.15992e-07,1.93637e-06,-9.16942e-23,5.29396e-23,0.0,4.300430100911967e-08,1.9363718748444114e-06,0.0,1.1609706738191505e-06,0.0,-5.159918669006558e-07
12,0.069922,0.134252,0.402756,-2.1684e-17,0.232531,2.20493e-19,-2.49317e-18,6.46307e-08,1.74483e-06,-7.75487e-07,2.91018e-06,-5.29397e-23,-9.16942e-23,0.0,6.463070212348043e-08,2.910184234483637e-06,0.0,1.744831522154655e-06,0.0,-7.754866993003873e-07
13,0.105,0.201637,0.604912,1.99493e-17,0.349246,-1.22407e-18,-2.88023e-18,9.70596e-08,2.62061e-06,-1.16471e-06,4.37091e-06,-1.05879e-22,-1.83388e-22,0.0,9.705960479777787e-08,4.370919552521002e-06,0.0,2.62061343381248e-06,0.0,-1.1647093217659332e-06
14,0.1577,0.302715,0.908146,-9.1073e-17,0.524319,2.72256e-18,-2.74454e-19,1.45719e-07,3.93429e-06,-1.74858e-06,6.56199e-06,1.03982e-22,-2.43423e-22,0.0,1.4571901063575865e-07,6.562011529931411e-06,0.0,3.934297739371928e-06,0.0,-1.748578471238993e-06
15,0.2366,0.454332,1.363,-7.80626e-18,0.786926,-1.38381e-17,-7.8084e-18,2.18705e-07,5.90479e-06,-2.62436e-06,9.8486e-06,-2.11758e-22,-3.66776e-22,0.0,2.1870502386889257e-07,9.848648497623458e-06,0.0,5.904807433232406e-06,0.0,-2.624356556402141e-06
16,0.3551,0.681756,2.04527,4.77049e-17,1.18084,-5.94481e-18,-2.59681e-18,3.28182e-07,8.86055e-06,-3.93804e-06,1.47785e-05,5.57568e-28,9.65736e-28,0.0,3.281820537548441e-07,1.4778609202625859e-05,0.0,8.860589254755524e-06,0.0,-3.938032245964784e-06
17,0.5328,1.02289,3.06867,7.13839e-16,1.7717,-5.94479e-18,-2.59677e-18,4.92389e-07,1.32942e-05,-5.90853e-06,2.21733e-05,8.36561e-28,1.44897e-27,0.0,4.923891212538223e-07,2.2173545829451413e-05,0.0,1.3294288368159712e-05,0.0,-5.908512544672284e-06
18,0.7993,1.53459,4.60377,-2.85362e-16,2.65799,-3.98145e-18,-3.30361e-17,7.38697e-07,1.99445e-05,-8.86424e-06,3.32654e-05,7.35553e-27,1.27402e-26,0.0,7.38697272906208e-07,3.326595329955495e-05,0.0,1.9944698892881974e-05,0.0,-8.864200712777048e-06
19,1.199,2.30213,6.90638,-1.61763e-15,3.9874,2.21215e-18,-5.61484e-17,1.10814e-06,2.99199e-05,-1.32977e-05,4.99034e-05,-4.23505e-22,-7.33532e-22,0.0,1.1081406139368255e-06,4.990464519538662e-05,0.0,2.992034760462836e-05,0.0,-1.3297611585971758e-05
20,1.799,3.45341,10.3602,-3.17194e-15,5.98148,6.53581e-17,-1.44564e-17,1.66234e-06,4.48827e-05,-1.99479e-05,7.48599e-05,-1.09041e-26,-1.88864e-26,0.0,1.6623413816585497e-06,7.486270207235357e-05,0.0,4.4883707243537074e-05,0.0,-1.994770104196686e-05
21,2.698,5.18029,15.5409,-2.8485e-14,8.97252,-6.87866e-17,2.39178e-17,2.49357e-06,6.73263e-05,-2.99228e-05,0.000112294,-4.23518e-22,-7.33555e-22,0.0,2.4935731088859825e-06,0.00011230030520725798,0.0,6.732856646629592e-05,0.0,-2.9922352317468537e-05
22,4.047,31.1929,93.5787,-1.03264e-09,54.0277,-8.08225e-16,-1.7395e-16,1.5015e-05,0.000405403,-0.000180179,0.000676171,-3.02527e-20,1.82072e-21,0.0,1.5015112725613733e-05,0.0006763996551444329,0.0,0.00040548518690219915,0.0,-0.00018016276873877857
23,6.071,70.3658,211.097,-9.04826e-07,121.877,1.29847e-16,-7.14917e-16,3.38711e-05,0.000914519,-0.000406453,0.00152533,-2.03309e-20,-3.52142e-20,0.0,3.3871673632113186e-05,0.0015264939075101402,0.0,0.0009149373000056915,0.0,-0.00040637040916957634
24,8.776,121.257,363.783,0.000134477,210.027,-0.000239229,-0.000414247,5.55357e-05,0.0015932,-0.000714821,0.00266339,-3.03892e-09,-5.26567e-09,2.78328e-05,5.553724213558375e-05,0.002666939974101723,-3.0389200045277676e-09,0.0015944698173882,-5.265670011134205e-09,-0.0007145655763333147
25,11.48,127.205,381.844,0.0833114,220.47,-0.00484507,-0.0083728,-3.41124e-05,0.00223287,-0.00121846,0.00393092,-8.77522e-08,-1.5385e-07,0.00093598,-3.41118181786948e-05,0.003938656199495405,-8.77521961761829e-08,0.002235364710661214,-1.5384998819367723e-07,-0.0012177179790189285
26,14.19,132.177,396.689,0.000156493,228.983,-0.00890597,-0.0153986,-0.000125536,0.00287125,-0.00172743,0.00519938,-1.87499e-07,-3.30354e-07,0.0018643,-0.0001255281206860026,0.005212920232959606,-1.8749898245129515e-07,0.0028753759862489847,-3.3035394542135776e-07,-0.001725938851539266
27,16.89,136.365,409.312,-5.89342e-06,236.254,-0.0121541,-0.0210065,-0.000219028,0.00350828,-0.00223859,0.00646907,-2.93774e-07,-5.19304e-07,0.00280604,-0.0002190040151186512,0.0064900396269402805,-2.937739568276143e-07,0.003514441217264075,-5.193038651318815e-07,-0.002236086226062084
28,19.6,140.018,420.321,5.91674e-06,242.595,-0.0149203,-0.025779,-0.000313757,0.00414422,-0.00275157,0.00773902,-4.07627e-07,-7.22383e-07,0.0037573,-0.00031370778341999195,0.007769043616427496,-4.076269168873381e-07,0.004152819154529919,-7.223827390712145e-07,-0.002747787900966192
29,22.3,143.263,430.099,2.69809e-06,248.229,-0.0173189,-0.0299148,-0.000409406,0.00477918,-0.00326581,0.00900886,-5.28185e-07,-9.37902e-07,0.00471558,-0.0004093222047992784,0.009049561913381687,-5.281848605154238e-07,0.004790618495686516,-9.37901560194021e-07,-0.0032604830430428278
30,25.01,146.187,438.908,1.2028e-06,253.303,-0.019429,-0.0335514,-0.00050576,0.00541325,-0.00378094,0.0102783,-6.54674e-07,-1.16439e-06,0.00567918,-0.0005056321249700124,0.010331303163938488,-6.546737857382467e-07,0.005427928111257696,-1.1643893220725232e-06,-0.003773801246258812
31,27.71,148.85,446.932,4.79505e-07,257.926,-0.0213076,-0.0367875,-0.000602667,0.00604648,-0.00429668,0.0115473,-7.86431e-07,-1.40058e-06,0.00664689,-0.0006024854327202345,0.011614227430936985,-7.864306907912066e-07,0.0060647968590934465,-1.400579019206205e-06,-0.004287462476796899
32,30.42,151.297,454.307,1.17801e-07,262.174,-0.0229968,-0.0396963,-0.000700014,0.0066789,-0.00481284,0.0128156,-9.22886e-07,-1.64542e-06,0.00761782,-0.0006997690473600215,0.012898071733354,-9.228855741838515e-07,0.006701253590693179,-1.6454186463343845e-06,-0.004801276843545588
33,33.12,153.564,461.135,-6.50758e-08,266.108,-0.0245286,-0.0423329,-0.000797716,0.00731054,-0.00532927,0.0140831,-1.06355e-06,-1.89798e-06,0.00859131,-0.0007973979091793204,0.014182734022011534,-1.063549434410227e-06,0.007337327234141711,-1.8979781988281985e-06,-0.005315094633264961
34,35.83,155.675,467.498,-1.56615e-07,269.774,-0.0259276,-0.0447403,-0.000895707,0.00794143,-0.00584585,0.0153498,-1.20799e-06,-2.15747e-06,0.00956684,-0.0008953059742278224,0.015468213277601173,-1.2079892703908968e-06,0.007973046793991134,-2.1574676726254793e-06,-0.005828796266260761
35,38.53,157.653,473.457,-2.00889e-07,273.207,-0.0272134,-0.0469522,-0.000993934,0.00857159,-0.0063625,0.0166157,-1.35586e-06,-2.42323e-06,0.010544,-0.0009934402112132812,0.01675450847756177,-1.3558590807871695e-06,0.008608431265071825,-2.4232270640078823e-06,-0.006342302155838642
36,41.24,159.515,479.065,-2.20969e-07,276.438,-0.0284014,-0.0489954,-0.00109236,0.00920103,-0.00687913,0.0178806,-1.50682e-06,-2.69465e-06,0.0115224,-0.0010917635919989177,0.018041414987773008,-1.5068188647937575e-06,0.009243489600639476,-2.6946463694832445e-06,-0.006855522948231774
37,43.94,161.273,484.362,-2.29278e-07,279.49,-0.0295044,-0.050892,-0.00119094,0.00982976,-0.0073957,0.0191445,-1.66061e-06,-2.97122e-06,0.0125019,-0.0011902311124002418,0.019328931006529437,-1.6606086211679028e-06,0.009878230779357011,-2.971215585900744e-06,-0.0073684191059528725
38,46.65,162.94,489.384,-2.32622e-07,282.383,-0.0305329,-0.05266,-0.00128965,0.0104578,-0.00791215,0.0204074,-1.81698e-06,-3.2525e-06,0.0134821,-0.0012888187588137034,0.02061705472801778,-1.8169783493338088e-06,0.01051267391039401,-3.2524947106704616e-06,-0.007880931331044838
39,49.35,164.525,494.159,-2.34751e-07,285.134,-0.0314954,-0.0543143,-0.00138847,0.0110852,-0.00842844,0.0216693,-1.9757e-06,-3.53808e-06,0.014463,-0.001387506521501436,0.02190578434231516,-1.9756980482732445e-06,0.01114686848804114,-3.5380737409829166e-06,-0.008393020280431207
40,52.06,166.036,498.712,-2.37715e-07,287.757,-0.0323992,-0.0558675,-0.00148737,0.0117118,-0.00894453,0.0229302,-2.13659e-06,-3.8276e-06,0.0154443,-0.001486264413448235,0.023195118035396867,-2.1365877175272274e-06,0.011780651659366592,-3.827592674698899e-06,-0.008904646692601048
41,54.76,167.481,503.065,-2.42602e-07,290.265,-0.0332505,-0.0573303,-0.00158634,0.0123378,-0.00946039,0.0241899,-2.29948e-06,-4.12076e-06,0.0164259,-0.0015850824277691133,0.024484849092142102,-2.2994773561935133e-06,0.012414224634956561,-4.120751509684162e-06,-0.009415781293275804
42,57.47,168.865,507.234,-2.49946e-07,292.667,-0.0340546,-0.0587117,-0.00168537,0.0129632,-0.00997601,0.0254487,-2.46421e-06,-4.41727e-06,0.0174077,-0.0016839505615199313,0.025775282648660358,-2.4642069638147746e-06,0.013047586522661803,-4.41726024391631e-06,-0.009926414670421102
43,60.17,170.193,511.236,-2.59963e-07,294.973,-0.034816,-0.0600196,-0.00178444,0.0135878,-0.0104914,0.0267063,-2.63064e-06,-4.71687e-06,0.0183896,-0.00178284883353097,0.027066109145694073,-2.630636539824316e-06,0.013680533694028219,-4.716858875597474e-06,-0.010436557223087006
44,62.88,171.471,515.085,-2.7269e-07,297.19,-0.0355387,-0.0612608,-0.00188354,0.0142119,-0.0110064,0.0279628,-2.79865e-06,-5.01934e-06,0.0193715,-0.0018817672517229544,0.028357428813523322,-2.7986460837681193e-06,0.014313369170876555,-5.019327403155138e-06,-0.010946051190159567
45,65.58,172.701,518.793,-2.88065e-07,299.326,-0.036226,-0.0624412,-0.00198266,0.0148352,-0.0115212,0.0292182,-2.96812e-06,-5.32447e-06,0.0203534,-0.001980695827971668,0.02964923942951847,-2.9681155950811444e-06,0.014945787766661223,-5.3244558250176155e-06,-0.011455085126429676
46,68.29,173.889,522.369,-3.0597e-07,301.387,-0.0368809,-0.0635659,-0.00208179,0.015458,-0.0120356,0.0304725,-3.13895e-06,-5.63207e-06,0.0213351,-0.002079624578109729,0.0309415387666363,-3.1389450735330726e-06,0.015578092882657213,-5.6320541399479396e-06,-0.011963461864933467
47,70.99,175.036,525.825,-3.26263e-07,303.378,-0.0375062,-0.0646395,-0.00218092,0.01608,-0.0125497,0.0317256,-3.31105e-06,-5.94197e-06,0.0223166,-0.0021785435219268123,0.03223422136999621,-3.3110445184503234e-06,0.016209978952625992,-5.941952346488755e-06,-0.01247128090312033
48,73.7,176.145,529.168,-3.48795e-07,305.304,-0.0381041,-0.065666,-0.00228005,0.0167015,-0.0130634,0.0329777,-3.48433e-06,-6.25402e-06,0.0232979,-0.0022774526603950296,0.03352749132126576,-3.484323929714428e-06,0.0168417497569866,-6.254000443628449e-06,-0.012978444130092637
49,76.4,177.22,532.406,-3.73416e-07,307.169,-0.0386767,-0.0666491,-0.00237917,0.0173223,-0.0135768,0.0342285,-3.65872e-06,-6.56806e-06,0.0242788,-0.0023763420182499884,0.03482103632180755,-3.658713306875505e-06,0.017473201097452096,-6.5680384303545836e-06,-0.013485050939780585
50,79.11,178.262,535.545,-3.99982e-07,308.978,-0.0392259,-0.0675919,-0.00247827,0.0179425,-0.0140898,0.0354783,-3.83413e-06,-6.88397e-06,0.0252595,-0.0024752016241814667,0.03611516418505212,-3.834122649704064e-06,0.01810443370176973,-6.883946305547006e-06,-0.01399100332076686
51,81.81,179.274,538.592,-4.28357e-07,310.734,-0.0397533,-0.0684974,-0.00257735,0.018562,-0.0146025,0.0367269,-4.01051e-06,-7.20163e-06,0.0262397,-0.0025740314850923873,0.037409665568089556,-4.0105019578629e-06,0.01873534480298389,-7.20160406830761e-06,-0.014496400563710266
52,84.52,180.257,541.553,-4.58418e-07,312.44,-0.0402605,-0.069368,-0.00267641,0.0191809,-0.0151147,0.0379744,-4.18779e-06,-7.52093e-06,0.0272195,-0.0026728316078825642,0.03870464169930443,-4.187781231235199e-06,0.01936603525491143,-7.520901717850137e-06,-0.015001046256546857
53,87.22,181.212,544.432,-4.9005e-07,314.098,-0.0407487,-0.0702062,-0.00277544,0.0197992,-0.0156266,0.0392207,-4.36592e-06,-7.84175e-06,0.0281989,-0.0027715920271657035,0.039999986320587544,-4.365910469372736e-06,0.019996504163887208,-7.841719253609547e-06,-0.015505138187630663
54,89.93,182.142,547.235,-5.23146e-07,315.713,-0.0412193,-0.071014,-0.00287444,0.0204169,-0.0161381,0.0404659,-4.54484e-06,-8.16402e-06,0.0291778,-0.002870312752798365,0.04129580091028506,-4.544829672270545e-06,0.020626750636093094,-8.163986674469825e-06,-0.01600857854360016
55,92.63,183.049,549.964,-5.57613e-07,317.286,-0.0416734,-0.0717933,-0.0029734,0.0210339,-0.0166492,0.0417099,-4.7245e-06,-8.48762e-06,0.0301562,-0.0029689838243232014,0.04259197894219624,-4.724488839591423e-06,0.02125667165188494,-8.48758398031002e-06,-0.016511368060300513
56,95.34,183.932,552.625,-5.93362e-07,318.819,-0.0421119,-0.072546,-0.00307232,0.0216504,-0.0171599,0.0429527,-4.90486e-06,-8.8125e-06,0.0311341,-0.00306760525454719,0.04388851775596381,-4.904847971221038e-06,0.021886470505507516,-8.812461170015773e-06,-0.017013507472419476
57,98.04,184.794,555.221,-6.30316e-07,320.315,-0.0425357,-0.0732736,-0.0031712,0.0222662,-0.0176701,0.0441944,-5.08588e-06,-9.13856e-06,0.0321115,-0.0031661770562690927,0.045185519205166,-5.0858670669340356e-06,0.022515941988422883,-9.138518243467786e-06,-0.01751489926498473
58,100.7,185.635,557.756,-6.68402e-07,321.775,-0.0429458,-0.0739776,-0.00327003,0.0228814,-0.01818,0.045435,-5.26751e-06,-9.46573e-06,0.0330883,-0.003264689274929178,0.04648298100944004,-5.267496126726279e-06,0.023145187331955697,-9.465685200105156e-06,-0.018015740717469586
59,103.5,186.456,560.231,-7.07555e-07,323.201,-0.043343,-0.0746592,-0.00336882,0.023496,-0.0186895,0.0466744,-5.44972e-06,-9.79396e-06,0.0340645,-0.003363151892634697,0.047780796105985957,-5.4497051502622185e-06,0.023774205641616586,-9.793912039368635e-06,-0.01851593426244813
60,106.2,187.26,562.65,-7.47716e-07,324.595,-0.0437278,-0.0753198,-0.00346756,0.02411,-0.0191985,0.0479126,-5.63247e-06,-1.01232e-05,0.0350401,-0.0034615549567776904,0.049078961816259925,-5.632454137649567e-06,0.024402996022773182,-1.0123148760587952e-05,-0.019015382531540892
61,108.9,188.045,565.017,-7.88831e-07,325.958,-0.0441011,-0.0759605,-0.00356624,0.0247233,-0.0197071,0.0491497,-5.81574e-06,-1.04533e-05,0.0360151,-0.0035598885186767237,0.05037758049488761,-5.815723088664626e-06,0.02503145507750415,-1.045324536441683e-05,-0.01951418445190467
62,111.6,188.813,567.332,-8.30852e-07,327.292,-0.0444633,-0.0765824,-0.00366487,0.0253361,-0.0202153,0.0503856,-5.99949e-06,-1.07843e-05,0.0369894,-0.0036581625604080736,0.05167654467619509,-5.99947200308204e-06,0.025659786854369093,-1.0784241849637333e-05,-0.02001234075112923
63,114.3,189.566,569.598,-8.73732e-07,328.598,-0.0448151,-0.0771863,-0.00376345,0.0259483,-0.0207231,0.0516204,-6.18369e-06,-1.11161e-05,0.0379631,-0.0037563770976688504,0.05297595696560431,-6.18367088101035e-06,0.026287888018030836,-1.1116038216352209e-05,-0.02050985215565948
64,117.0,190.303,571.819,-9.17432e-07,329.877,-0.0451571,-0.0777733,-0.00386197,0.0265598,-0.0212304,0.052854,-6.36831e-06,-1.14487e-05,0.0389362,-0.003854522184690845,0.054275709628732516,-6.368289722336051e-06,0.02691565498174109,-1.1448634463895324e-05,-0.02100662149146504
65,119.7,191.025,573.994,-9.61914e-07,331.13,-0.0454896,-0.0783441,-0.00396044,0.0271708,-0.0217373,0.0540865,-6.55334e-06,-1.1782e-05,0.0399086,-0.003952607800566721,0.05557590552198022,-6.553318526947294e-06,0.027543292170570277,-1.178193059248045e-05,-0.021502747481275786
66,122.4,191.733,576.127,-1.00714e-06,332.359,-0.0458131,-0.0788995,-0.00405884,0.0277811,-0.0222438,0.0553178,-6.73874e-06,-1.2116e-05,0.0408803,-0.004050614041973155,0.056876436642122385,-6.738717294729746e-06,0.028170593243233455,-1.2115926601552474e-05,-0.021998230847921074
67,125.1,192.427,578.219,-1.05309e-06,333.564,-0.0461281,-0.0794403,-0.00415718,0.0283909,-0.0227499,0.0565479,-6.9245e-06,-1.24507e-05,0.0418514,-0.004148550888954494,0.05817730027898249,-6.92447602568258e-06,0.028797762875579336,-1.245062249033424e-05,-0.022493072313094054
68,127.8,193.109,580.272,-1.09972e-06,334.747,-0.0464349,-0.0799671,-0.00425546,0.029,-0.0232555,0.0577769,-7.11058e-06,-1.27859e-05,0.0428217,-0.004246418360086657,0.05947859966570368,-7.110554719913509e-06,0.029424594475130794,-1.278581826069658e-05,-0.022987174896073825
69,130.5,193.777,582.287,-1.14701e-06,335.908,-0.046734,-0.0804806,-0.00435368,0.0296086,-0.0237607,0.0590048,-7.29698e-06,-1.31217e-05,0.0437914,-0.0043442164739314615,0.06078033247353476,-7.296953377089466e-06,0.030051292968336085,-1.312161391087141e-05,-0.023480637116264025
70,133.2,194.434,584.266,-1.19493e-06,337.048,-0.0470256,-0.0809814,-0.00445183,0.0302166,-0.0242654,0.0602315,-7.48367e-06,-1.34581e-05,0.0447603,-0.004441935293455046,0.06208239016118555,-7.483641997430013e-06,0.03067775457949229,-1.3458009440192598e-05,-0.02397336208910561
71,135.9,195.079,586.209,-1.24347e-06,338.168,-0.0473102,-0.08147,-0.00454992,0.030824,-0.0247697,0.061457,-7.67064e-06,-1.37949e-05,0.0457286,-0.004539584794723939,0.0633847700005763,-7.670610580712278e-06,0.03130397841254906,-1.3794804850753017e-05,-0.024465448232654174
72,138.6,195.713,588.12,-1.29259e-06,339.268,-0.0475879,-0.0819469,-0.00464794,0.0314308,-0.0252736,0.0626814,-7.85787e-06,-1.41322e-05,0.0466961,-0.004637155042626517,0.0646875757278722,-7.85783912704563e-06,0.03192996357133926,-1.413210014089561e-05,-0.024956896262559702
73,141.3,196.336,589.997,-1.34229e-06,340.35,-0.0478591,-0.0824127,-0.0047459,0.032037,-0.025777,0.0639047,-8.04533e-06,-1.44699e-05,0.0476628,-0.004734656011243121,0.06599080499692311,-8.045297636427584e-06,0.032555709159581614,-1.4469795311500278e-05,-0.025447609438112084
74,144.0,196.949,591.843,-1.39254e-06,341.413,-0.0481241,-0.0828678,-0.00484378,0.0326426,-0.02628,0.0651268,-8.23302e-06,-1.48081e-05,0.0486289,-0.004832067815701224,0.06729434872786677,-8.23298610874712e-06,0.0331812142808825,-1.4807990360576895e-05,-0.02593768602597013
75,146.7,197.552,593.659,-1.44333e-06,342.46,-0.048383,-0.0833126,-0.0049416,0.0332476,-0.0267826,0.0663478,-8.42092e-06,-1.51466e-05,0.0495942,-0.004929410381724897,0.06859831103465153,-8.420884544113605e-06,0.033806478038737264,-1.514648529088447e-05,-0.026427126738219564
76,149.4,198.145,595.446,-1.49463e-06,343.489,-0.0486363,-0.0837476,-0.00503935,0.033852,-0.0272847,0.0675676,-8.60902e-06,-1.54855e-05,0.0505587,-0.00502667377803423,0.0699025825679398,-8.608982942526211e-06,0.034431499536533794,-1.5485380100210833e-05,-0.026915834977413566
77,152.1,198.729,597.205,-1.54644e-06,344.502,-0.0488839,-0.0841731,-0.00513703,0.0344559,-0.0277863,0.0687862,-8.79731e-06,-1.58247e-05,0.0515225,-0.005123858025983585,0.07120716057299559,-8.797271303762066e-06,0.03505638138318656,-1.582457479010202e-05,-0.02740381159982075
78,154.8,199.303,598.936,-1.59874e-06,345.499,-0.0491263,-0.0845895,-0.00523464,0.0350592,-0.0282876,0.0700038,-8.98576e-06,-1.61642e-05,0.0524856,-0.005220963146909008,0.07251225679304873,-8.985719628151756e-06,0.03568101930115741,-1.616406936000292e-05,-0.027891251881950962
79,157.6,199.869,600.641,-1.65152e-06,346.482,-0.0493636,-0.0849971,-0.00533218,0.0356619,-0.0287884,0.0712202,-9.17437e-06,-1.65041e-05,0.0534479,-0.005317989162128112,0.07381765448412891,-9.174327915584257e-06,0.03630541239344742,-1.6503963808034428e-05,-0.02837796206060783
80,160.3,200.426,602.32,-1.70476e-06,347.449,-0.049596,-0.0853964,-0.00542964,0.036264,-0.0292887,0.0724354,-9.36313e-06,-1.68441e-05,0.0544094,-0.005414926147088384,0.07512335087830913,-9.363086166058743e-06,0.03692955976295953,-1.684395813894568e-05,-0.02886394298792294
81,163.0,200.975,603.974,-1.75846e-06,348.402,-0.0498236,-0.0857875,-0.00552704,0.0368655,-0.0297886,0.0736495,-9.55203e-06,-1.71845e-05,0.0553702,-0.005511794015739757,0.07642945084615915,-9.551984379463363e-06,0.03755346051249675,-1.7184352347321408e-05,-0.029349292579585406
82,165.7,201.516,605.604,-1.8126e-06,349.341,-0.0500466,-0.0861709,-0.00562436,0.0374665,-0.030288,0.0748625,-9.74106e-06,-1.7525e-05,0.0563302,-0.0056085728986093875,0.0777359520027916,-9.741012556019335e-06,0.038177217562483046,-1.752484643813279e-05,-0.02983391452270001
83,168.4,202.05,607.211,-1.86718e-06,350.267,-0.0502653,-0.0865467,-0.00572161,0.0380668,-0.0307871,0.0760744,-9.9302e-06,-1.78658e-05,0.0572895,-0.005705272762787983,0.07904285195909844,-9.930150695725004e-06,0.038800622442439536,-1.7865640407510597e-05,-0.03031800360148329
84,171.1,202.575,608.796,-1.92218e-06,351.18,-0.0504797,-0.0869152,-0.00581878,0.0386667,-0.0312856,0.0772851,-1.01194e-05,-1.82068e-05,0.0582479,-0.005801883687515774,0.08035004028674697,-1.0119348799020322e-05,0.039423985895015834,-1.820663425722291e-05,-0.030801269612626858
85,173.8,203.094,610.358,-1.9776e-06,352.08,-0.05069,-0.0872767,-0.00591588,0.0392659,-0.0317838,0.0784947,-1.03088e-05,-1.85479e-05,0.0592056,-0.005898415637907606,0.08165762236168628,-1.0308746864473584e-05,0.04004699538236589,-1.8547727988815765e-05,-0.03128400416094512
86,176.5,203.605,611.899,-2.03342e-06,352.967,-0.0508964,-0.0876315,-0.00601291,0.0398645,-0.0322814,0.0797031,-1.04982e-05,-1.88893e-05,0.0601625,-0.005994868635145423,0.08296548748550725,-1.0498144894066641e-05,0.04066975388682659,-1.888912159830891e-05,-0.031765917330534466
87,179.2,204.11,613.419,-2.08964e-06,353.843,-0.0510989,-0.0879797,-0.00610986,0.0404626,-0.0327787,0.0809105,-1.06877e-05,-1.92307e-05,0.0611187,-0.0060912327613048545,0.08427384971442886,-1.0687642886697546e-05,0.041292364639811785,-1.923051509122864e-05,-0.03224730043401647
88,181.9,204.608,614.92,-2.14625e-06,354.708,-0.0512978,-0.0883216,-0.00620674,0.0410602,-0.0332755,0.0821167,-1.08773e-05,-1.95723e-05,0.062074,-0.006187517978543666,0.08558248991419526,-1.0877240842366298e-05,0.04191482693012838,-1.957210846381674e-05,-0.032727960569297276
89,184.6,205.099,616.4,-2.20325e-06,355.56,-0.051493,-0.0886575,-0.00630354,0.0416571,-0.0337718,0.0833218,-1.1067e-05,-1.9914e-05,0.0630286,-0.006283714370822757,0.08689151396681272,-1.1066938760961875e-05,0.04253693153897231,-1.991380171761925e-05,-0.03320789857599904
90,187.3,205.584,617.862,-2.26063e-06,356.402,-0.0516849,-0.0889874,-0.00640027,0.0422535,-0.0342677,0.0845257,-1.12567e-05,-2.02559e-05,0.0639824,-0.0063798318983325775,0.08820081063346752,-1.1256636643586226e-05,0.04315888601333118,-2.0255694850646044e-05,-0.03368721192352797
91,190.0,206.063,619.304,-2.31838e-06,357.234,-0.0518733,-0.0893116,-0.00649692,0.0428493,-0.0347632,0.0857285,-1.14464e-05,-2.05978e-05,0.0649353,-0.006475860646915632,0.0895104860493976,-1.1446334490239352e-05,0.04378058526343387,-2.0597587866766354e-05,-0.03416590130493169
92,192.7,206.536,620.729,-2.37649e-06,358.054,-0.0520586,-0.0896302,-0.0065935,0.0434446,-0.0352582,0.0869303,-1.16362e-05,-2.09398e-05,0.0658875,-0.006571810574797721,0.090820646869477,-1.163613229970828e-05,0.04440213283111927,-2.093958076387903e-05,-0.03464387087655729
93,195.4,207.003,622.136,-2.43497e-06,358.865,-0.0522407,-0.0899435,-0.00669,0.0440393,-0.0357528,0.0881309,-1.18261e-05,-2.12818e-05,0.066839,-0.006667671769700179,0.09213107262928366,-1.182603007199301e-05,0.04502342350198396,-2.128157354408522e-05,-0.03512121796035683
94,198.1,207.464,623.526,-2.4938e-06,359.666,-0.0524198,-0.0902517,-0.00678642,0.0446334,-0.0362469,0.0893303,-1.2016e-05,-2.1624e-05,0.0677896,-0.006763444255522444,0.09344176050018604,-1.2015927808195492e-05,0.04564445637743586,-2.162376620296058e-05,-0.03559784680570954
95,200.8,207.92,624.899,-2.55298e-06,360.457,-0.0525959,-0.0905548,-0.00688277,0.0452269,-0.0367406,0.0905287,-1.22059e-05,-2.19661e-05,0.0687394,-0.00685913798754878,0.09475292659977597,-1.2205825508315726e-05,0.04626523055881204,-2.196585874703061e-05,-0.036073854636540004
96,203.5,208.37,626.256,-2.6125e-06,361.238,-0.0527692,-0.090853,-0.00697904,0.0458199,-0.0372339,0.091726,-1.23958e-05,-2.23084e-05,0.0696884,-0.006954743056310941,0.09606445927115081,-1.2395723172353712e-05,0.046885849835962556,-2.2308151169547763e-05,-0.03654924214007982
97,206.2,208.815,627.597,-2.67237e-06,362.011,-0.0529398,-0.0911465,-0.00707523,0.0464124,-0.0377267,0.0929221,-1.25857e-05,-2.26506e-05,0.0706367,-0.007050259485640087,0.0973762463287422,-1.2585620800420472e-05,0.04750631349619816,-2.265034347714856e-05,-0.037023913704873235
98,208.9,209.255,628.923,-2.73257e-06,362.774,-0.0531076,-0.0914355,-0.00717134,0.0470043,-0.0382191,0.0941171,-1.27757e-05,-2.29929e-05,0.0715841,-0.007145687299343839,0.09868839479566538,-1.277561839108099e-05,0.048126516013984766,-2.2992635665297634e-05,-0.0374979664084113
99,211.7,209.69,630.233,-2.7931e-06,363.529,-0.0532728,-0.0917199,-0.00726738,0.0475956,-0.038711,0.0953111,-1.29656e-05,-2.33351e-05,0.0725308,-0.007241036448796034,0.10000101221570845,-1.2965515946983253e-05,0.048746456490242895,-2.3334827738641373e-05,-0.03797130473163013
100,214.4,210.12,631.529,-2.85396e-06,364.276,-0.0534356,-0.0920001,-0.00736334,0.0481864,-0.0392025,0.0965039,-1.31556e-05,-2.36774e-05,0.0734766,-0.007336297028262884,0.10131387625953625,-1.3155513465479274e-05,0.04936623896245185,-2.3677119692533388e-05,-0.03844402565467142
101,217.1,210.545,632.81,-2.91515e-06,365.013,-0.0535958,-0.0922761,-0.00745923,0.0487766,-0.0396936,0.0976956,-1.33455e-05,-2.40197e-05,0.0744217,-0.0074314789871687825,0.1026270943314489,-1.334541094921704e-05,0.04998575771868885,-2.4019411529296875e-05,-0.03891612985899651
102,219.8,210.965,634.077,-2.97666e-06,365.743,-0.0537537,-0.092548,-0.00755503,0.0493663,-0.0401842,0.0988862,-1.35354e-05,-2.4362e-05,0.0753659,-0.007526562496908973,0.10394066396279311,-1.3535308396872558e-05,0.05060511692012781,-2.4361703248931832e-05,-0.039387521963749506
103,222.5,211.381,635.33,-3.03848e-06,366.465,-0.0539093,-0.092816,-0.00765076,0.0499554,-0.0406743,0.100076,-1.37254e-05,-2.47042e-05,0.0763094,-0.007621567431597365,0.10525491425723588,-1.3725305807121835e-05,0.051224210730683506,-2.4703894853761454e-05,-0.03985820278947738
104,225.2,211.792,636.569,-3.10062e-06,367.179,-0.0540627,-0.0930801,-0.00774641,0.0505439,-0.0411641,0.101264,-1.39153e-05,-2.50464e-05,0.077252,-0.007716483889220749,0.1065687373517703,-1.3915203182612856e-05,0.05184303825083614,-2.504608634157357e-05,-0.040328365089604246
105,227.9,212.199,637.796,-3.16307e-06,367.886,-0.0542138,-0.0933406,-0.00784198,0.051132,-0.0416534,0.102452,-1.41051e-05,-2.53886e-05,0.0781939,-0.0078113118934268755,0.10788412219563637,-1.4105000523567668e-05,0.052461809073357735,-2.5388277712257157e-05,-0.04079781755965295
106,230.6,212.602,639.009,-3.22583e-06,368.585,-0.0543628,-0.0935973,-0.00793747,0.0517194,-0.0421422,0.103638,-1.4295e-05,-2.57307e-05,0.079135,-0.00790605146784129,0.10919885224537196,-1.4294897827005215e-05,0.05308020674562308,-2.5730368968357453e-05,-0.04126656101619608
107,233.3,213.0,640.21,-3.28889e-06,369.276,-0.0545098,-0.0938506,-0.00803289,0.0523063,-0.0426306,0.104823,-1.44848e-05,-2.60728e-05,0.0800752,-0.008000712556057943,0.11051403197537213,-1.448469509579553e-05,0.05369844092203513,-2.6072460107551265e-05,-0.041734692100879545
108,236.0,213.395,641.398,-3.35226e-06,369.961,-0.0546548,-0.0941004,-0.00812823,0.0528927,-0.0431186,0.106007,-1.46746e-05,-2.64148e-05,0.0810147,-0.008095285259770435,0.11182965928690591,-1.4674492328614619e-05,0.05431651088819445,-2.641445113227281e-05,-0.042202211487125774
109,238.7,213.785,642.575,-3.41593e-06,370.639,-0.0547978,-0.0943469,-0.00822348,0.0534785,-0.0436062,0.10719,-1.48644e-05,-2.67568e-05,0.0819533,-0.008189759684433473,0.1131457320774123,-1.486428952535146e-05,0.054934310436093314,-2.6756442039976847e-05,-0.04266911984729582
110,241.4,214.172,643.739,-3.4799e-06,371.309,-0.0549389,-0.0945902,-0.00831866,0.0540638,-0.0440933,0.108372,-1.50541e-05,-2.70987e-05,0.0828912,-0.008284155690729489,0.114462248240502,-1.505398668755209e-05,0.055551944220886496,-2.7098332833541683e-05,-0.04313532216622573
111,244.1,214.554,644.892,-3.54417e-06,371.973,-0.0550781,-0.0948303,-0.00841377,0.0546485,-0.0445799,0.109553,-1.52438e-05,-2.74406e-05,0.0838283,-0.00837847329933683,0.11577920566596389,-1.5243683813892517e-05,0.0561693059107744,-2.7440223510200035e-05,-0.04360081925383319
112,246.8,214.933,646.034,-3.60872e-06,372.631,-0.0552156,-0.0950674,-0.00850879,0.0552327,-0.0450662,0.110732,-1.54334e-05,-2.77823e-05,0.0847645,-0.008472692700369211,0.1170954851437227,-1.5433280905696733e-05,0.056786500284210284,-2.778191407548647e-05,-0.044065803105442836
113,249.5,215.308,647.164,-3.67358e-06,373.282,-0.0553513,-0.0953014,-0.00860374,0.0558164,-0.045552,0.111911,-1.5623e-05,-2.8124e-05,0.0857,-0.008566833748780422,0.11841331743018646,-1.5622877961529724e-05,0.05740352662604531,-2.812360452397744e-05,-0.04453008315553908
114,252.2,215.679,648.283,-3.73872e-06,373.927,-0.0554853,-0.0955325,-0.0086986,0.0563995,-0.0460374,0.113088,-1.58126e-05,-2.84656e-05,0.0866347,-0.008660876638406312,0.11973046489402761,-1.581247498150251e-05,0.058020278418931204,-2.846519485866228e-05,-0.04499375571074227
115,254.9,216.047,649.392,-3.80415e-06,374.566,-0.0556176,-0.0957609,-0.00879339,0.056982,-0.0465223,0.114265,-1.60021e-05,-2.88071e-05,0.0875685,-0.008754841220387943,0.12104916355313278,-1.600197196705011e-05,0.05863675476241448,-2.880668507942996e-05,-0.04545672598238437
116,257.6,216.412,650.49,-3.86986e-06,375.198,-0.0557484,-0.0959864,-0.0088881,0.0575641,-0.0470068,0.11544,-1.61915e-05,-2.91485e-05,0.0885016,-0.00884871760378969,0.12236717049774803,-1.6191368918394566e-05,0.059253166606623164,-2.9148075186613553e-05,-0.04591909018187401
117,260.3,216.773,651.578,-3.93586e-06,375.825,-0.0558775,-0.0962093,-0.00898273,0.0581455,-0.0474909,0.116615,-1.63809e-05,-2.94898e-05,0.0894339,-0.008942505811983747,0.12368672701071692,-1.6380765833767796e-05,0.059869195459923086,-2.9489365180102034e-05,-0.046380848972583766
118,263.0,217.13,652.656,-4.00215e-06,376.446,-0.0560051,-0.0964295,-0.00907728,0.0587265,-0.0479745,0.117788,-1.65702e-05,-2.9831e-05,0.0903653,-0.009036205868319214,0.12500558490043123,-1.6570062714937883e-05,0.06048515838238733,-2.9830555060117447e-05,-0.04684190770103458
119,265.8,217.485,653.724,-4.06872e-06,377.061,-0.0561312,-0.0966472,-0.00917176,0.0593069,-0.0484577,0.11896,-1.67594e-05,-3.01721e-05,0.091296,-0.009129827704823734,0.1263248643927053,-1.675925956201585e-05,0.06110084262259541,-3.0171644826770816e-05,-0.047302362436410283
120,268.5,217.836,654.783,-4.13557e-06,377.671,-0.0562559,-0.0968624,-0.00926615,0.0598868,-0.0489405,0.120131,-1.69486e-05,-3.0513e-05,0.0922259,-0.009223351526460366,0.1276445633418417,-1.6948456373344634e-05,0.06171635345134807,-3.051253448316249e-05,-0.047762213838765
121,270.5,218.099,655.576,-4.33615e-06,378.128,-0.056349,-0.0970231,-0.00933742,0.0603246,-0.049305,0.121015,-1.70915e-05,-3.07705e-05,0.0929279,-0.009293961661974937,0.12864184186800043,-1.7091353941123266e-05,0.062181274634710126,-3.077002659301886e-05,-0.048109241262230595
