,Time,S11,S22,S33,S12,S13,S23,LE11,LE22,LE33,LE12,LE13,LE23,SDV_EPBAR,E11,E12,E13,E22,E23,E33
0,0.0002705,0.000519365,0.0015581,-7.79048e-12,0.000899567,2.21372e-21,3.68811e-20,2.50301e-10,6.7501e-09,-3.0004e-09,1.1258e-08,2.76762e-26,4.61603e-25,0.0,2.5030089112476617e-10,1.1258000087721598e-08,0.0,6.750100034480511e-09,0.0,-3.0004000395322805e-09
1,0.000541,0.00103873,0.00311619,4.33681e-19,0.00179913,-3.08331e-20,-2.03577e-20,5.00425e-10,1.35001e-08,-6.00057e-09,2.25162e-08,-1.63975e-24,4.6912e-25,0.0,5.00425034744012e-10,2.2516200237632233e-08,0.0,1.3500100148888805e-08,0.0,-6.000569929831556e-09
2,0.00094675,0.00181778,0.00545333,6.50521e-19,0.00314848,1.87371e-20,6.55005e-20,8.75688e-10,2.36252e-08,-1.05009e-08,3.94034e-08,-1.73568e-24,1.95724e-24,0.0,8.756879665838824e-10,3.9403400764470575e-08,0.0,2.3625200240573463e-08,0.0,-1.0500899927379237e-08
3,0.0015554,0.00298635,0.00895905,1.73472e-18,0.00517251,4.73565e-20,4.89771e-20,1.4375e-09,3.88125e-08,-1.725e-08,6.47354e-08,4.1359e-25,7.16359e-25,0.0,1.4374998968946784e-09,6.473540214990692e-08,0.0,3.8812500768869995e-08,0.0,-1.7249999872959165e-08
4,0.0024683,0.00473921,0.0142176,0.0,0.00820854,1.00168e-19,-5.78319e-20,2.28125e-09,6.15937e-08,-2.7375e-08,1.02732e-07,-7.41318e-35,-1.284e-34,0.0,2.281250077729169e-09,1.027320053470504e-07,0.0,6.159370191660685e-08,0.0,-2.7374999600482397e-08
5,0.0038377,0.00736849,0.0221055,-8.67362e-19,0.0127626,9.88226e-21,-8.20239e-20,3.54688e-09,9.57656e-08,-4.25625e-08,1.59728e-07,7.653e-32,1.32554e-31,0.0,3.5468799008953056e-09,1.597280128162737e-07,0.0,9.576560455748506e-08,0.0,-4.256249908074494e-08
6,0.0058918,0.0113124,0.0339373,-6.07153e-18,0.0195937,-4.73565e-20,-4.89771e-20,5.44671e-09,1.47024e-07,-6.53456e-08,2.45219e-07,-1.14621e-23,6.61761e-24,0.0,5.446709971934638e-09,2.452190299706558e-07,0.0,1.4702401074373483e-07,0.0,-6.534559782167548e-08
7,0.008973,0.0172283,0.0516849,7.80626e-18,0.0298403,6.7121e-20,-1.15071e-19,8.29297e-09,2.2391e-07,-9.95156e-08,3.7346e-07,1.78232e-31,3.08708e-31,0.0,8.292970088419338e-09,3.734600697580248e-07,0.0,2.2391002496569e-07,0.0,-9.951559509779884e-08
8,0.013595,0.0261021,0.0783064,9.54098e-18,0.0452102,-1.3116e-19,-4.58503e-19,1.25671e-08,3.39241e-07,-1.50777e-07,5.65816e-07,2.77687e-23,-3.13146e-23,0.0,1.2567100027283118e-08,5.658161601473921e-07,0.0,3.392410574676319e-07,0.0,-1.5077698867216327e-07
9,0.020527,0.0394129,0.118239,6.07153e-18,0.0682651,-4.56883e-19,3.48265e-20,1.89735e-08,5.12236e-07,-2.27663e-07,8.54355e-07,1.1462e-23,-6.61759e-24,0.0,1.8973500104380037e-08,8.543553648987512e-07,0.0,5.122361312892565e-07,0.0,-2.276629741393421e-07
10,0.030926,0.059379,0.178137,-8.67362e-19,0.102847,-1.54031e-18,-2.55477e-19,2.8587e-08,7.71729e-07,-3.42996e-07,1.28716e-06,-2.95414e-23,1.77334e-24,0.0,2.858700032248862e-08,1.2871608283671065e-06,0.0,7.717292977993395e-07,0.0,-3.429959412049044e-07
11,0.046525,0.0893282,0.267985,-4.94396e-17,0.154721,-5.5365e-19,3.95969e-19,4.30043e-08,1.16097e-06,-5.15992e-07,1.93637e-06,-9.16942e-23,5.29396e-23,0.0,4.300430100911967e-08,1.9363718748444114e-06,0.0,1.1609706738191505e-06,0.0,-5.159918669006558e-07
12,0.069922,0.134252,0.402756,-2.1684e-17,0.232531,2.20493e-19,-2.49317e-18,6.46307e-08,1.74483e-06,-7.75487e-07,2.91018e-06,-5.29397e-23,-9.16942e-23,0.0,6.463070212348043e-08,2.910184234483637e-06,0.0,1.744831522154655e-06,0.0,-7.754866993003873e-07
13,0.105,0.201637,0.604912,1.99493e-17,0.349246,-1.22407e-18,-2.88023e-18,9.70596e-08,2.62061e-06,-1.16471e-06,4.37091e-06,-1.05879e-22,-1.83388e-22,0.0,9.705960479777787e-08,4.370919552521002e-06,0.0,2.62061343381248e-06,0.0,-1.1647093217659332e-06
14,0.1577,0.302715,0.908146,-9.1073e-17,0.524319,2.72256e-18,-2.74454e-19,1.45719e-07,3.93429e-06,-1.74858e-06,6.56199e-06,1.03982e-22,-2.43423e-22,0.0,1.4571901063575865e-07,6.562011529931411e-06,0.0,3.934297739371928e-06,0.0,-1.748578471238993e-06
15,0.2366,0.454332,1.363,-7.80626e-18,0.786926,-1.38381e-17,-7.8084e-18,2.18705e-07,5.90479e-06,-2.62436e-06,9.8486e-06,-2.11758e-22,-3.66776e-22,0.0,2.1870502386889257e-07,9.848648497623458e-06,0.0,5.904807433232406e-06,0.0,-2.624356556402141e-06
16,0.3551,0.681756,2.04527,4.77049e-17,1.18084,-5.94481e-18,-2.59681e-18,3.28182e-07,8.86055e-06,-3.93804e-06,1.47785e-05,5.57568e-28,9.65736e-28,0.0,3.281820537548441e-07,1.4778609202625859e-05,0.0,8.860589254755524e-06,0.0,-3.938032245964784e-06
17,0.5328,1.02289,3.06867,7.13839e-16,1.7717,-5.94479e-18,-2.59677e-18,4.92389e-07,1.32942e-05,-5.90853e-06,2.21733e-05,8.36561e-28,1.44897e-27,0.0,4.923891212538223e-07,2.2173545829451413e-05,0.0,1.3294288368159712e-05,0.0,-5.908512544672284e-06
18,0.7993,1.53459,4.60377,-2.85362e-16,2.65799,-3.98145e-18,-3.30361e-17,7.38697e-07,1.99445e-05,-8.86424e-06,3.32654e-05,7.35553e-27,1.27402e-26,0.0,7.38697272906208e-07,3.326595329955495e-05,0.0,1.9944698892881974e-05,0.0,-8.864200712777048e-06
19,1.199,2.30213,6.90638,-1.61763e-15,3.9874,2.21215e-18,-5.61484e-17,1.10814e-06,2.99199e-05,-1.32977e-05,4.99034e-05,-4.23505e-22,-7.33532e-22,0.0,1.1081406139368255e-06,4.990464519538662e-05,0.0,2.992034760462836e-05,0.0,-1.3297611585971758e-05
20,1.799,3.45341,10.3602,-3.17194e-15,5.98148,6.53581e-17,-1.44564e-17,1.66234e-06,4.48827e-05,-1.99479e-05,7.48599e-05,-1.09041e-26,-1.88864e-26,0.0,1.6623413816585497e-06,7.486270207235357e-05,0.0,4.4883707243537074e-05,0.0,-1.994770104196686e-05
21,2.698,5.18029,15.5409,-2.8485e-14,8.97252,-6.87866e-17,2.39178e-17,2.49357e-06,6.73263e-05,-2.99228e-05,0.000112294,-4.23518e-22,-7.33555e-22,0.0,2.4935731088859825e-06,0.00011230030520725798,0.0,6.732856646629592e-05,0.0,-2.9922352317468537e-05
22,4.047,31.1929,93.5787,-1.03264e-09,54.0277,-8.08225e-16,-1.7395e-16,1.5015e-05,0.000405403,-0.000180179,0.000676171,-3.02527e-20,1.82072e-21,0.0,1.5015112725613733e-05,0.0006763996551444329,0.0,0.00040548518690219915,0.0,-0.00018016276873877857
23,6.071,70.3658,211.097,-9.04826e-07,121.877,1.29847e-16,-7.14917e-16,3.38711e-05,0.000914519,-0.000406453,0.00152533,-2.03309e-20,-3.52142e-20,0.0,3.3871673632113186e-05,0.0015264939075101402,0.0,0.0009149373000056915,0.0,-0.00040637040916957634
24,8.776,121.245,363.746,0.000144404,210.006,-0.000264592,-0.000458164,5.55315e-05,0.00159319,-0.000714907,0.0026634,-3.36151e-09,-5.82465e-09,2.80702e-05,5.553304190231145e-05,0.0026669500007709956,-3.361509959276532e-09,0.0015944598014436817,-5.824649984553787e-09,-0.0007146515148769295
25,11.48,127.187,381.805,0.0874917,220.447,-0.00531971,-0.00919305,-3.32608e-05,0.00223303,-0.00121957,0.00393016,-9.63467e-08,-1.68919e-07,0.00093614,-3.326024686567397e-05,0.003937893206406695,-9.634669539959617e-08,0.0022355250683323558,-1.6891898568793806e-07,-0.0012188266267366688
26,14.19,132.158,396.648,0.000167903,228.955,-0.00976477,-0.0168835,-0.000123769,0.0028716,-0.00172965,0.00519777,-2.05614e-07,-3.62273e-07,0.00186438,-0.00012376134093328162,0.0052113018414610135,-2.0561397884311106e-07,0.002875726992692007,-3.622729344288089e-07,-0.0017281550174952365
27,16.89,136.344,409.27,-6.26335e-06,236.223,-0.0133237,-0.023028,-0.000216349,0.0035088,-0.00224191,0.00646662,-3.22086e-07,-5.69354e-07,0.00280602,-0.00021632559824269482,0.006487573729363927,-3.2208594813454283e-07,0.0035149630449091696,-5.693538379647478e-07,-0.0022393987967569418
28,19.6,139.995,420.277,6.24184e-06,242.563,-0.0163543,-0.0282568,-0.000310158,0.00414492,-0.002756,0.00773572,-4.46857e-07,-7.91908e-07,0.00375719,-0.00031010990597990507,0.007765717984070886,-4.468569001492284e-07,0.0041535220617494595,-7.919076864260077e-07,-0.0027522057184803383
29,22.3,143.239,430.055,2.84751e-06,248.194,-0.018982,-0.0327876,-0.000404881,0.00478008,-0.00327136,0.0090047,-5.78966e-07,-1.02808e-06,0.00471537,-0.00040479904674872724,0.009045364275935164,-5.789658323873681e-07,0.0047915228076500505,-1.0280794715544772e-06,-0.003266014932011063
30,25.01,146.161,438.863,1.26754e-06,253.268,-0.0212934,-0.0367711,-0.000500305,0.00541433,-0.00378761,0.0102733,-7.17567e-07,-1.27625e-06,0.00567887,-0.0005001798683222924,0.010326251520051732,-7.17566742580722e-07,0.005429013974006525,-1.276249185555578e-06,-0.003780446052844
31,27.71,148.822,446.886,5.01605e-07,257.889,-0.0233509,-0.0403155,-0.000596277,0.00604775,-0.00430448,0.0115414,-8.61933e-07,-1.53506e-06,0.00664648,-0.0005960992621982797,0.011608258924602044,-8.619326284931006e-07,0.006066074562196766,-1.5350588218332462e-06,-0.004295229004300016
32,30.42,151.269,454.26,1.17096e-07,262.136,-0.0252009,-0.043501,-0.000692688,0.00668036,-0.00482177,0.0128088,-1.01144e-06,-1.80331e-06,0.00761731,-0.0006924481470516053,0.01289118404988443,-1.0114394884963573e-06,0.00670272337559652,-1.8033083740709444e-06,-0.004810163928462452
33,33.12,153.534,461.089,-7.87659e-08,266.069,-0.0268781,-0.0463882,-0.000789451,0.00731219,-0.00533933,0.0140755,-1.16554e-06,-2.08001e-06,0.0085907,-0.0007891394655450412,0.014175026262522428,-1.1655393207243847e-06,0.007338989342102753,-2.0800078367466668e-06,-0.005325101113080266
34,35.83,155.645,467.45,-1.78329e-07,269.733,-0.0284099,-0.049024,-0.000886502,0.00794328,-0.00585705,0.0153413,-1.32379e-06,-2.3643e-06,0.00956611,-0.0008861091731910964,0.015459581834472047,-1.3237891237638522e-06,0.007974911545852503,-2.3642972050152977e-06,-0.00583993092138857
35,38.53,157.622,473.409,-2.28133e-07,273.166,-0.0298173,-0.0514453,-0.000983789,0.00857363,-0.00637483,0.0166063,-1.48577e-06,-2.65543e-06,0.0105431,-0.0009833052382546281,0.016744951030102095,-1.4857688962477411e-06,0.008610488828370455,-2.65542647437389e-06,-0.006354553879721059
36,41.24,159.482,479.016,-2.52551e-07,276.396,-0.0311177,-0.0536817,-0.00108127,0.00920326,-0.00689261,0.0178703,-1.65115e-06,-2.95276e-06,0.0115215,-0.001080685638230161,0.01803092921520033,-1.6511486368164796e-06,0.009245740216130782,-2.952755640661664e-06,-0.006868910445550491
37,43.94,161.239,484.313,-2.64706e-07,279.447,-0.0323248,-0.0557574,-0.00117891,0.00983219,-0.00741032,0.0191333,-1.8196e-06,-3.25572e-06,0.0125008,-0.0011782153586058497,0.01931751458643438,-1.819598344554585e-06,0.009880684786439442,-3.2557147001677222e-06,-0.007382931273581472
38,46.65,162.905,489.335,-2.71788e-07,282.339,-0.0334501,-0.0576919,-0.00127668,0.0104604,-0.0079279,0.0203954,-1.99088e-06,-3.56382e-06,0.013481,-0.0012758653907906092,0.020604807396845004,-1.990878018220954e-06,0.010515301246761588,-3.563813649631875e-06,-0.007896557083323374
39,49.35,164.49,494.11,-2.77758e-07,285.089,-0.0345031,-0.0595018,-0.00137455,0.011088,-0.00844533,0.0216564,-2.16472e-06,-3.87661e-06,0.0144617,-0.0013736057388429312,0.02189260184272457,-2.164717657016091e-06,0.011149699703236537,-3.876602485908265e-06,-0.008409768380880589
40,52.06,166.0,498.663,-2.84776e-07,287.712,-0.0354918,-0.0612009,-0.00147251,0.0117148,-0.00896257,0.0229164,-2.34094e-06,-4.19372e-06,0.0154429,-0.001471426389091035,0.02318099804019602,-2.340937260036924e-06,0.011783687005874732,-4.193711206412765e-06,-0.008922525891503996
41,54.76,167.444,503.015,-2.93987e-07,290.219,-0.0364229,-0.0628008,-0.00157055,0.012341,-0.00947957,0.0241753,-2.51933e-06,-4.51479e-06,0.0164244,-0.001569317331755471,0.02446989172253433,-2.5193268264889213e-06,0.012417464365658937,-4.51477980834003e-06,-0.009434780516387575
42,57.47,168.828,507.184,-3.05949e-07,292.62,-0.0373022,-0.0643114,-0.00166863,0.0129666,-0.00999633,0.0254331,-2.69973e-06,-4.83951e-06,0.0174061,-0.0016672386109737314,0.025759280679066743,-2.699726355692711e-06,0.013051030890311344,-4.839498289554989e-06,-0.009946532761274551
43,60.17,170.156,511.186,-3.20885e-07,294.926,-0.0381347,-0.0657415,-0.00176676,0.0135915,-0.0105128,0.0266898,-2.88199e-06,-5.16762e-06,0.0183879,-0.0017652001982848553,0.027049162694702034,-2.8819858470807702e-06,0.01368428431894153,-5.1676066479267035e-06,-0.010457733654173795
44,62.88,171.433,515.035,-3.38829e-07,297.143,-0.0389246,-0.0670983,-0.00186491,0.0142157,-0.011029,0.0279454,-3.06597e-06,-5.49884e-06,0.0193697,-0.0018631721358338682,0.028339535549933847,-3.0659652998643594e-06,0.014317223569002557,-5.498824881433606e-06,-0.010968403556819828
45,65.58,172.663,518.742,-3.59707e-07,299.278,-0.0396758,-0.0683884,-0.00196309,0.0148392,-0.0115449,0.0291999,-3.25154e-06,-5.83297e-06,0.0203515,-0.0019611643990747885,0.029630397020845578,-3.2515347136996553e-06,0.014949847557931939,-5.832952988282791e-06,-0.011478513363286424
46,68.29,173.85,522.318,-3.83391e-07,301.338,-0.0403915,-0.0696175,-0.00206128,0.0154622,-0.0120605,0.0304533,-3.4386e-06,-6.16979e-06,0.0213331,-0.0020591570213157606,0.03092174487911392,-3.4385940880232724e-06,0.015582358319604861,-6.169770966901744e-06,-0.011988063668439186
47,70.99,174.996,525.774,-4.09726e-07,303.329,-0.0410746,-0.0707905,-0.00215947,0.0160845,-0.0125757,0.0317056,-3.62704e-06,-6.50912e-06,0.0223145,-0.00215714002213363,0.032213576892014206,-3.6270334222709977e-06,0.016214551907820285,-6.509098815721259e-06,-0.01249695631603509
48,73.7,176.105,529.117,-4.38547e-07,305.254,-0.0417277,-0.0719119,-0.00225766,0.0167061,-0.0130906,0.0329567,-3.81676e-06,-6.85078e-06,0.0232956,-0.0022551134024730857,0.03350578747183919,-3.8167527162125126e-06,0.016846427239793682,-6.850756533505198e-06,-0.013005290751296639
49,76.4,177.18,532.354,-4.69692e-07,307.119,-0.0423531,-0.0729857,-0.00235584,0.0173271,-0.0136051,0.0342067,-4.00768e-06,-7.19461e-06,0.0242765,-0.0023530671868093878,0.034798477469107914,-4.007671969286086e-06,0.01747808498053871,-7.194584118908054e-06,-0.01351296891779774
50,79.11,178.221,535.493,-5.03004e-07,308.928,-0.0429528,-0.0740152,-0.00245401,0.0179475,-0.0141193,0.0354556,-4.19973e-06,-7.54048e-06,0.025257,-0.0024510013790250973,0.036091644637773035,-4.19972118115286e-06,0.018109524236664454,-7.540451570697826e-06,-0.0140200901571359
51,81.81,179.232,538.54,-5.38337e-07,310.683,-0.0435286,-0.0750038,-0.00255215,0.0185672,-0.0146331,0.0367033,-4.39282e-06,-7.88824e-06,0.0262371,-0.0025488960339803413,0.03738518298887761,-4.392810351583343e-06,0.018740642240550276,-7.888208887862902e-06,-0.014526556512464706
52,84.52,180.215,541.501,-5.75555e-07,312.388,-0.0440822,-0.0759542,-0.00265027,0.0191863,-0.0151465,0.0379499,-4.58689e-06,-8.23778e-06,0.0272168,-0.0026467611349613174,0.03867919374732165,-4.586879480239503e-06,0.019371539846364305,-8.237746069617025e-06,-0.015032368725246048
53,87.22,181.17,544.38,-6.14531e-07,314.047,-0.044615,-0.0768689,-0.00274836,0.0198048,-0.0156595,0.0391953,-4.78187e-06,-8.58898e-06,0.0281961,-0.0027445867162275706,0.03997357065641527,-4.781858566893504e-06,0.020002216160304176,-8.588943114840042e-06,-0.01553752753577653
54,89.93,182.1,547.182,-6.55152e-07,315.661,-0.0451285,-0.0777504,-0.00284642,0.0204227,-0.0161721,0.0404396,-4.97772e-06,-8.94175e-06,0.0291749,-0.0028423727875246385,0.0412684151908449,-4.97770761120897e-06,0.020632670288413646,-8.941710022636329e-06,-0.016042033683189127
55,92.63,183.005,549.912,-6.97314e-07,317.233,-0.0456238,-0.0786006,-0.00294445,0.02104,-0.0166843,0.0416827,-5.17437e-06,-9.29597e-06,0.0301532,-0.002940119358593729,0.04256362082604115,-5.174356612958064e-06,0.021262901336582596,-9.295926792551867e-06,-0.016545887905454748
56,95.34,183.888,552.573,-7.4092e-07,318.766,-0.046102,-0.0794216,-0.00304243,0.0216566,-0.0171962,0.0429247,-5.37178e-06,-9.65156e-06,0.031131,-0.0030378064999280197,0.04385928928666716,-5.3717655720264545e-06,0.02189280622126555,-9.651513423802882e-06,-0.017049189234470408
57,98.04,184.75,555.169,-7.85886e-07,320.261,-0.0465642,-0.080215,-0.00314038,0.0222726,-0.0177076,0.0441655,-5.5699e-06,-1.00084e-05,0.0321082,-0.0031354541644086353,0.04515531378013127,-5.5698844881879594e-06,0.022522486111392626,-1.00083499161574e-05,-0.017551741765461037
58,100.7,185.59,557.703,-8.32132e-07,321.721,-0.0470113,-0.0809825,-0.00323828,0.022888,-0.0182186,0.0454052,-5.76868e-06,-1.03665e-05,0.0330849,-0.0032330424264226387,0.04645179628126073,-5.768663361216397e-06,0.023151940112476233,-1.0366446268061935e-05,-0.018053644578328698
59,103.5,186.412,560.178,-8.79588e-07,323.147,-0.0474442,-0.0817255,-0.00333613,0.0235028,-0.0187292,0.0466437,-5.96809e-06,-1.07257e-05,0.034061,-0.003330571301543239,0.04774862972930194,-5.968072190998264e-06,0.023781167329884667,-1.0725642479836317e-05,-0.018554898406414444
60,106.2,187.214,562.597,-9.28187e-07,324.54,-0.0478636,-0.0824454,-0.00343394,0.024117,-0.0192393,0.047881,-6.16809e-06,-1.1086e-05,0.0350365,-0.003428050771053126,0.0490458114448451,-6.168070977419227e-06,0.024410166868843453,-1.1085938550481345e-05,-0.019055405887451582
61,108.9,187.999,564.963,-9.7787e-07,325.903,-0.0482702,-0.0831435,-0.0035317,0.0247306,-0.0197491,0.0491172,-6.36864e-06,-1.14473e-05,0.0360114,-0.003525470882836945,0.050343443778245955,-6.368619720253932e-06,0.025038937834438224,-1.1447234479877721e-05,-0.019555363991381358
62,111.6,188.768,567.278,-1.02858e-06,327.237,-0.0486648,-0.0838209,-0.0036294,0.0253435,-0.0202584,0.0503523,-6.56971e-06,-1.18095e-05,0.0369856,-0.0036228216886674547,0.051641524430348085,-6.569688419499897e-06,0.025667376764874517,-1.1809430268128196e-05,-0.02005457730903859
63,114.3,189.52,569.545,-1.08028e-06,328.542,-0.0490479,-0.0844786,-0.00372705,0.0259559,-0.0207673,0.0515862,-6.77126e-06,-1.21726e-05,0.0379592,-0.0037201131697958134,0.05293994580367056,-6.771237075042791e-06,0.026295687835619086,-1.2172525914233567e-05,-0.020553144663422618
64,117.0,190.256,571.765,-1.13291e-06,329.821,-0.0494202,-0.0851177,-0.00382464,0.0265676,-0.0212758,0.0528189,-6.97327e-06,-1.25365e-05,0.0389322,-0.0038173353799164644,0.05423870520075624,-6.9732456867699355e-06,0.0269236649550888,-1.2536421418407606e-05,-0.02105106678193369
65,119.7,190.978,573.94,-1.18643e-06,331.074,-0.0497821,-0.0857391,-0.00392217,0.0271788,-0.0217838,0.0540505,-7.17571e-06,-1.29012e-05,0.0399045,-0.003914488337456001,0.05553790547338622,-7.175684254678849e-06,0.027551512549788937,-1.2901116779873156e-05,-0.021548246545656458
66,122.4,191.686,576.073,-1.24081e-06,332.303,-0.0501341,-0.0863436,-0.00401965,0.0277894,-0.0222914,0.0552809,-7.37856e-06,-1.32667e-05,0.0408761,-0.004011582020709836,0.05683743862112811,-7.378532778545832e-06,0.028179127094573042,-1.326661199774204e-05,-0.022044782624191628
67,125.1,192.38,578.165,-1.29601e-06,333.508,-0.0504768,-0.086932,-0.00411707,0.0283993,-0.0227986,0.0565102,-7.58178e-06,-1.36328e-05,0.041847,-0.0041086064862509986,0.05813740774674092,-7.581751258367575e-06,0.028806404813083608,-1.3632707073774064e-05,-0.02254067574131946
68,127.8,193.061,580.218,-1.352e-06,334.69,-0.0508106,-0.0875051,-0.00421442,0.0290087,-0.0233054,0.0577383,-7.78536e-06,-1.39996e-05,0.0428173,-0.004205551794519979,0.05943770458103681,-7.78532969414325e-06,0.0294335505080614,-1.3999502006090125e-05,-0.023035926619680902
69,130.5,193.729,582.233,-1.40875e-06,335.851,-0.0511358,-0.0880636,-0.00431171,0.0296175,-0.0238117,0.0589652,-7.98927e-06,-1.43669e-05,0.0437868,-0.0043024279237703356,0.06073832640409438,-7.989238085870376e-06,0.030060460465638927,-1.4366796796561054e-05,-0.023530438333829173
70,133.2,194.386,584.211,-1.46622e-06,336.99,-0.0514529,-0.0886081,-0.00440894,0.0302256,-0.0243176,0.0601911,-8.19349e-06,-1.47349e-05,0.0447557,-0.004399234892356496,0.06203948289935557,-8.193456433436275e-06,0.030687030721026076,-1.473479144187273e-05,-0.024024309349869544
71,135.9,195.031,586.155,-1.5244e-06,338.11,-0.0517622,-0.0891392,-0.00450611,0.0308332,-0.024823,0.0614157,-8.39801e-06,-1.51033e-05,0.0457238,-0.004495972718618235,0.0633408531164652,-8.39797473684012e-06,0.031313466452795424,-1.5103185945775088e-05,-0.024517442838594805
72,138.6,195.664,588.065,-1.58327e-06,339.21,-0.0520639,-0.0896575,-0.00460321,0.0314402,-0.025328,0.0626392,-8.6028e-06,-1.54723e-05,0.0466912,-0.004592631466809105,0.06464264686018217,-8.602762995968405e-06,0.03193966375858781,-1.547218030462094e-05,-0.025009937164677476
73,141.3,196.287,589.942,-1.64279e-06,340.292,-0.0523586,-0.0901636,-0.00470024,0.0320466,-0.0258325,0.0638616,-8.80784e-06,-1.58417e-05,0.0476578,-0.004689211158138362,0.06594486178331116,-8.807801211041522e-06,0.032565621741970086,-1.5841574520947255e-05,-0.025501695594883467
74,144.0,196.9,591.788,-1.70294e-06,341.355,-0.0526464,-0.0906579,-0.00479721,0.0326524,-0.0263366,0.0650828,-9.01313e-06,-1.62115e-05,0.0486238,-0.004785721765939943,0.06724738880964831,-9.013089381837425e-06,0.033191339506395856,-1.621136859430994e-05,-0.025992816392736873
75,146.7,197.502,593.604,-1.76372e-06,342.401,-0.0529276,-0.0911409,-0.00489411,0.0332577,-0.0268403,0.0663029,-9.21863e-06,-1.65818e-05,0.049589,-0.004882153357314789,0.0685503320476224,-9.21858750857485e-06,0.03381691953689492,-1.6581662522718865e-05,-0.026483300272384547
76,149.4,198.095,595.391,-1.8251e-06,343.43,-0.0532024,-0.0916132,-0.00499094,0.0338623,-0.0273436,0.0675219,-9.42434e-06,-1.69524e-05,0.0505534,-0.004978505953418977,0.06985368913713996,-9.42429559103175e-06,0.03444215423585062,-1.6952256308933045e-05,-0.026973147946850018
77,152.1,198.679,597.149,-1.88706e-06,344.443,-0.0534713,-0.092075,-0.0050877,0.0344664,-0.0278463,0.0687396,-9.63025e-06,-1.73234e-05,0.0515171,-0.005074779575390154,0.07115724348239016,-9.630203629318324e-06,0.0350672495322486,-1.7323249950740305e-05,-0.027462165620486534
78,154.8,199.253,598.881,-1.94959e-06,345.44,-0.0537342,-0.0925268,-0.00518439,0.0350698,-0.0283487,0.0699563,-9.83633e-06,-1.76947e-05,0.05248,-0.005170974244346649,0.07246131367075992,-9.836281623432086e-06,0.03569199757814667,-1.7694543449686684e-05,-0.027950645911955063
79,157.6,199.818,600.585,-2.01268e-06,346.422,-0.0539916,-0.0929691,-0.00528101,0.0356727,-0.0288506,0.0711718,-1.00426e-05,-1.80663e-05,0.0534422,-0.005267089981389028,0.07376568296737251,-1.004254957326367e-05,0.03631660455233887,-1.8066136805439115e-05,-0.028438395071881173
80,160.3,200.376,602.264,-2.0763e-06,347.389,-0.0542435,-0.0934021,-0.00537756,0.036275,-0.029352,0.0723862,-1.0249e-05,-1.84382e-05,0.0544037,-0.0053631268075988725,0.07507045611066787,-1.024894747914118e-05,0.03694096605085151,-1.8438030017442486e-05,-0.02892541395475523
81,163.0,200.924,603.919,-2.14045e-06,348.342,-0.0544903,-0.0938262,-0.00547404,0.0368768,-0.0298531,0.0735994,-1.04555e-05,-1.88104e-05,0.0553643,-0.005459084744039333,0.07637552308157347,-1.0455445341395198e-05,0.03756518493284333,-1.8810223085585775e-05,-0.029411897531182674
82,165.7,201.465,605.549,-2.20512e-06,349.281,-0.054732,-0.0942416,-0.00557045,0.0374779,-0.0303536,0.0748115,-1.06622e-05,-1.91827e-05,0.0563242,-0.005554963811754354,0.07768098887081121,-1.0662143158923776e-05,0.03818905285022445,-1.9182516013183104e-05,-0.029897555330466008
83,168.4,201.998,607.156,-2.27029e-06,350.206,-0.0549689,-0.0946489,-0.00566679,0.0380785,-0.0308538,0.0760225,-1.0869e-05,-1.95553e-05,0.0572834,-0.005650764031770117,0.07898685108831716,-1.0868940932606819e-05,0.03881277648082326,-1.955510879636524e-05,-0.03038267923368665
84,171.1,202.524,608.74,-2.33596e-06,351.119,-0.0552012,-0.0950481,-0.00576305,0.0386785,-0.0313534,0.0772323,-1.10759e-05,-1.99281e-05,0.0582417,-0.005746475482558466,0.08029299931051503,-1.1075838662444326e-05,0.03943625117041427,-1.992790143667822e-05,-0.030866979058971622
85,173.8,203.042,610.302,-2.4021e-06,352.019,-0.0554289,-0.0954397,-0.00585924,0.039278,-0.0318527,0.0784411,-1.12829e-05,-2.03011e-05,0.0591993,-0.0058421081295558785,0.08159964706687961,-1.1282836348325276e-05,0.040059580027147046,-2.0300893934011022e-05,-0.03135074639376212
86,176.5,203.553,611.843,-2.46872e-06,352.906,-0.0556523,-0.0958238,-0.00595536,0.0398768,-0.0323515,0.0796486,-1.149e-05,-2.06743e-05,0.0601561,-0.005937661993730137,0.08290646747474928,-1.1489933990249668e-05,0.04068255420352118,-2.0674086288141602e-05,-0.03183378816082916
87,179.2,204.058,613.363,-2.5358e-06,353.782,-0.0558715,-0.0962007,-0.0060514,0.0404751,-0.0328498,0.0808551,-1.16971e-05,-2.10475e-05,0.0611121,-0.006033127156361728,0.08421378260702905,-1.1697031589208429e-05,0.04130538087572111,-2.1047278502939193e-05,-0.03231610520491701
88,181.9,204.555,614.863,-2.60334e-06,354.646,-0.0560866,-0.0965707,-0.00614737,0.0410728,-0.0333477,0.0820604,-1.19044e-05,-2.14209e-05,0.0620674,-0.006128513579957917,0.08552137334046073,-1.1904329142886638e-05,0.04192795513965519,-2.1420670574201495e-05,-0.03279779508948755
89,184.6,205.046,616.344,-2.67133e-06,355.499,-0.0562978,-0.0969339,-0.00624326,0.04167,-0.0338452,0.0832646,-1.21117e-05,-2.17945e-05,0.0630218,-0.006223811347666031,0.08682934555024757,-1.2111626653710239e-05,0.042550380352133876,-2.179426250159544e-05,-0.03327885851198209
90,187.3,205.531,617.805,-2.73975e-06,356.34,-0.0565052,-0.0972907,-0.00633908,0.0422666,-0.0343422,0.0844677,-1.2319e-05,-2.21681e-05,0.0639755,-0.006319030420044114,0.0881376968167693,-1.2318924121457187e-05,0.04317255148424648,-2.2167854289434352e-05,-0.03375919954466744
91,190.0,206.01,619.248,-2.80861e-06,357.171,-0.056709,-0.0976412,-0.00643483,0.0428626,-0.0348388,0.0856697,-1.25264e-05,-2.25418e-05,0.0649284,-0.006414170817962361,0.08944642471623943,-1.2526321545025532e-05,0.04379446763753547,-2.2541545935506058e-05,-0.034238915602818
92,192.7,206.483,620.673,-2.8779e-06,357.992,-0.0569092,-0.0979856,-0.0065305,0.0434581,-0.0353349,0.0868705,-1.27339e-05,-2.29156e-05,0.0658805,-0.006509222627364197,0.09075541774516438,-1.273381892419323e-05,0.04441623235508385,-2.2915337439588512e-05,-0.03471791085219156
93,195.4,206.949,622.08,-2.9476e-06,358.802,-0.0571059,-0.0983242,-0.00662609,0.0440529,-0.0358306,0.0880703,-1.29413e-05,-2.32895e-05,0.0668318,-0.006604185871932677,0.09206489149159092,-1.294121626171929e-05,0.04503763591718757,-2.3289228801681716e-05,-0.03519628260954677
94,198.1,207.41,623.47,-3.01772e-06,359.603,-0.0572993,-0.098657,-0.00672161,0.0446473,-0.0363259,0.0892689,-1.31488e-05,-2.36634e-05,0.0677823,-0.006699070508335847,0.093374625237165,-1.3148713554955727e-05,0.04565899093639425,-2.366312002399784e-05,-0.035674031566474085
95,200.8,207.866,624.843,-3.08824e-06,360.394,-0.0574895,-0.0989843,-0.00681706,0.045241,-0.0368207,0.0904664,-1.33564e-05,-2.40373e-05,0.068732,-0.006793876557365186,0.09468472561693142,-1.3356310803680493e-05,0.046279983002567526,-2.4037011106425865e-05,-0.03615106202858631
96,203.5,208.316,626.2,-3.15916e-06,361.175,-0.0576765,-0.0993062,-0.00691242,0.0458342,-0.037315,0.0916627,-1.35639e-05,-2.44113e-05,0.0696809,-0.006888584177565549,0.09599508058673756,-1.3563808010763623e-05,0.046900820410654465,-2.4411002046642594e-05,-0.036627374828218984
97,206.2,208.761,627.541,-3.23048e-06,361.948,-0.0578605,-0.0996229,-0.00700772,0.0464269,-0.0378089,0.092858,-1.37714e-05,-2.47853e-05,0.070629,-0.0069832231858729665,0.09730590676575956,-1.3771305174659076e-05,0.047521502447863684,-2.478499284697122e-05,-0.03710306708591826
98,208.9,209.201,628.866,-3.30219e-06,362.711,-0.0580415,-0.0999346,-0.00710293,0.047019,-0.0383024,0.0940522,-1.3979e-05,-2.51593e-05,0.0715764,-0.0070777638125157916,0.09861709223263637,-1.3978902294264905e-05,0.04814192358701552,-2.5158983507411747e-05,-0.037578139488554374
99,211.7,209.635,630.176,-3.37429e-06,363.466,-0.0582197,-0.100241,-0.00719807,0.0476105,-0.0387954,0.0952453,-1.41865e-05,-2.55333e-05,0.0725229,-0.0071722259404316535,0.0999286345303565,-1.4186399372118075e-05,0.048762082928861306,-2.5532974028075195e-05,-0.0380524965271688
100,214.4,210.065,631.472,-3.44677e-06,364.212,-0.0583951,-0.100543,-0.00729313,0.0482015,-0.039288,0.0964372,-1.4394e-05,-2.59072e-05,0.0734687,-0.007266599662979822,0.10124042107374742,-1.439389640689459e-05,0.04938208451229387,-2.590686441139578e-05,-0.03852623517597076
101,217.1,210.49,632.753,-3.51963e-06,364.949,-0.0585678,-0.100841,-0.00738812,0.0487919,-0.0397802,0.0976281,-1.46015e-05,-2.62812e-05,0.0744136,-0.007360894930053097,0.10255266951444764,-1.4601393398594453e-05,0.05000182262367825,-2.6280854652283026e-05,-0.03899935611840166
102,219.8,210.91,634.019,-3.59286e-06,365.679,-0.0587378,-0.101134,-0.00748303,0.0493818,-0.0402719,0.0988178,-1.4809e-05,-2.66551e-05,0.0753578,-0.007455101836855937,0.10386515700374543,-1.4808890347328685e-05,0.05062140142564475,-2.665474475593843e-05,-0.03947176398400687
103,222.5,211.326,635.272,-3.66646e-06,366.401,-0.0589054,-0.101423,-0.00757786,0.0499711,-0.0407632,0.100006,-1.50165e-05,-2.7029e-05,0.0763011,-0.0075492204068461355,0.10517754912104915,-1.501638725287524e-05,0.05124071508035066,-2.7028634719816758e-05,-0.03994355560126073
104,225.2,211.737,636.512,-3.74042e-06,367.115,-0.0590704,-0.101707,-0.00767261,0.0505598,-0.041254,0.101194,-1.5224e-05,-2.74028e-05,0.0772437,-0.007643250663458834,0.1064912802511857,-1.5223884115456165e-05,0.05185976268810322,-2.740242454668529e-05,-0.04041463569166104
105,227.9,212.144,637.738,-3.81475e-06,367.821,-0.0592331,-0.101987,-0.00776729,0.0511481,-0.0417444,0.102381,-1.54314e-05,-2.77766e-05,0.0781854,-0.00773720255273358,0.10780546521531642,-1.5431280936506475e-05,0.05247875384488898,-2.777621423377674e-05,-0.04088510098679887
106,230.6,212.546,638.952,-3.88944e-06,368.52,-0.0593934,-0.102264,-0.00786189,0.0517357,-0.0422343,0.103566,-1.56387e-05,-2.81503e-05,0.0791264,-0.00783106617355267,0.10911899280298476,-1.5638577716137192e-05,0.05309737209289023,-2.814990378396942e-05,-0.04135485629986635
107,233.3,212.944,640.152,-3.96448e-06,369.211,-0.0595514,-0.102536,-0.00795641,0.0523228,-0.0427238,0.10475,-1.58461e-05,-2.8524e-05,0.0800665,-0.007924841549283856,0.1104329674099307,-1.584597445125624e-05,0.05371582708974576,-2.8523593194607066e-05,-0.04182399826584382
108,236.0,213.339,641.341,-4.03987e-06,369.896,-0.0597072,-0.102805,-0.00805086,0.0529094,-0.0432129,0.105933,-1.60534e-05,-2.88976e-05,0.0810059,-0.008018538623085658,0.1117473869362331,-1.6053271144844672e-05,0.05433411812094624,-2.889718246834594e-05,-0.042292527560112814
109,238.7,213.729,642.517,-4.11562e-06,370.573,-0.0598609,-0.10307,-0.00814522,0.0534954,-0.0437015,0.107115,-1.62606e-05,-2.92711e-05,0.0819444,-0.008112137577713008,0.11306224927815078,-1.6260467797124534e-05,0.05495213897659035,-2.9270671605519105e-05,-0.04276034913303006
110,241.4,214.115,643.682,-4.19171e-06,371.244,-0.0600125,-0.103331,-0.00823952,0.0540809,-0.0441897,0.108296,-1.64678e-05,-2.96445e-05,0.0828822,-0.008205668193101534,0.11437755232812119,-1.6467664406549787e-05,0.05556999431346066,-2.9644060606126565e-05,-0.043227559475259025
111,244.1,214.497,644.834,-4.26814e-06,371.908,-0.060162,-0.103589,-0.00833373,0.0546658,-0.0446775,0.109476,-1.66749e-05,-3.00178e-05,0.0838191,-0.008299100735892018,0.11569329397477035,-1.667476097466647e-05,0.05618757779781802,-3.0017349470390364e-05,-0.0436941592588076
112,246.8,214.876,645.976,-4.34492e-06,372.565,-0.0603096,-0.103843,-0.00842786,0.0552502,-0.0451648,0.110655,-1.6882e-05,-3.0391e-05,0.0847553,-0.008392445148216132,0.1170094721029109,-1.688185749981752e-05,0.056804994209786575,-3.039053819819948e-05,-0.04416005357063224
113,249.5,215.251,647.106,-4.42203e-06,373.216,-0.0604552,-0.104095,-0.00852192,0.0558341,-0.0456517,0.111833,-1.7089e-05,-3.07641e-05,0.0856906,-0.008485711368446336,0.11832608459355187,-1.7088853983882046e-05,0.057422242834104464,-3.076362678988698e-05,-0.044625338757677824
114,252.2,215.622,648.226,-4.49948e-06,373.861,-0.0605989,-0.104343,-0.0086159,0.0564174,-0.0461382,0.11301,-1.7296e-05,-3.11371e-05,0.0866252,-0.00857888950278285,0.11964312932389709,-1.7295850425091963e-05,0.058039217151416134,-3.113661524556388e-05,-0.04509001548859226
115,254.9,215.99,649.334,-4.57727e-06,374.499,-0.0607408,-0.104587,-0.0087098,0.0570001,-0.0466242,0.114185,-1.75029e-05,-3.151e-05,0.087559,-0.008671979574411348,0.1209594832073102,-1.750274682510433e-05,0.05865591626108646,-3.150950356511917e-05,-0.04555398898637253
116,257.6,216.354,650.432,-4.65539e-06,375.132,-0.060881,-0.104829,-0.00880363,0.0575824,-0.0471098,0.11536,-1.77097e-05,-3.18827e-05,0.0884919,-0.008764991518844245,0.12227738471558736,-1.7709543184141197e-05,0.05927255111693985,-3.188219175209728e-05,-0.04601735545483676
117,260.3,216.715,651.52,-4.73384e-06,375.759,-0.0610194,-0.105068,-0.00889737,0.058164,-0.0475949,0.116533,-1.79164e-05,-3.22554e-05,0.0894241,-0.008857905533591337,0.12359458847683347,-1.791623950231358e-05,0.059888803221410436,-3.225487980018649e-05,-0.04648002020729691
118,263.0,217.073,652.598,-4.81262e-06,376.379,-0.061156,-0.105304,-0.00899104,0.0587452,-0.0480797,0.117706,-1.81231e-05,-3.26279e-05,0.0903554,-0.008950741465541201,0.1249133382246348,-1.8122935777631355e-05,0.060504989640270734,-3.262736771580954e-05,-0.046942174658210045
119,265.8,217.427,653.666,-4.89172e-06,376.994,-0.0612911,-0.105537,-0.00908463,0.0593258,-0.0485639,0.118877,-1.83297e-05,-3.30002e-05,0.091286,-0.009043489425438977,0.12623138330847938,-1.832953201208465e-05,0.06112089761804018,-3.299965549941053e-05,-0.04740353355323812
120,268.5,217.778,654.724,-4.97115e-06,377.604,-0.0614245,-0.105768,-0.00917815,0.0599059,-0.0490478,0.120047,-1.85362e-05,-3.33725e-05,0.0922158,-0.009136159344994899,0.12754984517673984,-1.853602820567346e-05,0.06173663242736249,-3.337194314434466e-05,-0.047864383471721395
121,270.5,218.041,655.518,-5.19466e-06,378.061,-0.0615241,-0.10594,-0.00924875,0.0603438,-0.0494131,0.120931,-1.86922e-05,-3.36535e-05,0.0929177,-0.009206111862792188,0.12854703993502037,-1.869202530191405e-05,0.062201668710965885,-3.365293372736833e-05,-0.048212135091738606
