,Time,S11,S22,S33,S12,S13,S23,LE11,LE22,LE33,LE12,LE13,LE23,SDV_EPBAR,E11,E12,E13,E22,E23,E33
0,0.0002705,0.000519365,0.0015581,-7.79048e-12,0.000899567,2.21372e-21,3.68811e-20,2.50301e-10,6.7501e-09,-3.0004e-09,1.1258e-08,2.76762e-26,4.61603e-25,0.0,2.5030089112476617e-10,1.1258000087721598e-08,0.0,6.750100034480511e-09,0.0,-3.0004000395322805e-09
1,0.000541,0.00103873,0.00311619,4.33681e-19,0.00179913,-3.08331e-20,-2.03577e-20,5.00425e-10,1.35001e-08,-6.00057e-09,2.25162e-08,-1.63975e-24,4.6912e-25,0.0,5.00425034744012e-10,2.2516200237632233e-08,0.0,1.3500100148888805e-08,0.0,-6.000569929831556e-09
2,0.00094675,0.00181778,0.00545333,6.50521e-19,0.00314848,1.87371e-20,6.55005e-20,8.75688e-10,2.36252e-08,-1.05009e-08,3.94034e-08,-1.73568e-24,1.95724e-24,0.0,8.756879665838824e-10,3.9403400764470575e-08,0.0,2.3625200240573463e-08,0.0,-1.0500899927379237e-08
3,0.0015554,0.00298635,0.00895905,1.73472e-18,0.00517251,4.73565e-20,4.89771e-20,1.4375e-09,3.88125e-08,-1.725e-08,6.47354e-08,4.1359e-25,7.16359e-25,0.0,1.4374998968946784e-09,6.473540214990692e-08,0.0,3.8812500768869995e-08,0.0,-1.7249999872959165e-08
4,0.0024683,0.00473921,0.0142176,0.0,0.00820854,1.00168e-19,-5.78319e-20,2.28125e-09,6.15937e-08,-2.7375e-08,1.02732e-07,-7.41318e-35,-1.284e-34,0.0,2.281250077729169e-09,1.027320053470504e-07,0.0,6.159370191660685e-08,0.0,-2.7374999600482397e-08
5,0.0038377,0.00736849,0.0221055,-8.67362e-19,0.0127626,9.88226e-21,-8.20239e-20,3.54688e-09,9.57656e-08,-4.25625e-08,1.59728e-07,7.653e-32,1.32554e-31,0.0,3.5468799008953056e-09,1.597280128162737e-07,0.0,9.576560455748506e-08,0.0,-4.256249908074494e-08
6,0.0058918,0.0113124,0.0339373,-6.07153e-18,0.0195937,-4.73565e-20,-4.89771e-20,5.44671e-09,1.47024e-07,-6.53456e-08,2.45219e-07,-1.14621e-23,6.61761e-24,0.0,5.446709971934638e-09,2.452190299706558e-07,0.0,1.4702401074373483e-07,0.0,-6.534559782167548e-08
7,0.008973,0.0172283,0.0516849,7.80626e-18,0.0298403,6.7121e-20,-1.15071e-19,8.29297e-09,2.2391e-07,-9.95156e-08,3.7346e-07,1.78232e-31,3.08708e-31,0.0,8.292970088419338e-09,3.734600697580248e-07,0.0,2.2391002496569e-07,0.0,-9.951559509779884e-08
8,0.013595,0.0261021,0.0783064,9.54098e-18,0.0452102,-1.3116e-19,-4.58503e-19,1.25671e-08,3.39241e-07,-1.50777e-07,5.65816e-07,2.77687e-23,-3.13146e-23,0.0,1.2567100027283118e-08,5.658161601473921e-07,0.0,3.392410574676319e-07,0.0,-1.5077698867216327e-07
9,0.020527,0.0394129,0.118239,6.07153e-18,0.0682651,-4.56883e-19,3.48265e-20,1.89735e-08,5.12236e-07,-2.27663e-07,8.54355e-07,1.1462e-23,-6.61759e-24,0.0,1.8973500104380037e-08,8.543553648987512e-07,0.0,5.122361312892565e-07,0.0,-2.276629741393421e-07
10,0.030926,0.059379,0.178137,-8.67362e-19,0.102847,-1.54031e-18,-2.55477e-19,2.8587e-08,7.71729e-07,-3.42996e-07,1.28716e-06,-2.95414e-23,1.77334e-24,0.0,2.858700032248862e-08,1.2871608283671065e-06,0.0,7.717292977993395e-07,0.0,-3.429959412049044e-07
11,0.046525,0.0893282,0.267985,-4.94396e-17,0.154721,-5.5365e-19,3.95969e-19,4.30043e-08,1.16097e-06,-5.15992e-07,1.93637e-06,-9.16942e-23,5.29396e-23,0.0,4.300430100911967e-08,1.9363718748444114e-06,0.0,1.1609706738191505e-06,0.0,-5.159918669006558e-07
12,0.069922,0.134252,0.402756,-2.1684e-17,0.232531,2.20493e-19,-2.49317e-18,6.46307e-08,1.74483e-06,-7.75487e-07,2.91018e-06,-5.29397e-23,-9.16942e-23,0.0,6.463070212348043e-08,2.910184234483637e-06,0.0,1.744831522154655e-06,0.0,-7.754866993003873e-07
13,0.105,0.201637,0.604912,1.99493e-17,0.349246,-1.22407e-18,-2.88023e-18,9.70596e-08,2.62061e-06,-1.16471e-06,4.37091e-06,-1.05879e-22,-1.83388e-22,0.0,9.705960479777787e-08,4.370919552521002e-06,0.0,2.62061343381248e-06,0.0,-1.1647093217659332e-06
14,0.1577,0.302715,0.908146,-9.1073e-17,0.524319,2.72256e-18,-2.74454e-19,1.45719e-07,3.93429e-06,-1.74858e-06,6.56199e-06,1.03982e-22,-2.43423e-22,0.0,1.4571901063575865e-07,6.562011529931411e-06,0.0,3.934297739371928e-06,0.0,-1.748578471238993e-06
15,0.2366,0.454332,1.363,-7.80626e-18,0.786926,-1.38381e-17,-7.8084e-18,2.18705e-07,5.90479e-06,-2.62436e-06,9.8486e-06,-2.11758e-22,-3.66776e-22,0.0,2.1870502386889257e-07,9.848648497623458e-06,0.0,5.904807433232406e-06,0.0,-2.624356556402141e-06
16,0.3551,0.681756,2.04527,4.77049e-17,1.18084,-5.94481e-18,-2.59681e-18,3.28182e-07,8.86055e-06,-3.93804e-06,1.47785e-05,5.57568e-28,9.65736e-28,0.0,3.281820537548441e-07,1.4778609202625859e-05,0.0,8.860589254755524e-06,0.0,-3.938032245964784e-06
17,0.5328,1.02289,3.06867,7.13839e-16,1.7717,-5.94479e-18,-2.59677e-18,4.92389e-07,1.32942e-05,-5.90853e-06,2.21733e-05,8.36561e-28,1.44897e-27,0.0,4.923891212538223e-07,2.2173545829451413e-05,0.0,1.3294288368159712e-05,0.0,-5.908512544672284e-06
18,0.7993,1.53459,4.60377,-2.85362e-16,2.65799,-3.98145e-18,-3.30361e-17,7.38697e-07,1.99445e-05,-8.86424e-06,3.32654e-05,7.35553e-27,1.27402e-26,0.0,7.38697272906208e-07,3.326595329955495e-05,0.0,1.9944698892881974e-05,0.0,-8.864200712777048e-06
19,1.199,2.30213,6.90638,-1.61763e-15,3.9874,2.21215e-18,-5.61484e-17,1.10814e-06,2.99199e-05,-1.32977e-05,4.99034e-05,-4.23505e-22,-7.33532e-22,0.0,1.1081406139368255e-06,4.990464519538662e-05,0.0,2.992034760462836e-05,0.0,-1.3297611585971758e-05
20,1.799,3.45341,10.3602,-3.17194e-15,5.98148,6.53581e-17,-1.44564e-17,1.66234e-06,4.48827e-05,-1.99479e-05,7.48599e-05,-1.09041e-26,-1.88864e-26,0.0,1.6623413816585497e-06,7.486270207235357e-05,0.0,4.4883707243537074e-05,0.0,-1.994770104196686e-05
21,2.698,5.18029,15.5409,-2.8485e-14,8.97252,-6.87866e-17,2.39178e-17,2.49357e-06,6.73263e-05,-2.99228e-05,0.000112294,-4.23518e-22,-7.33555e-22,0.0,2.4935731088859825e-06,0.00011230030520725798,0.0,6.732856646629592e-05,0.0,-2.9922352317468537e-05
22,4.047,31.1929,93.5787,-1.03264e-09,54.0277,-8.08225e-16,-1.7395e-16,1.5015e-05,0.000405403,-0.000180179,0.000676171,-3.02527e-20,1.82072e-21,0.0,1.5015112725613733e-05,0.0006763996551444329,0.0,0.00040548518690219915,0.0,-0.00018016276873877857
23,6.071,70.3658,211.097,-9.04826e-07,121.877,1.29847e-16,-7.14917e-16,3.38711e-05,0.000914519,-0.000406453,0.00152533,-2.03309e-20,-3.52142e-20,0.0,3.3871673632113186e-05,0.0015264939075101402,0.0,0.0009149373000056915,0.0,-0.00040637040916957634
24,8.776,120.992,363.01,0.000465213,209.575,-0.000724613,-0.00125467,5.55089e-05,0.00159314,-0.000716734,0.0026635,-9.22811e-09,-1.59911e-08,3.28457e-05,5.5510440647443815e-05,0.0026670502674710495,-9.228109942860385e-09,0.0015944097217219788,-1.59910998887014e-08,-0.0007164772075409775
25,11.48,126.926,381.014,7.13387e-05,219.91,-0.0127682,-0.0220866,-1.61309e-05,0.00223682,-0.00124269,0.00391369,-2.31162e-07,-4.05676e-07,0.000939431,-1.6130769897704234e-05,0.003921358485469373,-2.311619732298098e-07,0.0022393235481703577,-4.056759177473168e-07,-0.0012419181805257695
26,14.19,131.799,395.804,8.05421e-05,228.4,-0.0226399,-0.0391447,-8.99525e-05,0.00287907,-0.00177326,0.0051653,-4.78824e-07,-8.43865e-07,0.00186592,-8.994845439513899e-05,0.005178663160381847,-4.788238853192794e-07,0.002883218502353291,-8.438646439401509e-07,-0.001771688703395724
27,16.89,135.946,408.39,3.26856e-05,235.625,-0.0308513,-0.0533226,-0.000165248,0.00352015,-0.00230682,0.00641746,-7.47832e-07,-1.32217e-06,0.00280573,-0.0001652343473012019,0.006438096016411432,-7.478317203268858e-07,0.003526353004377647,-1.3221691259612811e-06,-0.0023041613354901624
28,19.6,139.565,419.369,1.44159e-05,241.928,-0.0378324,-0.0653683,-0.000241603,0.0041602,-0.0028424,0.00766968,-1.0357e-06,-1.83568e-06,0.00375498,-0.00024157381634548614,0.007699167333582002,-1.0356994636362415e-06,0.004168865644791131,-1.8356783151318723e-06,-0.0028383642058059655
29,22.3,142.78,429.123,6.59322e-06,247.528,-0.0438738,-0.0757867,-0.000318752,0.00479932,-0.00337941,0.00892165,-1.3402e-06,-2.38008e-06,0.00471118,-0.0003187012039785886,0.008961566538181254,-1.3401991019179604e-06,0.004810855182525886,-2.3800771675741572e-06,-0.0033737062209709956
30,25.01,145.677,437.911,2.92714e-06,252.574,-0.0491775,-0.0849284,-0.000396512,0.00543758,-0.00391741,0.0101731,-1.65938e-06,-2.95164e-06,0.00567265,-0.0003964333995060132,0.010225021901338227,-1.6593786231755558e-06,0.00545239047033208,-2.951635643899664e-06,-0.00390974695913604
31,27.71,148.316,445.916,1.09675e-06,257.171,-0.0538888,-0.0930456,-0.000474755,0.00607502,-0.00445611,0.011424,-1.99154e-06,-3.54717e-06,0.0066382,-0.0004746423216772655,0.01148950308610841,-1.9915380168322727e-06,0.006093510358135434,-3.5471637087614027e-06,-0.004446196272853475
32,30.42,150.743,453.275,1.35195e-07,261.396,-0.0581151,-0.100325,-0.000553385,0.00671169,-0.00499531,0.0126741,-2.33523e-06,-4.16395e-06,0.00760694,-0.0005532319107612871,0.012754756795974709,-2.335227273331242e-06,0.006734263865999068,-4.163941330737053e-06,-0.004982854187847052
33,33.12,152.99,460.088,-3.95359e-07,265.309,-0.0619381,-0.106907,-0.000632329,0.0073476,-0.00553483,0.0139235,-2.68923e-06,-4.79965e-06,0.00857822,-0.000632129122149605,0.014020883373686788,-2.6892263840228026e-06,0.007374659847257936,-4.79963848165621e-06,-0.00551954104868968
34,35.83,155.083,466.437,-7.06315e-07,268.955,-0.0654207,-0.112901,-0.000711531,0.00798278,-0.00607456,0.0151719,-3.05244e-06,-5.45227e-06,0.0095515,-0.0007112779218459986,0.015287577550483489,-3.052435341266424e-06,0.008014727341215444,-5.452255136373374e-06,-0.006056147162564196
35,38.53,157.045,472.384,-9.04917e-07,272.37,-0.0686129,-0.118394,-0.000790945,0.00861724,-0.00661437,0.0164194,-3.42394e-06,-6.1201e-06,0.0105264,-0.0007906322854556169,0.016554939155917436,-3.423934138324647e-06,0.008654475290906127,-6.120081272209532e-06,-0.006592543204765211
36,41.24,158.891,477.98,-1.04763e-06,275.584,-0.0715544,-0.123455,-0.000870536,0.009251,-0.00715421,0.017666,-3.80293e-06,-6.80162e-06,0.0115026,-0.000870157193465837,0.017822966740451918,-3.80292276891403e-06,0.009293922757876771,-6.8015968690549045e-06,-0.007128679559296414
37,43.94,160.635,483.267,-1.16498e-06,278.621,-0.0742776,-0.128139,-0.000950274,0.00988406,-0.007694,0.0189115,-4.18869e-06,-7.49554e-06,0.0124797,-0.0009498226326479786,0.01909145503263021,-4.188681227423885e-06,0.009933068656123423,-7.495511908484076e-06,-0.007664476947311205
38,46.65,162.288,488.278,-1.27373e-06,281.499,-0.0768092,-0.132493,-0.00103013,0.0105164,-0.00823369,0.020156,-4.58061e-06,-8.2007e-06,0.0134577,-0.0010295995982347872,0.020360503850255673,-4.580599509029781e-06,0.010571891688148982,-8.200666374302834e-06,-0.00819988601529209
39,49.35,163.86,493.044,-1.38308e-06,284.237,-0.0791714,-0.136555,-0.00111009,0.0111481,-0.00877322,0.0213995,-4.97812e-06,-8.91609e-06,0.0144363,-0.0011094740780265289,0.0216301113516586,-4.978107609132643e-06,0.011210471626366791,-8.916050251772667e-06,-0.00873484760390042
40,52.06,165.359,497.588,-1.49806e-06,286.847,-0.0813828,-0.140357,-0.00119014,0.0117792,-0.00931257,0.0226419,-5.38075e-06,-9.64081e-06,0.0154153,-0.0011894320642655831,0.022900173401179336,-5.3807355238078e-06,0.011848847973478627,-9.640763527496432e-06,-0.00926934231102805
41,54.76,166.793,501.932,-1.62126e-06,289.342,-0.0834591,-0.143926,-0.00127025,0.0124095,-0.00985171,0.0238832,-5.78805e-06,-1.03741e-05,0.0163946,-0.0012694435739590837,0.024170687768027,-5.788033249243263e-06,0.012486817337280298,-1.0374046189198793e-05,-0.009803340874886879
42,57.47,168.166,506.094,-1.75391e-06,291.733,-0.0854139,-0.147286,-0.00135042,0.0130392,-0.0103906,0.0251235,-6.19963e-06,-1.11151e-05,0.0173741,-0.0013495085932186957,0.025441754761316604,-6.199610782298137e-06,0.013124581064993368,-1.1115038227482721e-05,-0.010336804200587024
43,60.17,169.484,510.088,-1.89643e-06,294.027,-0.0872588,-0.150457,-0.00143063,0.0136683,-0.0109292,0.0263626,-6.61515e-06,-1.18633e-05,0.0183537,-0.0014296071367393415,0.02671316718053207,-6.615128119946689e-06,0.013762138261530499,-1.1863229631314809e-05,-0.010869693277933967
44,62.88,170.752,513.93,-2.04879e-06,296.234,-0.0890037,-0.153456,-0.00151088,0.0142967,-0.0114675,0.0276007,-7.03428e-06,-1.26181e-05,0.0193333,-0.0015097391954247419,0.027985127997680603,-7.03425525949708e-06,0.014399386591669172,-1.2618020392096696e-05,-0.011401998839146943
45,65.58,171.973,517.63,-2.21072e-06,298.36,-0.0906575,-0.156298,-0.00159115,0.0149245,-0.0120055,0.0288376,-7.45673e-06,-1.3379e-05,0.0203128,-0.001589884791972973,0.029257429495151754,-7.456702198704868e-06,0.015036426472466724,-1.3378910501571362e-05,-0.011933721517545681
46,68.29,173.151,521.201,-2.3818e-06,300.411,-0.0922279,-0.158996,-0.00167144,0.0155516,-0.0125432,0.0300734,-7.88225e-06,-1.41455e-05,0.0212922,-0.0016700439220918017,0.030530172092194663,-7.882218935106877e-06,0.015673155441009445,-1.4145399952925075e-05,-0.012464861945584715
47,70.99,174.289,524.65,-2.56158e-06,302.392,-0.0937215,-0.161563,-0.00175174,0.0161781,-0.0130806,0.0313081,-8.3106e-06,-1.4917e-05,0.0222714,-0.0017502065989901672,0.03180335353249375,-8.310565467017916e-06,0.01630967404152539,-1.491688874211139e-05,-0.01299542075485427
48,73.7,175.391,527.986,-2.74954e-06,304.309,-0.0951445,-0.164008,-0.00183205,0.0168039,-0.0136176,0.0325416,-8.74155e-06,-1.56934e-05,0.0232503,-0.0018303728207803571,0.033076868247803315,-8.74151179275362e-06,0.016945879683522902,-1.5693276859241045e-05,-0.013525299928617285
49,76.4,176.457,531.218,-2.94522e-06,306.166,-0.0965021,-0.16634,-0.00191235,0.0174291,-0.0141542,0.033774,-9.17491e-06,-1.64741e-05,0.0242289,-0.0019105226237852158,0.034350817026228775,-9.174867910632933e-06,0.017581873038307716,-1.6473964302710087e-05,-0.01405450025552979
50,79.11,177.492,534.352,-3.14814e-06,307.966,-0.0977992,-0.168569,-0.00199265,0.0180537,-0.0146904,0.0350053,-9.61049e-06,-1.72588e-05,0.0252072,-0.0019906659910193802,0.03562519759862548,-9.61044381941889e-06,0.01821765320968538,-1.7258651067719732e-05,-0.014583022523009914
51,81.81,178.495,537.393,-3.35786e-06,309.714,-0.0990399,-0.1707,-0.00207294,0.0186776,-0.0152263,0.0362354,-1.00481e-05,-1.80473e-05,0.0261851,-0.002070792943707378,0.03689990400162979,-1.0048049517985547e-05,0.01885311741596918,-1.8047137148480275e-05,-0.015110966006148696
52,84.52,179.471,540.349,-3.57397e-06,311.412,-0.100228,-0.172742,-0.00215322,0.019301,-0.0157618,0.0374644,-1.04877e-05,-1.88393e-05,0.0271626,-0.0021509034847696507,0.03817503739261552,-1.048764500422017e-05,0.019488468467712572,-1.88391225415252e-05,-0.01563823289554256
53,87.22,180.42,543.223,-3.79609e-06,313.063,-0.101367,-0.174699,-0.00223348,0.0199237,-0.0162969,0.0386922,-1.09289e-05,-1.96344e-05,0.0281397,-0.002230987639435855,0.039450491544601674,-1.0928840279755825e-05,0.020123501634084162,-1.9634207246377322e-05,-0.016164823975111875
54,89.93,181.343,546.02,-4.02387e-06,314.67,-0.102461,-0.176578,-0.00231371,0.0205458,-0.0168315,0.0399189,-1.13718e-05,-2.04325e-05,0.0291163,-0.0023110354361373098,0.04072636786132433,-1.137173534138114e-05,0.020758317903578183,-2.0432291257921342e-05,-0.016690641696614716
55,92.63,182.242,548.745,-4.25698e-06,316.235,-0.103511,-0.178382,-0.00239393,0.0211672,-0.0173658,0.0411445,-1.18162e-05,-2.12333e-05,0.0300923,-0.002391066834772415,0.042002664052321226,-1.1816130188968543e-05,0.021392814239918234,-2.1233074575133237e-05,-0.017215883555898204
56,95.34,183.119,551.401,-4.49512e-06,317.762,-0.104521,-0.180117,-0.00247412,0.0217881,-0.0178997,0.0423689,-1.2262e-05,-2.20366e-05,0.0310679,-0.0024710618876782053,0.04327927349500138,-1.226192482195465e-05,0.02202719396108388,-2.2036357195887035e-05,-0.01774045194967444
57,98.04,183.975,553.992,-4.73801e-06,319.25,-0.105492,-0.181787,-0.00255428,0.0224083,-0.0184331,0.0435922,-1.27091e-05,-2.28422e-05,0.0320429,-0.002551020602569176,0.04455629796303184,-1.2709019239776076e-05,0.02266125182779888,-2.2841939118944943e-05,-0.01826424948338312
58,100.7,184.81,556.521,-4.9854e-06,320.704,-0.106428,-0.183396,-0.0026344,0.0230279,-0.0189661,0.0448143,-1.31573e-05,-2.365e-05,0.0330174,-0.0026309330134647313,0.04583363056988432,-1.3157213443082405e-05,0.023295089081934783,-2.3649720340968017e-05,-0.0187873752130171
59,103.5,185.626,558.992,-5.23706e-06,322.124,-0.10733,-0.184946,-0.0027145,0.0236469,-0.0194987,0.0460352,-1.36066e-05,-2.44597e-05,0.0339912,-0.0027108190762508144,0.04711126862489379,-1.3606507430652393e-05,0.023928704825918024,-2.4459400863929837e-05,-0.019309829914941234
60,106.2,186.423,561.407,-5.49277e-06,323.511,-0.1082,-0.186441,-0.00279455,0.0242653,-0.0200308,0.0472551,-1.40568e-05,-2.52712e-05,0.0349645,-0.0027906488799532836,0.04838941911087136,-1.4056701203690736e-05,0.024562098162016932,-2.527088068593475e-05,-0.0198315163474595
61,108.9,187.203,563.769,-5.75232e-06,324.868,-0.10904,-0.187884,-0.00287457,0.0248831,-0.0205625,0.0484737,-1.4508e-05,-2.60843e-05,0.0359371,-0.002870442379649174,0.04966776519507499,-1.4507894759430151e-05,0.025195268192344855,-2.608395980763234e-05,-0.020352533405558093
62,111.6,187.966,566.08,-6.01553e-06,326.196,-0.109851,-0.189277,-0.00295456,0.0255002,-0.0210938,0.0496912,-1.496e-05,-2.6899e-05,0.0369092,-0.002950199583031443,0.0509465139795644,-1.495988809974147e-05,0.025828111436046353,-2.689863822513683e-05,-0.02087288186175207
63,114.3,188.713,568.343,-6.28223e-06,327.496,-0.110634,-0.190624,-0.0030345,0.0261168,-0.0216247,0.0509076,-1.54128e-05,-2.7715e-05,0.0378805,-0.003029900558386589,0.05222566313996624,-1.5412681223403446e-05,0.02646083209729122,-2.7714615942975307e-05,-0.021392562487343447
64,117.0,189.444,570.559,-6.55226e-06,328.77,-0.111392,-0.191926,-0.0031144,0.0267328,-0.022155,0.0521228,-1.58662e-05,-2.85323e-05,0.0388513,-0.003109555287082899,0.05350510499723948,-1.5866074132508956e-05,0.027093326758218295,-2.8531892957817107e-05,-0.021911380434719074
65,119.7,190.161,572.731,-6.82547e-06,330.018,-0.112124,-0.193186,-0.00319425,0.0273481,-0.022685,0.0533369,-1.63203e-05,-2.93507e-05,0.0398213,-0.003189153811079759,0.054784942313248264,-1.6320166824623783e-05,0.027725491747787157,-2.9350269272421237e-05,-0.022429630054808358
66,122.4,190.864,574.86,-7.10172e-06,331.241,-0.112833,-0.194405,-0.00327406,0.0279629,-0.0232145,0.0545499,-1.67749e-05,-3.01701e-05,0.0407907,-0.0032687061101375203,0.0560651727510606,-1.677475930217387e-05,0.02835753164927146,-3.016964488711249e-05,-0.022947116549054014
67,125.1,191.554,576.948,-7.38088e-06,332.441,-0.11352,-0.195585,-0.00335383,0.0285771,-0.0237435,0.0557617,-1.723e-05,-3.09905e-05,0.0417594,-0.0033482121943088083,0.05734568823503339,-1.722985156438206e-05,0.028989342854569333,-3.0990019799448376e-05,-0.023463840838774952
68,127.8,192.231,578.997,-7.66282e-06,333.618,-0.114185,-0.196729,-0.00343354,0.0291906,-0.0242721,0.0569723,-1.76855e-05,-3.18116e-05,0.0427275,-0.003427652142193649,0.058626486035696646,-1.7685343612461324e-05,0.029620821502679417,-3.181109401639848e-05,-0.023979901445672858
69,130.5,192.895,581.008,-7.94744e-06,334.774,-0.11483,-0.197838,-0.00351321,0.0298036,-0.0248003,0.0581819,-1.81415e-05,-3.26335e-05,0.0436948,-0.0035070458984551856,0.05990777540078862,-1.8141335443977447e-05,0.030252172555588208,-3.263296753308609e-05,-0.02449529913321702
70,133.2,193.547,582.983,-8.23463e-06,335.909,-0.115454,-0.198912,-0.00359283,0.030416,-0.025328,0.0593902,-1.85977e-05,-3.3456e-05,0.0446614,-0.0035863835089885443,0.061189236004319136,-1.859752706390161e-05,0.030883292215176716,-3.345544035426862e-05,-0.025009937164677476
71,135.9,194.188,584.923,-8.52428e-06,337.024,-0.11606,-0.199955,-0.0036724,0.0310277,-0.0258552,0.0605975,-1.90543e-05,-3.42791e-05,0.0456273,-0.00366566498619747,0.062471183460818036,-1.905411846803151e-05,0.03151407643070847,-3.4278512478391754e-05,-0.02552381645532087
72,138.6,194.817,586.83,-8.8163e-06,338.12,-0.116648,-0.200966,-0.00375192,0.0316389,-0.026382,0.0618036,-1.95112e-05,-3.51026e-05,0.0465925,-0.003744890342475826,0.06375340304227417,-1.951100965780217e-05,0.03214473054248668,-3.5101983910990064e-05,-0.02603703531509549
73,141.3,195.436,588.704,-9.11061e-06,339.197,-0.117219,-0.201948,-0.00383139,0.0322495,-0.0269083,0.0630086,-1.99682e-05,-3.59265e-05,0.0475569,-0.003824059590208595,0.06503599850150765,-1.9968000636860772e-05,0.032775150562601496,-3.592585465106435e-05,-0.026549497157246527
74,144.0,196.045,590.547,-9.40711e-06,340.256,-0.117773,-0.202901,-0.00391081,0.0328595,-0.0274342,0.0642124,-2.04254e-05,-3.67507e-05,0.0485206,-0.0039031727417709883,0.06631886083642313,-2.0425191402884124e-05,0.03340533559133729,-3.675002470127087e-05,-0.027061300186289272
75,146.7,196.643,592.359,-9.70572e-06,341.297,-0.11831,-0.203826,-0.00399017,0.0334689,-0.0279596,0.0654151,-2.08828e-05,-3.75752e-05,0.0494836,-0.003982219849351543,0.06760209404796114,-2.0882581955872226e-05,0.034035284728853865,-3.757449406105451e-05,-0.02757234791517682
76,149.4,197.232,594.143,-1.00064e-05,342.322,-0.118833,-0.204725,-0.00406948,0.0340778,-0.0284846,0.0666167,-2.13402e-05,-3.83999e-05,0.0504458,-0.004061210887064348,0.06888569575763315,-2.1339972299583287e-05,0.03466510054169025,-3.839916273329358e-05,-0.028082738443284794
77,152.1,197.812,595.898,-1.0309e-05,343.331,-0.11934,-0.205599,-0.00414873,0.034686,-0.0290091,0.0678171,-2.17977e-05,-3.92247e-05,0.0514073,-0.004140135908656251,0.07016955656591173,-2.179746243191616e-05,0.03529457525969737,-3.922393072153252e-05,-0.028592375383000523
78,154.8,198.383,597.626,-1.06135e-05,344.324,-0.119834,-0.206449,-0.00422793,0.0352937,-0.0295331,0.0690164,-2.22552e-05,-4.00496e-05,0.052368,-0.004219004886639399,0.07145378084626386,-2.225495235486097e-05,0.03592391497858838,-4.004879802543826e-05,-0.029101259638980692
79,157.6,198.945,599.328,-1.09199e-05,345.302,-0.120313,-0.207274,-0.00430708,0.0359008,-0.0300567,0.0702146,-2.27128e-05,-4.08744e-05,0.053328,-0.004297817833339268,0.07273836620787577,-2.2712542066316566e-05,0.03655301533146171,-4.087356465309888e-05,-0.02960948915333561
80,160.3,199.498,601.004,-1.1228e-05,346.265,-0.120779,-0.208077,-0.00438616,0.0365073,-0.0305798,0.0714116,-2.31703e-05,-4.16993e-05,0.0542872,-0.004376554848602443,0.07402320285354858,-2.3170031570707295e-05,0.0371818754178046,-4.1698430596315283e-05,-0.030116967686977025
81,163.0,200.044,602.655,-1.15379e-05,347.214,-0.121233,-0.208858,-0.0044652,0.0371132,-0.0311024,0.0726076,-2.36277e-05,-4.2524e-05,0.0552457,-0.004455245815799147,0.07530850306047587,-2.3627420868144178e-05,0.037810494336990574,-4.252309586749714e-05,-0.0306236961399865
82,165.7,200.581,604.282,-1.18494e-05,348.15,-0.121674,-0.209618,-0.00454417,0.0377185,-0.0316246,0.0738024,-2.4085e-05,-4.33486e-05,0.0562034,-0.004533860880880258,0.07659404949243931,-2.4084709958738237e-05,0.03843887118828104,-4.334766046298899e-05,-0.031129772297877056
83,168.4,201.111,605.886,-1.21625e-05,349.071,-0.122103,-0.210357,-0.00462309,0.0383233,-0.0321463,0.0749961,-2.45423e-05,-4.4173e-05,0.0571603,-0.004612419968597181,0.07787994714464053,-2.454199884016628e-05,0.03906710897753318,-4.4172024387445497e-05,-0.03163510006945891
84,171.1,201.633,607.468,-1.24771e-05,349.98,-0.12252,-0.211077,-0.00470195,0.0389274,-0.0326676,0.0761887,-2.49994e-05,-4.49972e-05,0.0581165,-0.004690913138132191,0.07916619360591803,-2.4999087517629803e-05,0.039694999053168756,-4.4996187641199725e-05,-0.03213977713628613
85,173.8,202.149,609.027,-1.27933e-05,350.877,-0.122927,-0.211777,-0.00478075,0.039531,-0.0331884,0.0773801,-2.54563e-05,-4.5821e-05,0.0590718,-0.00476934040410204,0.08045267841580839,-2.545597599112881e-05,0.040322748390288154,-4.581995023400509e-05,-0.03264370750549517
86,176.5,202.657,610.565,-1.31109e-05,351.761,-0.123322,-0.212459,-0.0048595,0.0401341,-0.0337088,0.0785705,-2.5913e-05,-4.66446e-05,0.0600264,-0.004847711732633653,0.0817396151169476,-2.5912664261107388e-05,0.040950356275976985,-4.664351215755147e-05,-0.03314698875497013
87,179.2,203.158,612.083,-1.34299e-05,352.633,-0.123707,-0.213122,-0.00493818,0.0407365,-0.0342286,0.0797597,-2.63696e-05,-4.74678e-05,0.0609803,-0.004926007234489105,0.08302678506680428,-2.636925232513132e-05,0.041577613681559544,-4.746667342181432e-05,-0.0336494283548503
88,181.9,203.653,613.58,-1.37503e-05,353.493,-0.124082,-0.213769,-0.00501681,0.0413384,-0.0347481,0.0809478,-2.68259e-05,-4.82906e-05,0.0619333,-0.00500424682651035,0.08431429388330258,-2.6825540188735175e-05,0.04220472795834329,-4.828943402768182e-05,-0.03415131709993091
89,184.6,204.141,615.058,-1.40719e-05,354.343,-0.124446,-0.214398,-0.00509537,0.0419397,-0.035267,0.0821348,-2.72819e-05,-4.91129e-05,0.0628856,-0.005082410622565536,0.08560213913508763,-2.728152785236304e-05,0.04283159410968551,-4.9111693981251925e-05,-0.03465236597311516
90,187.3,204.623,616.516,-1.43949e-05,355.181,-0.124802,-0.215011,-0.00517388,0.0425404,-0.0357855,0.0833207,-2.77377e-05,-4.99348e-05,0.063837,-0.005160518536341141,0.08689031838680505,-2.77373153135807e-05,0.04345821123387816,-4.9933553278647125e-05,-0.03515276898066744
91,190.0,205.098,617.956,-1.47191e-05,356.009,-0.125148,-0.215608,-0.00525233,0.0431406,-0.0363036,0.0845055,-2.81932e-05,-5.07562e-05,0.0647877,-0.005238560632420786,0.08817882919910591,-2.8192802575488507e-05,0.04408468283758227,-5.075491192585435e-05,-0.03565252685760156
92,192.7,205.568,619.379,-1.50446e-05,356.826,-0.125485,-0.21619,-0.00533072,0.0437402,-0.0368211,0.0856892,-2.86484e-05,-5.1577e-05,0.0657376,-0.005316536925332183,0.08946766912865378,-2.8647989638530547e-05,0.044710903735675434,-5.1575669929415646e-05,-0.036151447568084305
93,195.4,206.032,620.783,-1.53711e-05,357.633,-0.125813,-0.216756,-0.00540904,0.0443393,-0.0373382,0.0868717,-2.91032e-05,-5.23973e-05,0.0666867,-0.005394437483534409,0.09075672665245116,-2.9102776506029215e-05,0.04533697755979138,-5.23959272854535e-05,-0.036649724813862083
94,198.1,206.491,622.17,-1.56989e-05,358.431,-0.126132,-0.217308,-0.00548731,0.0449377,-0.0378549,0.0880532,-2.95578e-05,-5.3217e-05,0.0676351,-0.005472282214419311,0.092046217341611,-2.955736317256097e-05,0.045962694402971405,-5.3215584000509963e-05,-0.03714735932610291
95,200.8,206.943,623.541,-1.60277e-05,359.219,-0.126444,-0.217846,-0.00556551,0.0455356,-0.0383711,0.0892336,-3.00119e-05,-5.4036e-05,0.0685826,-0.005550051241141607,0.09333602979410771,-3.0011449647426858e-05,0.04658826249289927,-5.403454008168218e-05,-0.03764425559925699
96,203.5,207.391,624.895,-1.63576e-05,359.997,-0.126747,-0.21837,-0.00564366,0.046133,-0.0388868,0.0904129,-3.04657e-05,-5.48544e-05,0.0695293,-0.005627764467953211,0.09462616155071357,-3.046523592531436e-05,0.04721368111485469,-5.4852895524870604e-05,-0.038140414511073195
97,206.2,207.833,626.234,-1.66885e-05,360.766,-0.127042,-0.21888,-0.00572174,0.0467298,-0.0394021,0.0915911,-3.09191e-05,-5.56721e-05,0.0704753,-0.0057054020210941525,0.09591661014824293,-3.091862200954587e-05,0.047838844770023314,-5.567055033739443e-05,-0.03863593307415303
98,208.9,208.27,627.556,-1.70204e-05,361.527,-0.12733,-0.219378,-0.00579976,0.047326,-0.0399169,0.0927682,-3.13722e-05,-5.64891e-05,0.0714204,-0.005782973859511653,0.09720737311955885,-3.137170789768717e-05,0.04846375255577584,-5.6487504520807974e-05,-0.03913071592777273
99,211.7,208.702,628.864,-1.73533e-05,362.279,-0.12761,-0.219863,-0.00587772,0.0479216,-0.0404312,0.0939441,-3.18248e-05,-5.73054e-05,0.0723648,-0.005860479997641055,0.09849833814374032,-3.182429359638306e-05,0.04908840356940414,-5.730375807688759e-05,-0.03962476394523362
100,214.4,209.13,630.157,-1.76871e-05,363.022,-0.127883,-0.220335,-0.00595562,0.0485167,-0.0409451,0.0951191,-3.22769e-05,-5.81209e-05,0.0733083,-0.005937920449904377,0.09978983229528393,-3.227637910641068e-05,0.04971290187941024,-5.811921101317452e-05,-0.04011817398647333
101,217.1,209.552,631.436,-1.80219e-05,363.757,-0.128149,-0.220795,-0.00603346,0.0491113,-0.0414585,0.0962929,-3.27287e-05,-5.89356e-05,0.0742511,-0.006015295230710982,0.10108152354571898,-3.2728164421902406e-05,0.05033724677020879,-5.893386333166717e-05,-0.04061085083497973
102,219.8,209.97,632.7,-1.83575e-05,364.484,-0.128409,-0.221243,-0.00611123,0.0497053,-0.0419715,0.0974656,-3.31799e-05,-5.97495e-05,0.0751931,-0.0060925944153832345,0.10237351926200366,-3.317934955315849e-05,0.05096133242988121,-5.974771503414189e-05,-0.04110289124934441
103,222.5,210.383,633.951,-1.8694e-05,365.203,-0.128661,-0.22168,-0.00618894,0.0502987,-0.042484,0.0986372,-3.36307e-05,-6.05626e-05,0.0761342,-0.006169827958923069,0.10366581695733879,-3.363013449431129e-05,0.05158515795527352,-6.056076612270811e-05,-0.04159420010892989
104,225.2,210.792,635.188,-1.90313e-05,365.914,-0.128907,-0.222106,-0.0062666,0.0508916,-0.0429961,0.0998078,-3.40811e-05,-6.13749e-05,0.0770746,-0.00624700581322879,0.10495852463685673,-3.408051924591593e-05,0.052208827664040225,-6.137301659936423e-05,-0.04208487407126327
105,227.9,211.197,636.411,-1.93695e-05,366.617,-0.129146,-0.222521,-0.00634418,0.0514839,-0.0435077,0.100977,-3.45309e-05,-6.21863e-05,0.0780142,-0.006324098180066295,0.10625119769327118,-3.4530303815283325e-05,0.05283223555668792,-6.218436647209558e-05,-0.04257481811131647
106,230.6,211.597,637.622,-1.97084e-05,367.314,-0.129379,-0.222925,-0.00642171,0.0520757,-0.0440188,0.102146,-3.49803e-05,-6.29968e-05,0.078953,-0.006401134886367954,0.10754516151787308,-3.497968819643482e-05,0.053455486075328906,-6.299481574323362e-05,-0.04306403309224205
107,233.3,211.993,638.821,-2.00481e-05,368.003,-0.129606,-0.223318,-0.00649917,0.0526669,-0.0445295,0.103313,-3.54291e-05,-6.38064e-05,0.079891,-0.006478096073714412,0.10883842119161113,-3.5428472396792365e-05,0.05407847309551417,-6.380436441488779e-05,-0.043552615520399574
108,236.0,212.385,640.007,-2.03885e-05,368.684,-0.129827,-0.223701,-0.00657657,0.0532575,-0.0450397,0.104479,-3.58775e-05,-6.46151e-05,0.0808281,-0.006554991693179191,0.11013208084773307,-3.5876856410155256e-05,0.05470119571361276,-6.461301248938955e-05,-0.04404047051356974
109,238.7,212.773,641.181,-2.07297e-05,369.359,-0.130042,-0.224075,-0.00665391,0.0538477,-0.0455495,0.105644,-3.63253e-05,-6.54229e-05,0.0817645,-0.006631821759064849,0.11142613836406334,-3.6324640244278505e-05,0.055323864090686126,-6.542075996873731e-05,-0.04452769447776106
110,241.4,213.157,642.343,-2.10713e-05,370.028,-0.130252,-0.224438,-0.00673118,0.0544372,-0.0460588,0.106809,-3.67725e-05,-6.62297e-05,0.0827001,-0.006708576352745577,0.112721704335905,-3.677182389993927e-05,0.05594616091253468,-6.622750686180456e-05,-0.045014192625694394
111,244.1,213.537,643.494,-2.14088e-05,370.689,-0.130455,-0.224793,-0.0068084,0.0550262,-0.0465677,0.107972,-3.72193e-05,-6.70355e-05,0.0836349,-0.00678527535509299,0.11401655248629927,-3.721860737049276e-05,0.05656829640222805,-6.703325317103381e-05,-0.045500061263306524
112,246.8,213.914,644.633,-2.1316e-05,371.344,-0.13065,-0.225148,-0.00688555,0.0556147,-0.0470761,0.109134,-3.76655e-05,-6.78405e-05,0.0845689,-0.006861898915307529,0.11531179210876852,-3.766479066391604e-05,0.0571902698423945,-6.783819888533937e-05,-0.04598520569799547
113,249.5,214.287,645.761,-2.21064e-05,371.993,-0.130862,-0.225497,-0.00696263,0.0562026,-0.047584,0.110294,-3.81116e-05,-6.86445e-05,0.0855021,-0.0069384470499360695,0.11660630445961995,-3.811087376215383e-05,0.057811974734281124,-6.864214402024782e-05,-0.04646962678287314
114,252.2,214.656,646.878,-2.2456e-05,372.635,-0.131067,-0.225853,-0.00703966,0.05679,-0.0480915,0.111454,-3.85571e-05,-6.94478e-05,0.0864345,-0.00701493963521016,0.11790231931608353,-3.855635668459367e-05,0.05843351601704372,-6.944538855735427e-05,-0.0469534206741975
115,254.9,215.022,647.985,-2.28075e-05,373.271,-0.131274,-0.226212,-0.00711662,0.0573769,-0.0485986,0.112613,-3.90022e-05,-7.02504e-05,0.0873661,-0.00709135682488482,0.11919871922279768,-3.9001439424035667e-05,0.05905489297282562,-7.024793249843508e-05,-0.047436588077124475
116,257.6,215.384,649.081,-2.31608e-05,373.901,-0.131482,-0.226573,-0.00719352,0.0579632,-0.0491052,0.113771,-3.94469e-05,-7.10522e-05,0.0882969,-0.007167708563782793,0.12049550203199266,-3.9446121981256965e-05,0.05967599891599096,-7.104967585225275e-05,-0.04791903448761081
117,260.3,215.743,650.167,-2.35161e-05,374.525,-0.131692,-0.226937,-0.00727035,0.0585489,-0.0496113,0.114927,-3.98912e-05,-7.18534e-05,0.0892269,-0.007243984938539394,0.12179154380015467,-3.989040435670166e-05,0.06029683294205257,-7.185081860627829e-05,-0.04840076075314281
118,263.0,216.098,651.242,-2.38732e-05,375.144,-0.131903,-0.227304,-0.00734713,0.0591342,-0.050117,0.116083,-4.03351e-05,-7.26539e-05,0.0901561,-0.0073202058192187724,0.12308908465890789,-4.0334286550813836e-05,0.060917606329983665,-7.26512607692742e-05,-0.04888186283151674
119,265.8,216.45,652.308,-2.42322e-05,375.756,-0.132115,-0.227673,-0.00742384,0.0597188,-0.0506223,0.117237,-4.07786e-05,-7.34537e-05,0.0910845,-0.00739635136563066,0.12438587756819985,-4.077776856414861e-05,0.06153800008607058,-7.345100234301682e-05,-0.049362341423088596
120,268.5,216.799,653.365,-2.45932e-05,376.363,-0.132329,-0.228044,-0.00750048,0.060303,-0.0511271,0.118391,-4.12219e-05,-7.42529e-05,0.0920122,-0.007472421594213574,0.1256841678403211,-4.122105038917301e-05,0.06215833176696206,-7.425014332163027e-05,-0.049842102211327344
121,270.5,217.061,654.157,-2.53364e-05,376.819,-0.132492,-0.228326,-0.00755835,0.060744,-0.0515082,0.119262,-4.15564e-05,-7.48562e-05,0.0927125,-0.007529857503251858,0.12666506586958914,-4.155553654472399e-05,0.06262684689126319,-7.485339834456539e-05,-0.05020413839579774
