,Time,S11,S22,S33,S12,S13,S23,LE11,LE22,LE33,LE12,LE13,LE23,SDV_EPBAR,E11,E12,E13,E22,E23,E33
0,0.0002705,0.000519365,0.0015581,-7.79048e-12,0.000899567,2.21372e-21,3.68811e-20,2.50301e-10,6.7501e-09,-3.0004e-09,1.1258e-08,2.76762e-26,4.61603e-25,0.0,2.5030089112476617e-10,1.1258000087721598e-08,0.0,6.750100034480511e-09,0.0,-3.0004000395322805e-09
1,0.000541,0.00103873,0.00311619,4.33681e-19,0.00179913,-3.08331e-20,-2.03577e-20,5.00425e-10,1.35001e-08,-6.00057e-09,2.25162e-08,-1.63975e-24,4.6912e-25,0.0,5.00425034744012e-10,2.2516200237632233e-08,0.0,1.3500100148888805e-08,0.0,-6.000569929831556e-09
2,0.00094675,0.00181778,0.00545333,6.50521e-19,0.00314848,1.87371e-20,6.55005e-20,8.75688e-10,2.36252e-08,-1.05009e-08,3.94034e-08,-1.73568e-24,1.95724e-24,0.0,8.756879665838824e-10,3.9403400764470575e-08,0.0,2.3625200240573463e-08,0.0,-1.0500899927379237e-08
3,0.0015554,0.00298635,0.00895905,1.73472e-18,0.00517251,4.73565e-20,4.89771e-20,1.4375e-09,3.88125e-08,-1.725e-08,6.47354e-08,4.1359e-25,7.16359e-25,0.0,1.4374998968946784e-09,6.473540214990692e-08,0.0,3.8812500768869995e-08,0.0,-1.7249999872959165e-08
4,0.0024683,0.00473921,0.0142176,0.0,0.00820854,1.00168e-19,-5.78319e-20,2.28125e-09,6.15937e-08,-2.7375e-08,1.02732e-07,-7.41318e-35,-1.284e-34,0.0,2.281250077729169e-09,1.027320053470504e-07,0.0,6.159370191660685e-08,0.0,-2.7374999600482397e-08
5,0.0038377,0.00736849,0.0221055,-8.67362e-19,0.0127626,9.88226e-21,-8.20239e-20,3.54688e-09,9.57656e-08,-4.25625e-08,1.59728e-07,7.653e-32,1.32554e-31,0.0,3.5468799008953056e-09,1.597280128162737e-07,0.0,9.576560455748506e-08,0.0,-4.256249908074494e-08
6,0.0058918,0.0113124,0.0339373,-6.07153e-18,0.0195937,-4.73565e-20,-4.89771e-20,5.44671e-09,1.47024e-07,-6.53456e-08,2.45219e-07,-1.14621e-23,6.61761e-24,0.0,5.446709971934638e-09,2.452190299706558e-07,0.0,1.4702401074373483e-07,0.0,-6.534559782167548e-08
7,0.008973,0.0172283,0.0516849,7.80626e-18,0.0298403,6.7121e-20,-1.15071e-19,8.29297e-09,2.2391e-07,-9.95156e-08,3.7346e-07,1.78232e-31,3.08708e-31,0.0,8.292970088419338e-09,3.734600697580248e-07,0.0,2.2391002496569e-07,0.0,-9.951559509779884e-08
8,0.013595,0.0261021,0.0783064,9.54098e-18,0.0452102,-1.3116e-19,-4.58503e-19,1.25671e-08,3.39241e-07,-1.50777e-07,5.65816e-07,2.77687e-23,-3.13146e-23,0.0,1.2567100027283118e-08,5.658161601473921e-07,0.0,3.392410574676319e-07,0.0,-1.5077698867216327e-07
9,0.020527,0.0394129,0.118239,6.07153e-18,0.0682651,-4.56883e-19,3.48265e-20,1.89735e-08,5.12236e-07,-2.27663e-07,8.54355e-07,1.1462e-23,-6.61759e-24,0.0,1.8973500104380037e-08,8.543553648987512e-07,0.0,5.122361312892565e-07,0.0,-2.276629741393421e-07
10,0.030926,0.059379,0.178137,-8.67362e-19,0.102847,-1.54031e-18,-2.55477e-19,2.8587e-08,7.71729e-07,-3.42996e-07,1.28716e-06,-2.95414e-23,1.77334e-24,0.0,2.858700032248862e-08,1.2871608283671065e-06,0.0,7.717292977993395e-07,0.0,-3.429959412049044e-07
11,0.046525,0.0893282,0.267985,-4.94396e-17,0.154721,-5.5365e-19,3.95969e-19,4.30043e-08,1.16097e-06,-5.15992e-07,1.93637e-06,-9.16942e-23,5.29396e-23,0.0,4.300430100911967e-08,1.9363718748444114e-06,0.0,1.1609706738191505e-06,0.0,-5.159918669006558e-07
12,0.069922,0.134252,0.402756,-2.1684e-17,0.232531,2.20493e-19,-2.49317e-18,6.46307e-08,1.74483e-06,-7.75487e-07,2.91018e-06,-5.29397e-23,-9.16942e-23,0.0,6.463070212348043e-08,2.910184234483637e-06,0.0,1.744831522154655e-06,0.0,-7.754866993003873e-07
13,0.105,0.201637,0.604912,1.99493e-17,0.349246,-1.22407e-18,-2.88023e-18,9.70596e-08,2.62061e-06,-1.16471e-06,4.37091e-06,-1.05879e-22,-1.83388e-22,0.0,9.705960479777787e-08,4.370919552521002e-06,0.0,2.62061343381248e-06,0.0,-1.1647093217659332e-06
14,0.1577,0.302715,0.908146,-9.1073e-17,0.524319,2.72256e-18,-2.74454e-19,1.45719e-07,3.93429e-06,-1.74858e-06,6.56199e-06,1.03982e-22,-2.43423e-22,0.0,1.4571901063575865e-07,6.562011529931411e-06,0.0,3.934297739371928e-06,0.0,-1.748578471238993e-06
15,0.2366,0.454332,1.363,-7.80626e-18,0.786926,-1.38381e-17,-7.8084e-18,2.18705e-07,5.90479e-06,-2.62436e-06,9.8486e-06,-2.11758e-22,-3.66776e-22,0.0,2.1870502386889257e-07,9.848648497623458e-06,0.0,5.904807433232406e-06,0.0,-2.624356556402141e-06
16,0.3551,0.681756,2.04527,4.77049e-17,1.18084,-5.94481e-18,-2.59681e-18,3.28182e-07,8.86055e-06,-3.93804e-06,1.47785e-05,5.57568e-28,9.65736e-28,0.0,3.281820537548441e-07,1.4778609202625859e-05,0.0,8.860589254755524e-06,0.0,-3.938032245964784e-06
17,0.5328,1.02289,3.06867,7.13839e-16,1.7717,-5.94479e-18,-2.59677e-18,4.92389e-07,1.32942e-05,-5.90853e-06,2.21733e-05,8.36561e-28,1.44897e-27,0.0,4.923891212538223e-07,2.2173545829451413e-05,0.0,1.3294288368159712e-05,0.0,-5.908512544672284e-06
18,0.7993,1.53459,4.60377,-2.85362e-16,2.65799,-3.98145e-18,-3.30361e-17,7.38697e-07,1.99445e-05,-8.86424e-06,3.32654e-05,7.35553e-27,1.27402e-26,0.0,7.38697272906208e-07,3.326595329955495e-05,0.0,1.9944698892881974e-05,0.0,-8.864200712777048e-06
19,1.199,2.30213,6.90638,-1.61763e-15,3.9874,2.21215e-18,-5.61484e-17,1.10814e-06,2.99199e-05,-1.32977e-05,4.99034e-05,-4.23505e-22,-7.33532e-22,0.0,1.1081406139368255e-06,4.990464519538662e-05,0.0,2.992034760462836e-05,0.0,-1.3297611585971758e-05
20,1.799,3.45341,10.3602,-3.17194e-15,5.98148,6.53581e-17,-1.44564e-17,1.66234e-06,4.48827e-05,-1.99479e-05,7.48599e-05,-1.09041e-26,-1.88864e-26,0.0,1.6623413816585497e-06,7.486270207235357e-05,0.0,4.4883707243537074e-05,0.0,-1.994770104196686e-05
21,2.698,5.18029,15.5409,-2.8485e-14,8.97252,-6.87866e-17,2.39178e-17,2.49357e-06,6.73263e-05,-2.99228e-05,0.000112294,-4.23518e-22,-7.33555e-22,0.0,2.4935731088859825e-06,0.00011230030520725798,0.0,6.732856646629592e-05,0.0,-2.9922352317468537e-05
22,4.047,31.1929,93.5787,-1.03264e-09,54.0277,-8.08225e-16,-1.7395e-16,1.5015e-05,0.000405403,-0.000180179,0.000676171,-3.02527e-20,1.82072e-21,0.0,1.5015112725613733e-05,0.0006763996551444329,0.0,0.00040548518690219915,0.0,-0.00018016276873877857
23,6.071,70.3658,211.097,-9.04826e-07,121.877,1.29847e-16,-7.14917e-16,3.38711e-05,0.000914519,-0.000406453,0.00152533,-2.03309e-20,-3.52142e-20,0.0,3.3871673632113186e-05,0.0015264939075101402,0.0,0.0009149373000056915,0.0,-0.00040637040916957634
24,8.776,121.27,363.817,0.000119564,210.048,-0.000131497,-0.0002277,5.5522e-05,0.0015932,-0.000714722,0.00266338,-1.67021e-09,-2.89404e-09,2.76021e-05,5.5523541374835617e-05,0.0026669299474322283,-1.6702099703280737e-09,0.0015944698173882,-2.8940400076393757e-09,-0.000714466647070533
25,11.48,127.235,381.874,0.0759124,220.497,-0.00273639,-0.00472874,-3.56462e-05,0.00223291,-0.00121687,0.00393174,-4.95609e-08,-8.68918e-08,0.000935826,-3.5645564681718866e-05,0.003939479429531101,-4.956089871832603e-08,0.002235404800076557,-8.689179620269272e-08,-0.0012161299139280546
26,14.19,132.209,396.715,0.0001333,229.018,-0.00495473,-0.00856672,-0.000128719,0.00287132,-0.0017242,0.00520111,-1.04544e-07,-1.84205e-07,0.00186422,-0.00012871071606490592,0.005214659252815945,-1.045439945723814e-07,0.002875446187527775,-1.8420498304472233e-07,-0.0017227144211143797
27,16.89,136.405,409.334,-5.03485e-06,236.294,-0.00675566,-0.011676,-0.000223839,0.00350837,-0.00223375,0.00647169,-1.63562e-07,-2.89138e-07,0.00280605,-0.00022381394992010417,0.006492676634298533,-1.6356198662137444e-07,0.003514531533567844,-2.8913795824259125e-07,-0.0022312570370328633
28,19.6,140.064,420.339,5.34086e-06,242.64,-0.00829009,-0.0143233,-0.000320208,0.00414433,-0.0027451,0.00774255,-2.26794e-07,-4.01926e-07,0.00375741,-0.0003201567388899651,0.007772601047430161,-2.2679397426728087e-07,0.004152929611346057,-4.0192591921339726e-07,-0.002741335658280941
29,22.3,143.314,430.115,2.43559e-06,248.277,-0.00962082,-0.0166179,-0.000417503,0.00477931,-0.00325771,0.00901332,-2.93749e-07,-5.2162e-07,0.00471578,-0.0004174158577503473,0.009054062284463704,-2.937489568255458e-07,0.004790749118475546,-5.216198639690361e-07,-0.003252409420257396
30,25.01,146.243,438.921,1.09422e-06,253.356,-0.0107917,-0.0186358,-0.000515509,0.00541339,-0.00377119,0.0102837,-3.63997e-07,-6.47404e-07,0.00567948,-0.0005153761480651831,0.010336758967706361,-3.6399693370547936e-07,0.005428068871177638,-6.474037904657948e-07,-0.0037640879934688343
31,27.71,148.91,446.943,4.51155e-07,257.981,-0.0118344,-0.0204318,-0.000614069,0.00604662,-0.00428528,0.0115536,-4.37172e-07,-7.78581e-07,0.00664729,-0.000613880498218089,0.011620600620645183,-4.3717190445491383e-07,0.0060649377081747335,-7.785806969140552e-07,-0.004276111289167495
32,30.42,151.362,454.315,1.35322e-07,262.232,-0.0127721,-0.0220465,-0.000713072,0.00667904,-0.00479978,0.0128229,-5.12956e-07,-9.14558e-07,0.00761832,-0.0007128178245801031,0.012905465916266401,-5.129558684480173e-07,0.006701394528878524,-9.145575817770535e-07,-0.004788279463348477
33,33.12,153.632,461.142,-1.83764e-08,266.169,-0.0136225,-0.0235103,-0.00081243,0.00731068,-0.00531455,0.0140914,-5.91078e-07,-1.05483e-06,0.00859191,-0.0008121000681023949,0.0141911517736375,-5.910778253515048e-07,0.007337468261377378,-1.0548294436807382e-06,-0.0053004527636940635
34,35.83,155.747,467.502,-8.89038e-08,269.837,-0.0143993,-0.0248471,-0.000912078,0.00794157,-0.00582947,0.0153591,-6.71304e-07,-1.19895e-06,0.00956754,-0.000911662183289641,0.015477657175898774,-6.713037746797212e-07,0.007973187910227386,-1.1989492813002656e-06,-0.005812511608572879
35,38.53,157.728,473.46,-1.16017e-07,273.272,-0.0151134,-0.0260755,-0.00101196,0.00857172,-0.00634445,0.0166259,-7.53431e-07,-1.34655e-06,0.0105448,-0.0010114481411540588,0.016764879426439894,-7.534307161494169e-07,0.00860856238417651,-1.3465490934505553e-06,-0.006324366472523546
36,41.24,159.592,479.065,-1.20531e-07,276.505,-0.0157733,-0.0272105,-0.00111204,0.00920114,-0.00685942,0.0178917,-8.37282e-07,-1.49731e-06,0.0115233,-0.00111142191265301,0.01805271531019592,-8.372816494572888e-07,0.00924360061742946,-1.4973088789949074e-06,-0.006835947877677384
37,43.94,161.353,484.361,-1.13665e-07,279.559,-0.0163861,-0.0282641,-0.00121227,0.00982986,-0.00737432,0.0191566,-9.22702e-07,-1.65093e-06,0.0125029,-0.0012115354975584802,0.019341264961215243,-9.227015742574451e-07,0.009878331767185111,-1.650928637242366e-06,-0.007347196415883772
38,46.65,163.023,489.381,-1.01573e-07,282.454,-0.0169576,-0.0292465,-0.00131264,0.0104579,-0.00788909,0.0204205,-1.00956e-06,-1.80716e-06,0.0134832,-0.0013117788649432693,0.020630424899009014,-1.0095594903392069e-06,0.010512774961666471,-1.8071583670620228e-06,-0.007858052801532955
39,49.35,164.61,494.155,-8.76634e-08,285.207,-0.0174925,-0.0301658,-0.00141311,0.0110852,-0.00840371,0.0216834,-1.09772e-06,-1.96579e-06,0.0144642,-0.0014121120301996415,0.02192019331545758,-1.0977193974914812e-06,0.01114686848804114,-1.965788067881391e-06,-0.008368497536600183
40,52.06,166.124,498.707,-7.38112e-08,287.832,-0.0179948,-0.0310291,-0.00151366,0.0117119,-0.00891813,0.0229453,-1.1871e-06,-2.12662e-06,0.0154456,-0.001512514994491343,0.023210568398329023,-1.1870992954188253e-06,0.011780752837436959,-2.126617738795744e-06,-0.008878481429893892
41,54.76,167.571,503.058,-6.10222e-08,290.341,-0.0184681,-0.0318423,-0.00161428,0.0123379,-0.00943232,0.024206,-1.27758e-06,-2.28947e-06,0.0164273,-0.001612977750866662,0.02450134343099153,-1.2775791838892658e-06,0.012414325876384025,-2.289467379124055e-06,-0.009387975204000143
42,57.47,168.957,507.226,-4.98054e-08,292.744,-0.0189152,-0.0326104,-0.00171496,0.0129632,-0.00994626,0.0254657,-1.36909e-06,-2.45418e-06,0.0174092,-0.0017134902963802379,0.02579272097669083,-1.3690890627859886e-06,0.013047586522661803,-2.454176988520018e-06,-0.009896959543114758
43,60.17,170.287,511.227,-4.03819e-08,295.052,-0.0193386,-0.0333377,-0.00181567,0.0135878,-0.0104599,0.0267243,-1.46155e-06,-2.62062e-06,0.0183913,-0.0018140226683798222,0.027084596502044533,-1.4615489319913522e-06,0.013680533694028219,-2.6206165661957215e-06,-0.01040538548368708
44,62.88,171.567,515.075,-3.28106e-08,297.271,-0.0197405,-0.034028,-0.00191641,0.0142118,-0.0109733,0.0279819,-1.55488e-06,-2.78866e-06,0.0193733,-0.0019145748588372813,0.02837707062799244,-1.5548787911656703e-06,0.014313267739544555,-2.7886561116963193e-06,-0.010913312962639199
45,65.58,172.8,518.781,-2.70571e-08,299.408,-0.0201228,-0.0346846,-0.00201717,0.0148351,-0.0114864,0.0292383,-1.64904e-06,-2.95817e-06,0.0203552,-0.002015136879874979,0.029669935587226748,-1.6490386403056334e-06,0.014945686272087366,-2.9581656245669663e-06,-0.011420683164801382
46,68.29,173.989,522.357,-2.30389e-08,301.47,-0.0204872,-0.0353103,-0.00211794,0.0154578,-0.0119991,0.0304935,-1.74395e-06,-3.12907e-06,0.0213371,-0.0021156987476367295,0.030963188766274685,-1.7439484792936e-06,0.015577889767059094,-3.1290651044679763e-06,-0.011927397873127576
47,70.99,175.138,525.811,-2.0649e-08,303.462,-0.0208351,-0.0359077,-0.0022187,0.0160799,-0.0125116,0.0317477,-1.83957e-06,-3.30125e-06,0.0223187,-0.002216240504452016,0.03225703399836699,-1.839568308015238e-06,0.016209877331633038,-3.3012445508351362e-06,-0.012433655342160455
48,73.7,176.249,529.153,-1.97719e-08,305.389,-0.0211679,-0.036479,-0.00231947,0.0167013,-0.0130236,0.0330007,-1.93585e-06,-3.47463e-06,0.0233,-0.0023167821080227746,0.033551262726936315,-1.935848126244366e-06,0.01684154638865709,-3.4746239634397824e-06,-0.012939159890417828
49,76.4,177.325,532.39,-2.02912e-08,307.256,-0.0214866,-0.0370262,-0.00242022,0.0173221,-0.0135353,0.0342526,-2.03274e-06,-3.64912e-06,0.0242811,-0.002417293628872441,0.03484597580930249,-2.032737933976847e-06,0.017472997602832052,-3.6491133419414012e-06,-0.013444109719870201
50,79.11,178.369,535.528,-2.20943e-08,309.066,-0.0217923,-0.0375511,-0.00252095,0.0179422,-0.0140467,0.0355034,-2.13021e-06,-3.82466e-06,0.0252619,-0.002517775074052264,0.03614117100205738,-2.1302077310991763e-06,0.018104128270485464,-3.824652686001961e-06,-0.01394850541718673
51,81.81,179.382,538.575,-2.50764e-08,310.823,-0.022086,-0.0380552,-0.00262166,0.0185617,-0.0145577,0.036753,-2.22822e-06,-4.00117e-06,0.0262422,-0.0026182264506106057,0.03743674231371075,-2.228217517497022e-06,0.018735039182426583,-4.001161995281777e-06,-0.01445224901346831
52,84.52,180.366,541.534,-2.91397e-08,312.529,-0.0223684,-0.0385401,-0.00272235,0.0191806,-0.0150683,0.0380015,-2.32674e-06,-4.1786e-06,0.0272221,-0.002718647765593385,0.03873279097651561,-2.326737293167902e-06,0.019365729445146806,-4.178591269665688e-06,-0.014955341244745068
53,87.22,181.324,544.413,-3.41958e-08,314.189,-0.0226404,-0.0390069,-0.002823,0.0197988,-0.0155785,0.0392488,-2.42572e-06,-4.35688e-06,0.0282016,-0.0028190190824245454,0.04002921073080401,-2.425717057996657e-06,0.019996096165367128,-4.356870508814836e-06,-0.01545778284589061
54,89.93,182.255,547.214,-4.01628e-08,315.805,-0.0229026,-0.0394569,-0.00292362,0.0204165,-0.0160883,0.040495,-2.52515e-06,-4.53597e-06,0.0291807,-0.0029193503849719304,0.04132610305898554,-2.5251468117604148e-06,0.02062634238547445,-4.5359597125038675e-06,-0.015959574550622246
55,92.63,183.163,549.943,-4.69671e-08,317.378,-0.0231555,-0.0398911,-0.0030242,0.0210335,-0.0165977,0.04174,-2.625e-06,-4.71581e-06,0.0301592,-0.003019631713477744,0.042623361433066664,-2.624996554678738e-06,0.02125626314929807,-4.715798880616795e-06,-0.01646071709150454
56,95.34,184.047,552.603,-5.45432e-08,318.913,-0.0233999,-0.0403105,-0.00312474,0.0216499,-0.0171067,0.0429839,-2.72523e-06,-4.89636e-06,0.0311372,-0.003119863080989882,0.04392108758580404,-2.725226286526272e-06,0.021885959562400137,-4.896348012817242e-06,-0.016961211199948534
57,98.04,184.91,555.198,-6.28304e-08,320.409,-0.0236361,-0.0407161,-0.00322523,0.0222656,-0.0176154,0.0442266,-2.82584e-06,-5.07757e-06,0.0321146,-0.0032200345327499935,0.04521917472073533,-2.8258360073030175e-06,0.022515328479041585,-5.077557109212094e-06,-0.01746115586010577
58,100.7,185.753,557.732,-7.17753e-08,321.87,-0.0238647,-0.0411085,-0.00332568,0.0228808,-0.0181236,0.0454682,-2.92679e-06,-5.25941e-06,0.0330915,-0.003320156051593748,0.04651772482115346,-2.9267857170056644e-06,0.023144573445027516,-5.25939616935478e-06,-0.017960355243390347
59,103.5,186.576,560.206,-8.13287e-08,323.297,-0.0240861,-0.0414885,-0.00342608,0.0234953,-0.0186314,0.0467086,-3.02806e-06,-5.44184e-06,0.0340678,-0.0034202176847480947,0.04781663082198295,-3.0280554154105133e-06,0.023773488999923265,-5.441825193241989e-06,-0.018458908381643102
60,106.2,187.38,562.625,-9.14471e-08,324.692,-0.0243008,-0.0418569,-0.00352642,0.0241092,-0.0191387,0.0479478,-3.12964e-06,-5.62482e-06,0.0350435,-0.0035202094834331232,0.04911589004564898,-3.129635102627759e-06,0.02440217650070431,-5.624804180759391e-06,-0.018956717897361197
61,108.9,188.167,564.99,-1.0209e-07,326.056,-0.0245089,-0.0422142,-0.00362672,0.0247226,-0.0196457,0.0491859,-3.23151e-06,-5.80832e-06,0.0360186,-0.003620151394251314,0.050415604851538065,-3.231504778655747e-06,0.025030737555736593,-5.80830313179348e-06,-0.019453980774596036
62,111.6,188.936,567.305,-1.13224e-07,327.391,-0.024711,-0.0425611,-0.00372695,0.0253353,-0.0201522,0.0504229,-3.33365e-06,-5.99231e-06,0.0369931,-0.0037200135418021807,0.05171577294291407,-3.3336444433818002e-06,0.025658966326868038,-5.992292046119729e-06,-0.019950501578825164
63,114.3,189.69,569.571,-1.24813e-07,328.697,-0.0249073,-0.042898,-0.00382713,0.0259474,-0.0206583,0.0516587,-3.43604e-06,-6.17676e-06,0.0379669,-0.0038198158716632458,0.05301628671706604,-3.4360340968042635e-06,0.026286964359347076,-6.17674092384668e-06,-0.020446379137575632
64,117.0,190.428,571.79,-1.36831e-07,329.977,-0.0250981,-0.0432255,-0.00392726,0.0265589,-0.021164,0.0528933,-3.53868e-06,-6.36165e-06,0.0389401,-0.003919558399806955,0.054317143478290975,-3.538673738923137e-06,0.026914730758067495,-6.3616297647506315e-06,-0.02094161417291307
65,119.7,191.151,573.965,-1.49249e-07,331.231,-0.0252836,-0.0435441,-0.00402732,0.0271698,-0.0216693,0.0541268,-3.64153e-06,-6.54694e-06,0.0399126,-0.004019221222579361,0.055618446088159246,-3.641523369624089e-06,0.027542264627791857,-6.546918568828275e-06,-0.02143620740576757
66,122.4,191.86,576.098,-1.62043e-07,332.461,-0.0254642,-0.0438541,-0.00412732,0.0277801,-0.0221741,0.0553591,-3.7446e-06,-6.73262e-06,0.0408845,-0.004118814320719255,0.05692008654031966,-3.744592989018969e-06,0.02816956507315438,-6.7325973359677604e-06,-0.02193006174894574
67,125.1,192.556,578.189,-1.75193e-07,333.667,-0.0256401,-0.0441561,-0.00422725,0.0283898,-0.0226785,0.0565903,-3.84787e-06,-6.91866e-06,0.0418556,-0.004218327755332596,0.058222167947702186,-3.8478625969951e-06,0.028796631198662714,-6.918636066166606e-06,-0.02242327582675241
68,127.8,193.238,580.241,-1.88676e-07,334.85,-0.0258114,-0.0444502,-0.00432713,0.0289989,-0.0231825,0.0578203,-3.95133e-06,-7.10504e-06,0.0428261,-0.004317781461955605,0.05952458203473965,-3.951322193551654e-06,0.029423462108699727,-7.105014759312134e-06,-0.022915850356527212
69,130.5,193.908,582.255,-2.02476e-07,336.012,-0.0259785,-0.044737,-0.00442693,0.0296074,-0.023686,0.0590492,-4.05497e-06,-7.29174e-06,0.0437958,-0.004417145589013294,0.06082743216590192,-4.054961778576782e-06,0.030050056907526157,-7.291713415291667e-06,-0.023407688395255755
70,133.2,194.566,584.233,-2.16576e-07,337.153,-0.0261414,-0.0450168,-0.00452667,0.0302153,-0.0241891,0.0602769,-4.15877e-06,-7.47874e-06,0.0447649,-0.004516440071013927,0.06213060979627638,-4.158761352290874e-06,0.030676414699282173,-7.478712034325596e-06,-0.023898888415498365
71,135.9,195.212,586.176,-2.30959e-07,338.273,-0.0263004,-0.0452897,-0.00462635,0.0308226,-0.0246918,0.0615035,-4.26272e-06,-7.66602e-06,0.0457332,-0.004615664926818863,0.06343421854205089,-4.26271091458208e-06,0.031302534587989816,-7.665990616190221e-06,-0.024389451131022866
72,138.6,195.847,588.086,-2.45612e-07,339.374,-0.0264556,-0.0455562,-0.00472595,0.0314294,-0.025194,0.0627289,-4.36683e-06,-7.85357e-06,0.0467008,-0.004714800269570163,0.06473814958883906,-4.366820465451227e-06,0.03192851887040149,-7.853539160773693e-06,-0.02487927974240567
73,141.3,196.471,589.963,-2.60523e-07,340.457,-0.0266071,-0.0458166,-0.00482549,0.0320355,-0.0256958,0.0639532,-4.47107e-06,-8.04136e-06,0.0476677,-0.004813866027766789,0.06604250680472412,-4.47106000478481e-06,0.032554160327179504,-8.041327668406595e-06,-0.02536847257108521
74,144.0,197.085,591.808,-2.75678e-07,341.521,-0.0267553,-0.046071,-0.00492496,0.0326411,-0.0261971,0.0651763,-4.57544e-06,-8.22939e-06,0.0486338,-0.004912852269350565,0.06734718110571936,-4.575429532693853e-06,0.03317966451022314,-8.229356138644839e-06,-0.02585693291297142
75,146.7,197.688,593.624,-2.91068e-07,342.568,-0.0269001,-0.0463197,-0.00502436,0.033246,-0.026698,0.0663983,-4.67993e-06,-8.41764e-06,0.0495993,-0.005011759016088302,0.06865227661197815,-4.679919049177528e-06,0.03380482394969575,-8.417604571819837e-06,-0.026344758989034878
76,149.4,198.282,595.41,-3.06682e-07,343.598,-0.0270417,-0.0465629,-0.00512368,0.0338504,-0.0271985,0.0676191,-4.78453e-06,-8.60609e-06,0.0505639,-0.005110576340833228,0.06995768396979085,-4.784518554123984e-06,0.034429844447458446,-8.606052967707889e-06,-0.02683195150706308
77,152.1,198.867,597.168,-3.22511e-07,344.611,-0.0271802,-0.0468009,-0.00522294,0.0344542,-0.0276985,0.0688388,-4.88924e-06,-8.79474e-06,0.0515278,-0.0052093241640899235,0.07126350755155442,-4.889228047644245e-06,0.03505462178883367,-8.794701326420018e-06,-0.027318413905575323
78,154.8,199.442,598.899,-3.38545e-07,345.609,-0.0273158,-0.0470339,-0.00532212,0.0350574,-0.0281981,0.0700573,-4.99404e-06,-8.98356e-06,0.052491,-0.005307982610766149,0.0725696377337135,-4.994027529847678e-06,0.03567915507700037,-8.983519647953742e-06,-0.02780424425546124
79,157.6,200.009,600.603,-3.54778e-07,346.592,-0.0274486,-0.047262,-0.00542122,0.03566,-0.0286973,0.0712748,-5.09894e-06,-9.17255e-06,0.0534534,-0.0054065517055101875,0.07387628652870415,-5.098927000402043e-06,0.036303443415034664,-9.17250793230906e-06,-0.028289443260981262
80,160.3,200.567,602.281,-3.71202e-07,347.56,-0.0275786,-0.0474854,-0.00552026,0.0362621,-0.029196,0.072491,-5.20393e-06,-9.36169e-06,0.0544151,-0.0055050513628456255,0.07518312939844551,-5.203916459528557e-06,0.0369275895986676,-9.361646179484318e-06,-0.028773914502682185
81,163.0,201.117,603.935,-3.8781e-07,348.514,-0.027706,-0.0477043,-0.00561922,0.0368635,-0.0296942,0.0737062,-5.30899e-06,-9.55098e-06,0.0553759,-0.005603461713538316,0.07649048612635578,-5.308975907336588e-06,0.03755138540765057,-9.550934389590537e-06,-0.02925765882775999
82,165.7,201.659,605.565,-4.04595e-07,349.453,-0.0278309,-0.0479189,-0.00571811,0.0374644,-0.0301921,0.0749202,-5.41413e-06,-9.7404e-06,0.056336,-0.005701792725152588,0.07779813916130451,-5.414115343604919e-06,0.03817503739261552,-9.74035256240402e-06,-0.029740871133743463
83,168.4,202.193,607.171,-4.21552e-07,350.38,-0.0279534,-0.0481294,-0.00581692,0.0380647,-0.0306894,0.076133,-5.51933e-06,-9.92995e-06,0.0572954,-0.005800034477299598,0.07910608572295441,-5.51931476855394e-06,0.038798440963423,-9.929900698257832e-06,-0.030223261042336302
84,171.1,202.72,608.755,-4.38675e-07,351.293,-0.0280735,-0.0483358,-0.00591565,0.0386645,-0.0311864,0.0773448,-5.6246e-06,-1.01196e-05,0.058254,-0.00589818699451683,0.08041453910942287,-5.624584181962433e-06,0.039421699164762236,-1.0119548797038469e-05,-0.030705120329646785
85,173.8,203.239,610.317,-4.55958e-07,352.194,-0.0281913,-0.0485383,-0.00601431,0.0392636,-0.0316829,0.0785554,-5.72992e-06,-1.03094e-05,0.0592118,-0.005996260241355245,0.08172328097208226,-5.729903584050788e-06,0.04004460327702741,-1.0309346858305979e-05,-0.03118625578564249
86,176.5,203.752,611.857,-4.73399e-07,353.082,-0.0283069,-0.0487371,-0.0061129,0.0398622,-0.0321789,0.0797649,-5.8353e-06,-1.04992e-05,0.0601688,-0.006094254239364605,0.08303241682072904,-5.835282974708811e-06,0.04066736034914542,-1.0499144883602263e-05,-0.03166666825063247
87,179.2,204.257,613.377,-4.9099e-07,353.958,-0.0284204,-0.0489322,-0.00621141,0.0404603,-0.0326746,0.0809732,-5.94072e-06,-1.06892e-05,0.061125,-0.0061921590719977715,0.08434183581614807,-5.940702353934846e-06,0.041289969670127435,-1.0689142870723423e-05,-0.032146552134133644
88,181.9,204.756,614.877,-5.08729e-07,354.823,-0.0285319,-0.0491239,-0.00630984,0.0410577,-0.0331697,0.0821804,-6.04619e-06,-1.08792e-05,0.0620805,-0.0062899747637019665,0.08565164372132839,-6.046171721840743e-06,0.041912222146316847,-1.0879140821762334e-05,-0.03262561777368711
89,184.6,205.248,616.357,-5.26611e-07,355.677,-0.0286414,-0.0493122,-0.00640819,0.0416546,-0.0336645,0.0833865,-6.1517e-06,-1.10693e-05,0.0630351,-0.006387701338900986,0.08696183812272862,-6.1516810783146525e-06,0.042534325199901524,-1.1069238735506026e-05,-0.03310415621783813
90,187.3,205.733,617.818,-5.44634e-07,356.519,-0.0287489,-0.0494972,-0.00650647,0.0422509,-0.0341587,0.0845915,-6.25724e-06,-1.12595e-05,0.063989,-0.006485348757140574,0.08827241660261786,-6.2572204234667694e-06,0.04315617380375336,-1.1259436612065521e-05,-0.03358187808903812
91,190.0,206.213,619.26,-5.62792e-07,357.351,-0.0288546,-0.049679,-0.00660466,0.0428466,-0.0346526,0.0857954,-6.36282e-06,-1.14497e-05,0.0649421,-0.006582897171528268,0.08958337673908057,-6.362799757297921e-06,0.04377776705965819,-1.1449634452431745e-05,-0.03405907414618303
92,192.7,206.687,620.684,-5.81084e-07,358.172,-0.0289586,-0.0498578,-0.00670279,0.0434418,-0.035146,0.0869981,-6.46842e-06,-1.164e-05,0.0658944,-0.006680376408931932,0.09089460701655527,-6.468399079806453e-06,0.044399208509241284,-1.163993225550275e-05,-0.034535551842285406
93,195.4,207.154,622.091,-5.99506e-07,358.983,-0.0290608,-0.0500336,-0.00680083,0.0440364,-0.035639,0.0881997,-6.57405e-06,-1.18303e-05,0.0668459,-0.006777756691169423,0.09220621383190819,-6.574028390993192e-06,0.04502039293845006,-1.1830230022269461e-05,-0.035011408506921304
94,198.1,207.616,623.481,-6.18055e-07,359.784,-0.0291613,-0.0502065,-0.00689879,0.0446305,-0.0361315,0.0894002,-6.6797e-06,-1.20207e-05,0.0677967,-0.0068750479767188954,0.09351819475059098,-6.679677690857311e-06,0.04564142401290905,-1.2020627751629931e-05,-0.03548654837543497
95,200.8,208.073,624.853,-6.36728e-07,360.576,-0.0292602,-0.0503766,-0.00699668,0.045224,-0.0366236,0.0905996,-6.78536e-06,-1.22111e-05,0.0687466,-0.006972260220141524,0.0948305473338944,-6.785336979509005e-06,0.046262196394043054,-1.221102544479713e-05,-0.03596106867968263
96,203.5,208.524,626.21,-6.55524e-07,361.358,-0.0293575,-0.0505441,-0.00709449,0.0458169,-0.0371152,0.0917979,-6.89104e-06,-1.24015e-05,0.0696957,-0.007069383513477412,0.09614326913895344,-6.891016256838078e-06,0.046882709183124094,-1.2401423101771059e-05,-0.03643487374749199
97,206.2,208.97,627.55,-6.74439e-07,362.131,-0.0294532,-0.0507089,-0.00719222,0.0464093,-0.0376064,0.092995,-6.99674e-06,-1.25919e-05,0.0706441,-0.007166417880965059,0.09745624797312402,-6.996715522844532e-06,0.047503066231659785,-1.2591820722329672e-05,-0.03690806071327435
98,208.9,209.41,628.875,-6.93471e-07,362.895,-0.0295475,-0.0508712,-0.00728987,0.0470011,-0.0380972,0.0941911,-7.10244e-06,-1.27824e-05,0.0715916,-0.007263363346819318,0.09876970074516356,-7.102414777748756e-06,0.04812316201449973,-1.2782318305482043e-05,-0.037380630259023384
99,211.7,209.846,630.185,-7.12619e-07,363.65,-0.0296404,-0.051031,-0.00738744,0.0475924,-0.0385875,0.095386,-7.20814e-06,-1.29729e-05,0.0725384,-0.007360219935232171,0.10008340537710869,-7.2081140214397266e-06,0.04874310050695163,-1.2972815852330122e-05,-0.03785248685091136
100,214.4,210.276,631.48,-7.3188e-07,364.397,-0.0297318,-0.0511885,-0.00748493,0.0481831,-0.0390774,0.0965799,-7.31385e-06,-1.31633e-05,0.0734843,-0.00745698767037084,0.10139757929480697,-7.313823253918272e-06,0.04936277605957695,-1.3163213364197901e-05,-0.03832372747778667
101,217.1,210.702,632.761,-7.51252e-07,365.136,-0.0298219,-0.0513436,-0.00758234,0.0487732,-0.0395668,0.0977726,-7.41956e-06,-1.33538e-05,0.0744295,-0.007553666576379348,0.10271199988653446,-7.419532475183566e-06,0.04998218777318142,-1.3353710838437394e-05,-0.03879425669766756
102,219.8,211.123,634.027,-7.70734e-07,365.866,-0.0299107,-0.0514965,-0.00767967,0.0493628,-0.0400558,0.0989642,-7.52527e-06,-1.35443e-05,0.0753739,-0.0076502566773779535,0.10402677469285693,-7.525241685235606e-06,0.050601439808653614,-1.3544208276372594e-05,-0.03926417140263305
103,222.5,211.54,635.28,-7.90324e-07,366.588,-0.0299982,-0.0516472,-0.00777692,0.0499518,-0.0405444,0.100155,-7.63098e-06,-1.37348e-05,0.0763174,-0.007746757997463494,0.10534223284450084,-7.630950884185417e-06,0.051220426330336855,-1.3734705678114523e-05,-0.039733472268947856
104,225.2,211.952,636.519,-8.10021e-07,367.303,-0.0300844,-0.0517957,-0.0078741,0.0505403,-0.0410325,0.101344,-7.73667e-06,-1.39252e-05,0.0772602,-0.007843180482276613,0.10665726639187278,-7.736640072031342e-06,0.05183925162271441,-1.3925103044876153e-05,-0.040202063992019865
105,227.9,212.359,637.745,-8.29822e-07,368.01,-0.0301694,-0.0519422,-0.00797119,0.0511282,-0.0415202,0.102533,-7.84236e-06,-1.41157e-05,0.0782021,-0.007939504311767709,0.107973864444046,-7.842329248775037e-06,0.05245780972608216,-1.4115600374009496e-05,-0.04067004331937629
106,230.6,212.763,638.958,-8.49726e-07,368.709,-0.0302533,-0.0520867,-0.0080682,0.0517156,-0.0420075,0.10372,-7.94804e-06,-1.43061e-05,0.0791433,-0.008035739432494471,0.10928981028048468,-7.948008414415675e-06,0.05307620504844057,-1.4305997668273562e-05,-0.04113741092390155
107,233.3,213.162,640.158,-8.69733e-07,369.401,-0.030336,-0.0522292,-0.00816514,0.0523024,-0.0424943,0.104906,-8.05371e-06,-1.44965e-05,0.0800837,-0.00813189578714002,0.11060620846529745,-8.053677568953255e-06,0.0536943315061289,-1.4496394926233336e-05,-0.04160407163783042
108,236.0,213.557,641.346,-8.89841e-07,370.086,-0.0304176,-0.0523699,-0.00826199,0.0528887,-0.0429807,0.106091,-8.15936e-06,-1.46869e-05,0.0810232,-0.008227953561360302,0.11192305690093107,-8.159326712497972e-06,0.05431229363058554,-1.4686792147999839e-05,-0.04207012206473382
109,238.7,213.948,642.522,-9.10048e-07,370.764,-0.0304982,-0.0525087,-0.00835876,0.0534745,-0.0434666,0.107275,-8.265e-06,-1.48773e-05,0.081962,-0.008323922698752484,0.11324035348599182,-8.264965844939631e-06,0.05493009070729116,-1.4877189333573071e-05,-0.042535467127683635
110,241.4,214.335,643.686,-9.30354e-07,371.435,-0.0305776,-0.0526457,-0.00845546,0.0540597,-0.0439521,0.108458,-8.37061e-06,-1.50676e-05,0.0829,-0.008419813139050158,0.11455809611525036,-8.370574966498623e-06,0.055547616466787186,-1.5067486484277026e-05,-0.04300020333455057
111,244.1,214.718,644.839,-9.50758e-07,372.1,-0.0306561,-0.0527809,-0.00855207,0.0546443,-0.0444372,0.10964,-8.47621e-06,-1.52579e-05,0.0838371,-0.008515605073598609,0.11587628267964578,-8.476174077065579e-06,0.05616487000900494,-1.525778359878771e-05,-0.04346433135256034
112,246.8,215.097,645.98,-9.71258e-07,372.758,-0.0307335,-0.0529145,-0.0086486,0.0552284,-0.0449219,0.11082,-8.58179e-06,-1.54482e-05,0.0847735,-0.008611308443043586,0.11719379387193607,-8.58175317652865e-06,0.056781956112029075,-1.5448080677216147e-05,-0.043927851847887056
113,249.5,215.473,647.11,-9.91853e-07,373.41,-0.03081,-0.0530464,-0.00874506,0.055812,-0.0454061,0.112,-8.68734e-06,-1.56384e-05,0.0857091,-0.008706933184175703,0.11851286064504518,-8.687302265220076e-06,0.05739887406076383,-1.563827772088633e-05,-0.044390669924723736
114,252.2,215.845,648.229,-1.01254e-06,374.055,-0.0308856,-0.0531767,-0.00884143,0.056395,-0.0458899,0.113179,-8.79287e-06,-1.58286e-05,0.0866438,-0.008802459494015591,0.11983236500271754,-8.792831342807617e-06,0.05801551733839094,-1.582847472836324e-05,-0.0448528819005215
115,254.9,216.214,649.337,-1.03333e-06,374.694,-0.0309602,-0.0533054,-0.00893772,0.0569775,-0.0463732,0.114356,-8.89837e-06,-1.60187e-05,0.0875778,-0.00889789731026347,0.1211511836688608,-8.898330409623512e-06,0.05863199090773641,-1.601857170130394e-05,-0.045314392969566075
116,257.6,216.579,650.435,-1.0542e-06,375.327,-0.0310339,-0.0534326,-0.00903393,0.0575594,-0.0468561,0.115532,-9.00385e-06,-1.62088e-05,0.088511,-0.00899324665670942,0.12247043302743754,-9.003809465446544e-06,0.05924818812843946,-1.6208668638162393e-05,-0.045775299354397725
117,260.3,216.94,651.523,-1.07517e-06,375.954,-0.0311068,-0.0535583,-0.00913007,0.0581408,-0.0473386,0.116708,-9.1093e-06,-1.63988e-05,0.0894433,-0.009088517466234847,0.12379123473586251,-9.10925851049793e-06,0.05986421408641074,-1.6398665540373614e-05,-0.046235601715584496
118,263.0,217.298,652.6,-1.09623e-06,376.575,-0.0311788,-0.0536826,-0.00922612,0.0587217,-0.0478207,0.117882,-9.21471e-06,-1.65888e-05,0.0903749,-0.009183689943400686,0.12511134039584237,-9.214667544665822e-06,0.06048006806584394,-1.6588662406613608e-05,-0.04669530071265049
119,265.8,217.653,653.668,-1.11739e-06,377.191,-0.03125,-0.0538055,-0.00932209,0.0593021,-0.0483023,0.119055,-9.3201e-06,-1.67788e-05,0.0913057,-0.009278774021994285,0.12643187033752445,-9.320056567951873e-06,0.061095749350774664,-1.6778659236771354e-05,-0.04715430171951318
120,268.5,218.005,654.726,-1.13863e-06,377.801,-0.0313204,-0.0539269,-0.00941798,0.0598819,-0.0487835,0.120227,-9.42545e-06,-1.69686e-05,0.0922357,-0.009373769725711467,0.12775282241627517,-9.425405580576474e-06,0.06171115105396208,-1.6968456034160972e-05,-0.04761270076986901
121,270.5,218.269,655.519,-1.27321e-06,378.258,-0.0313729,-0.0540177,-0.00949038,0.0603196,-0.0491468,0.121112,-9.50501e-06,-1.7112e-05,0.0929378,-0.009445488468533658,0.1287513254365289,-9.504964827544704e-06,0.06217596374161438,-1.7111853590545678e-05,-0.04795864023197094
