,Time,S11,S22,S33,S12,S13,S23,LE11,LE22,LE33,LE12,LE13,LE23,SDV_EPBAR,E11,E12,E13,E22,E23,E33
0,0.0002705,0.000519365,0.0015581,-7.79048e-12,0.000899567,2.21372e-21,3.68811e-20,2.50301e-10,6.7501e-09,-3.0004e-09,1.1258e-08,2.76762e-26,4.61603e-25,0.0,2.5030089112476617e-10,1.1258000087721598e-08,0.0,6.750100034480511e-09,0.0,-3.0004000395322805e-09
1,0.000541,0.00103873,0.00311619,4.33681e-19,0.00179913,-3.08331e-20,-2.03577e-20,5.00425e-10,1.35001e-08,-6.00057e-09,2.25162e-08,-1.63975e-24,4.6912e-25,0.0,5.00425034744012e-10,2.2516200237632233e-08,0.0,1.3500100148888805e-08,0.0,-6.000569929831556e-09
2,0.00094675,0.00181778,0.00545333,6.50521e-19,0.00314848,1.87371e-20,6.55005e-20,8.75688e-10,2.36252e-08,-1.05009e-08,3.94034e-08,-1.73568e-24,1.95724e-24,0.0,8.756879665838824e-10,3.9403400764470575e-08,0.0,2.3625200240573463e-08,0.0,-1.0500899927379237e-08
3,0.0015554,0.00298635,0.00895905,1.73472e-18,0.00517251,4.73565e-20,4.89771e-20,1.4375e-09,3.88125e-08,-1.725e-08,6.47354e-08,4.1359e-25,7.16359e-25,0.0,1.4374998968946784e-09,6.473540214990692e-08,0.0,3.8812500768869995e-08,0.0,-1.7249999872959165e-08
4,0.0024683,0.00473921,0.0142176,0.0,0.00820854,1.00168e-19,-5.78319e-20,2.28125e-09,6.15937e-08,-2.7375e-08,1.02732e-07,-7.41318e-35,-1.284e-34,0.0,2.281250077729169e-09,1.027320053470504e-07,0.0,6.159370191660685e-08,0.0,-2.7374999600482397e-08
5,0.0038377,0.00736849,0.0221055,-8.67362e-19,0.0127626,9.88226e-21,-8.20239e-20,3.54688e-09,9.57656e-08,-4.25625e-08,1.59728e-07,7.653e-32,1.32554e-31,0.0,3.5468799008953056e-09,1.597280128162737e-07,0.0,9.576560455748506e-08,0.0,-4.256249908074494e-08
6,0.0058918,0.0113124,0.0339373,-6.07153e-18,0.0195937,-4.73565e-20,-4.89771e-20,5.44671e-09,1.47024e-07,-6.53456e-08,2.45219e-07,-1.14621e-23,6.61761e-24,0.0,5.446709971934638e-09,2.452190299706558e-07,0.0,1.4702401074373483e-07,0.0,-6.534559782167548e-08
7,0.008973,0.0172283,0.0516849,7.80626e-18,0.0298403,6.7121e-20,-1.15071e-19,8.29297e-09,2.2391e-07,-9.95156e-08,3.7346e-07,1.78232e-31,3.08708e-31,0.0,8.292970088419338e-09,3.734600697580248e-07,0.0,2.2391002496569e-07,0.0,-9.951559509779884e-08
8,0.013595,0.0261021,0.0783064,9.54098e-18,0.0452102,-1.3116e-19,-4.58503e-19,1.25671e-08,3.39241e-07,-1.50777e-07,5.65816e-07,2.77687e-23,-3.13146e-23,0.0,1.2567100027283118e-08,5.658161601473921e-07,0.0,3.392410574676319e-07,0.0,-1.5077698867216327e-07
9,0.020527,0.0394129,0.118239,6.07153e-18,0.0682651,-4.56883e-19,3.48265e-20,1.89735e-08,5.12236e-07,-2.27663e-07,8.54355e-07,1.1462e-23,-6.61759e-24,0.0,1.8973500104380037e-08,8.543553648987512e-07,0.0,5.122361312892565e-07,0.0,-2.276629741393421e-07
10,0.030926,0.059379,0.178137,-8.67362e-19,0.102847,-1.54031e-18,-2.55477e-19,2.8587e-08,7.71729e-07,-3.42996e-07,1.28716e-06,-2.95414e-23,1.77334e-24,0.0,2.858700032248862e-08,1.2871608283671065e-06,0.0,7.717292977993395e-07,0.0,-3.429959412049044e-07
11,0.046525,0.0893282,0.267985,-4.94396e-17,0.154721,-5.5365e-19,3.95969e-19,4.30043e-08,1.16097e-06,-5.15992e-07,1.93637e-06,-9.16942e-23,5.29396e-23,0.0,4.300430100911967e-08,1.9363718748444114e-06,0.0,1.1609706738191505e-06,0.0,-5.159918669006558e-07
12,0.069922,0.134252,0.402756,-2.1684e-17,0.232531,2.20493e-19,-2.49317e-18,6.46307e-08,1.74483e-06,-7.75487e-07,2.91018e-06,-5.29397e-23,-9.16942e-23,0.0,6.463070212348043e-08,2.910184234483637e-06,0.0,1.744831522154655e-06,0.0,-7.754866993003873e-07
13,0.105,0.201637,0.604912,1.99493e-17,0.349246,-1.22407e-18,-2.88023e-18,9.70596e-08,2.62061e-06,-1.16471e-06,4.37091e-06,-1.05879e-22,-1.83388e-22,0.0,9.705960479777787e-08,4.370919552521002e-06,0.0,2.62061343381248e-06,0.0,-1.1647093217659332e-06
14,0.1577,0.302715,0.908146,-9.1073e-17,0.524319,2.72256e-18,-2.74454e-19,1.45719e-07,3.93429e-06,-1.74858e-06,6.56199e-06,1.03982e-22,-2.43423e-22,0.0,1.4571901063575865e-07,6.562011529931411e-06,0.0,3.934297739371928e-06,0.0,-1.748578471238993e-06
15,0.2366,0.454332,1.363,-7.80626e-18,0.786926,-1.38381e-17,-7.8084e-18,2.18705e-07,5.90479e-06,-2.62436e-06,9.8486e-06,-2.11758e-22,-3.66776e-22,0.0,2.1870502386889257e-07,9.848648497623458e-06,0.0,5.904807433232406e-06,0.0,-2.624356556402141e-06
16,0.3551,0.681756,2.04527,4.77049e-17,1.18084,-5.94481e-18,-2.59681e-18,3.28182e-07,8.86055e-06,-3.93804e-06,1.47785e-05,5.57568e-28,9.65736e-28,0.0,3.281820537548441e-07,1.4778609202625859e-05,0.0,8.860589254755524e-06,0.0,-3.938032245964784e-06
17,0.5328,1.02289,3.06867,7.13839e-16,1.7717,-5.94479e-18,-2.59677e-18,4.92389e-07,1.32942e-05,-5.90853e-06,2.21733e-05,8.36561e-28,1.44897e-27,0.0,4.923891212538223e-07,2.2173545829451413e-05,0.0,1.3294288368159712e-05,0.0,-5.908512544672284e-06
18,0.7993,1.53459,4.60377,-2.85362e-16,2.65799,-3.98145e-18,-3.30361e-17,7.38697e-07,1.99445e-05,-8.86424e-06,3.32654e-05,7.35553e-27,1.27402e-26,0.0,7.38697272906208e-07,3.326595329955495e-05,0.0,1.9944698892881974e-05,0.0,-8.864200712777048e-06
19,1.199,2.30213,6.90638,-1.61763e-15,3.9874,2.21215e-18,-5.61484e-17,1.10814e-06,2.99199e-05,-1.32977e-05,4.99034e-05,-4.23505e-22,-7.33532e-22,0.0,1.1081406139368255e-06,4.990464519538662e-05,0.0,2.992034760462836e-05,0.0,-1.3297611585971758e-05
20,1.799,3.45341,10.3602,-3.17194e-15,5.98148,6.53581e-17,-1.44564e-17,1.66234e-06,4.48827e-05,-1.99479e-05,7.48599e-05,-1.09041e-26,-1.88864e-26,0.0,1.6623413816585497e-06,7.486270207235357e-05,0.0,4.4883707243537074e-05,0.0,-1.994770104196686e-05
21,2.698,5.18029,15.5409,-2.8485e-14,8.97252,-6.87866e-17,2.39178e-17,2.49357e-06,6.73263e-05,-2.99228e-05,0.000112294,-4.23518e-22,-7.33555e-22,0.0,2.4935731088859825e-06,0.00011230030520725798,0.0,6.732856646629592e-05,0.0,-2.9922352317468537e-05
22,4.047,31.1929,93.5787,-1.03264e-09,54.0277,-8.08225e-16,-1.7395e-16,1.5015e-05,0.000405403,-0.000180179,0.000676171,-3.02527e-20,1.82072e-21,0.0,1.5015112725613733e-05,0.0006763996551444329,0.0,0.00040548518690219915,0.0,-0.00018016276873877857
23,6.071,70.3658,211.097,-9.04826e-07,121.877,1.29847e-16,-7.14917e-16,3.38711e-05,0.000914519,-0.000406453,0.00152533,-2.03309e-20,-3.52142e-20,0.0,3.3871673632113186e-05,0.0015264939075101402,0.0,0.0009149373000056915,0.0,-0.00040637040916957634
24,8.776,121.29,363.876,0.000105313,210.083,-9.52859e-05,-0.000164997,5.5531e-05,0.00159321,-0.000714586,0.00266337,-1.21004e-09,-2.09667e-09,2.72209e-05,5.553254187451451e-05,0.0026669199207631777,-1.210039957122433e-09,0.0015944798333329402,-2.0966699487701135e-09,-0.0007143307442286639
25,11.48,127.264,381.937,0.0692496,220.534,-0.00202277,-0.00349553,-3.69931e-05,0.00223265,-0.00121509,0.00393297,-3.66371e-08,-6.42332e-08,0.000935568,-3.69924157637147e-05,0.003940714275850077,-3.663709935430859e-08,0.0022351442189052495,-6.423319798276594e-08,-0.0012143520770572236
26,14.19,132.239,396.781,0.000115933,229.063,-0.00364726,-0.00630607,-0.000131521,0.00287076,-0.00172065,0.00520369,-7.70077e-08,-1.35689e-07,0.0018641,-0.00013151235149233553,0.005217252709982301,-7.700769699692245e-08,0.0028748845774353438,-1.35688990821059e-07,-0.0017191705304601124
27,16.89,136.438,409.402,-4.41068e-06,236.343,-0.00497262,-0.00859427,-0.000228088,0.00350751,-0.00222845,0.00647562,-1.2045e-07,-2.12928e-07,0.00280607,-0.00022806198990965587,0.0064966321582902165,-1.204499927576208e-07,0.0035136685114418587,-2.1292797736105484e-07,-0.0022259688486814255
28,19.6,140.1,420.41,4.82128e-06,242.692,-0.00610222,-0.0105431,-0.000325917,0.00414317,-0.00273803,0.00774785,-1.67001e-07,-2.9596e-07,0.00375758,-0.000325863894824141,0.007777942256369963,-1.6700098603994462e-07,0.004151764794623425,-2.959599562091242e-07,-0.0027342850146001574
29,22.3,143.353,430.187,2.19486e-06,248.332,-0.00708209,-0.0122327,-0.000424682,0.00477785,-0.00324886,0.00901999,-2.16297e-07,-3.84085e-07,0.00471612,-0.0004245918353635858,0.009060792697505038,-2.162969766628109e-07,0.004789282125052807,-3.8408492619712575e-07,-0.0032435881650466625
30,25.01,146.284,438.994,9.86047e-07,253.412,-0.0079445,-0.0137189,-0.000524165,0.00541162,-0.00376054,0.0102918,-2.68024e-07,-4.76703e-07,0.00567997,-0.0005240276495254159,0.010344942728598205,-2.6802396413394547e-07,0.005426289265070494,-4.767028863872369e-07,-0.0037534780245080945
31,27.71,148.953,447.017,4.08143e-07,258.04,-0.00871263,-0.015042,-0.000624208,0.00604454,-0.00427284,0.0115631,-3.21909e-07,-5.733e-07,0.00664795,-0.0006240132227157691,0.011630211062000573,-3.219089481643067e-07,0.006062845095280656,-5.732998357155239e-07,-0.004263724406945668
32,30.42,151.407,454.39,1.25563e-07,262.293,-0.00940363,-0.0162319,-0.000724697,0.00667665,-0.00478553,0.0128337,-3.77722e-07,-6.73441e-07,0.00761915,-0.0007244344705510386,0.012916405354371108,-3.77721928623842e-07,0.006698988515420945,-6.734407732578163e-07,-0.004774097595285132
33,33.12,153.679,461.218,-1.07881e-08,266.232,-0.0100305,-0.0173109,-0.000825544,0.00730798,-0.0052985,0.0141036,-4.35261e-07,-7.7675e-07,0.00859291,-0.0008252033323038477,0.014203524981165616,-4.3526090531820216e-07,0.007334748453884821,-7.767496983390743e-07,-0.005284487707841734
34,35.83,155.795,467.579,-7.21226e-08,269.901,-0.0106033,-0.0182965,-0.000926683,0.00793855,-0.0058116,0.0153727,-4.94354e-07,-8.82908e-07,0.0095687,-0.0009262537619081357,0.01549146776594812,-4.943538778334755e-07,0.00797014383579664,-8.829076102445654e-07,-0.005794745319413819
35,38.53,157.778,473.537,-9.42572e-08,273.338,-0.0111299,-0.0192024,-0.00102806,0.00856838,-0.00632477,0.0166409,-5.54853e-07,-9.91637e-07,0.0105461,-0.0010275317273658047,0.016780131014018096,-5.548528461130076e-07,0.008605193637204023,-9.916365083517675e-07,-0.0063048107436278755
36,41.24,159.643,479.144,-9.59302e-08,276.572,-0.0116168,-0.0200397,-0.00112963,0.00919749,-0.00683792,0.0179082,-6.16627e-07,-1.1027e-06,0.0115248,-0.0011289922082102777,0.01806951331858153,-6.166268098350969e-07,0.009239916885009913,-1.1026993920193462e-06,-0.006814594621009973
37,43.94,161.406,484.44,-8.7232e-08,279.627,-0.012069,-0.0208172,-0.00123136,0.00982589,-0.007351,0.0191745,-6.79562e-07,-1.21588e-06,0.0125046,-0.0012306021873537132,0.019359511333162382,-6.795617690791289e-07,0.009874322558166337,-1.2158792608296665e-06,-0.007324047482588636
38,46.65,163.077,489.461,-7.37006e-08,282.524,-0.0124908,-0.0215423,-0.00133322,0.0104536,-0.00786396,0.0204399,-7.43558e-07,-1.33099e-06,0.0134851,-0.0013323316570452715,0.020650225321315663,-7.43557723614785e-07,0.010508429766076244,-1.3309891142565533e-06,-0.007833119961120016
39,49.35,164.665,494.235,-5.8401e-08,285.278,-0.0128858,-0.0222211,-0.00143518,0.0110806,-0.00837675,0.0217042,-8.08527e-07,-1.44788e-06,0.0144662,-0.0014341506216903888,0.021941449476541974,-8.085266731683305e-07,0.011142217223144346,-1.4478789518435065e-06,-0.008341762790910923
40,52.06,166.18,498.788,-4.30216e-08,287.904,-0.0132568,-0.0228587,-0.00153723,0.0117069,-0.00888935,0.0229674,-8.7439e-07,-1.5664e-06,0.0154478,-0.0015360490671627591,0.023233181601765462,-8.743896177110244e-07,0.011775693946320054,-1.566398773245048e-06,-0.008849956542118287
41,54.76,167.628,503.139,-2.84702e-08,290.414,-0.0136065,-0.0234595,-0.00163935,0.0123326,-0.00940172,0.0242296,-9.41077e-07,-1.68641e-06,0.0164297,-0.0016380069997714575,0.02452552194800184,-9.41076557237075e-07,0.012408960094676402,-1.686408578005505e-06,-0.009357662012252077
42,57.47,169.015,507.307,-1.52075e-08,292.818,-0.0139369,-0.0240271,-0.00174152,0.0129576,-0.00991384,0.0254908,-1.00852e-06,-1.80781e-06,0.0174118,-0.0017400044339687115,0.0258184686971199,-1.0085194914744022e-06,0.01304191347206185,-1.8078083658945587e-06,-0.00986485988221042
43,60.17,170.347,511.309,-3.43716e-09,295.127,-0.0142499,-0.0245648,-0.00184373,0.0135819,-0.0104257,0.0267508,-1.07668e-06,-1.93049e-06,0.018394,-0.0018420313739399008,0.02711181460448997,-1.076679420397575e-06,0.013674552996522538,-1.930488136570041e-06,-0.010371540769129273
44,62.88,171.627,515.157,6.78424e-09,297.346,-0.0145472,-0.0250752,-0.00194596,0.0142056,-0.0109372,0.0280097,-1.14548e-06,-2.05436e-06,0.0193762,-0.0019440678473893191,0.02840565990794519,-1.1454793439336086e-06,0.014306979016779797,-2.0543578898024606e-06,-0.010877606288735686
45,65.58,172.861,518.864,1.54826e-08,299.485,-0.01483,-0.0255609,-0.00204821,0.0148286,-0.0114485,0.0292676,-1.21489e-06,-2.17933e-06,0.0203583,-0.002046113849261122,0.029700105358324347,-1.2148892619689988e-06,0.014939089146567497,-2.179327625251304e-06,-0.011383215298681693
46,68.29,174.051,522.44,2.27282e-08,301.548,-0.0150996,-0.0260239,-0.00215047,0.0154509,-0.0119594,0.0305243,-1.28487e-06,-2.30532e-06,0.0213403,-0.0021481593959811196,0.03099494292150018,-1.284869174500436e-06,0.015570882303795441,-2.3053173427989293e-06,-0.011888170612167182
47,70.99,175.2,525.895,2.8613e-08,303.541,-0.0153572,-0.0264661,-0.00225273,0.0160727,-0.01247,0.0317799,-1.35537e-06,-2.43227e-06,0.0223221,-0.0022501945080570795,0.0322902732100101,-1.3553690815237829e-06,0.016202560646856323,-2.4322670419962833e-06,-0.012392571727689261
48,73.7,176.312,529.237,3.32371e-08,305.468,-0.0156036,-0.0268891,-0.00235499,0.0166937,-0.0129803,0.0330343,-1.42637e-06,-2.56011e-06,0.0233037,-0.002352219186556148,0.03358599063278955,-1.426368982704318e-06,0.01683381842227072,-2.5601067229485963e-06,-0.012896419230712497
49,76.4,177.389,532.474,3.67012e-08,307.336,-0.0158396,-0.0272944,-0.00245723,0.0173142,-0.0134902,0.0342876,-1.49782e-06,-2.68878e-06,0.0242849,-0.0024542134816291084,0.03488219605230647,-1.4978188782599489e-06,0.017464959597901286,-2.6887763852068147e-06,-0.013399615045871283
50,79.11,178.434,535.613,3.91027e-08,309.146,-0.0160662,-0.0276833,-0.00255945,0.017934,-0.0139997,0.0355398,-1.56971e-06,-2.81824e-06,0.0252658,-0.002556177400462434,0.03617888722711271,-1.5697087679678035e-06,0.01809577985086208,-2.818236028767629e-06,-0.013902159907830502
51,81.81,179.448,538.659,4.0533e-08,310.904,-0.0162838,-0.0280569,-0.00266165,0.0185532,-0.0145089,0.0367909,-1.64199e-06,-2.94842e-06,0.0262463,-0.0026581109502389344,0.03747606191134634,-1.641988651934767e-06,0.018726379971395257,-2.9484156534032024e-06,-0.014404153109689566
52,84.52,180.433,541.619,4.1076e-08,312.611,-0.0164933,-0.0284164,-0.00276382,0.0191717,-0.0150176,0.0380408,-1.71466e-06,-3.07928e-06,0.0272265,-0.002760004165739627,0.03877361397736778,-1.714658529938795e-06,0.01935665713052659,-3.0792752589992034e-06,-0.014905398214501098
53,87.22,181.391,544.498,4.08093e-08,314.272,-0.016695,-0.0287626,-0.00286596,0.0197896,-0.015526,0.0392895,-1.78768e-06,-3.21079e-06,0.0282061,-0.002861857057198436,0.04007154078109143,-1.7876784020876002e-06,0.01998671224444859,-3.2107848454421273e-06,-0.015406093022644063
54,89.93,182.323,547.3,3.98027e-08,315.888,-0.0168895,-0.0290964,-0.00296806,0.0204069,-0.016034,0.0405371,-1.86103e-06,-3.3429e-06,0.0291853,-0.0029636596644813107,0.04136994381076575,-1.8610282682685053e-06,0.0206165444196178,-3.3428944125057924e-06,-0.0159061397047775
55,92.63,183.231,550.029,3.81199e-08,317.462,-0.0170773,-0.0294187,-0.00307013,0.0210236,-0.0165416,0.0417836,-1.93469e-06,-3.47557e-06,0.030164,-0.003065421970211868,0.042668820802632235,-1.9346881284798556e-06,0.021246152762339543,-3.4755639601868893e-06,-0.016405538990001967
56,95.34,184.116,552.689,3.58175e-08,318.997,-0.0172587,-0.0297301,-0.00317215,0.0216397,-0.0170489,0.0430289,-2.00865e-06,-3.60878e-06,0.0311422,-0.003167124047951164,0.04396806509173157,-2.0086479826098014e-06,0.021875536378771043,-3.6087734883727407e-06,-0.01690438991583665
57,98.04,184.98,555.285,3.29477e-08,320.494,-0.0174342,-0.0300313,-0.00327412,0.0222551,-0.0175557,0.044273,-2.08288e-06,-3.74248e-06,0.0321198,-0.003268765914013372,0.04526767401561704,-2.0828778307668827e-06,0.022504592124458656,-3.7424729969481874e-06,-0.01740249654014736
58,100.7,185.823,557.818,2.95563e-08,321.956,-0.017604,-0.0303228,-0.00337605,0.0228699,-0.0180621,0.045516,-2.15737e-06,-3.87666e-06,0.0330969,-0.0033703575509981265,0.04656774956398202,-2.15736767283925e-06,0.023133421229956763,-3.8766524858013796e-06,-0.01789995794804
59,103.5,186.646,560.293,2.56854e-08,323.383,-0.0177686,-0.0306053,-0.00347793,0.0234841,-0.018568,0.0467579,-2.23211e-06,-4.01128e-06,0.0340734,-0.0034718890068705655,0.04786828945525734,-2.2321075088260756e-06,0.023762022801057547,-4.011271954817985e-06,-0.018396676703711035
60,106.2,187.451,562.712,2.1372e-08,324.779,-0.0179282,-0.0308791,-0.00357975,0.0240977,-0.0190736,0.0479986,-2.30708e-06,-4.14632e-06,0.0350493,-0.003573350333648029,0.04916918648658131,-2.307077338725705e-06,0.024390395943412857,-4.14631140399635e-06,-0.018892849900815634
61,108.9,188.238,565.078,1.66501e-08,326.143,-0.018083,-0.0311449,-0.00368152,0.0247107,-0.0195788,0.0492381,-2.38227e-06,-4.28175e-06,0.0360246,-0.003674751513898067,0.0504704379772436,-2.382267162426288e-06,0.02501853976253665,-4.281740833333991e-06,-0.01938838005159027
62,111.6,189.009,567.392,1.15508e-08,327.478,-0.0182334,-0.031403,-0.00378323,0.0253231,-0.0200835,0.0504764,-2.45766e-06,-4.41755e-06,0.0369992,-0.0037760826016417504,0.05177204124193002,-2.4576569799261705e-06,0.025646453363808108,-4.41754024260721e-06,-0.01988316986546579
63,114.3,189.763,569.658,6.10079e-09,328.786,-0.0183795,-0.0316538,-0.00388489,0.0259349,-0.0205878,0.0517137,-2.53324e-06,-4.5537e-06,0.0379732,-0.003877353577393605,0.05307420420555187,-2.533236791335547e-06,0.02627413585247096,-4.553689631925373e-06,-0.02037731817293431
64,117.0,190.501,571.878,3.2505e-10,330.066,-0.0185216,-0.0318976,-0.00398648,0.0265461,-0.0210917,0.0529497,-2.60901e-06,-4.69018e-06,0.0389466,-0.003978544536961892,0.054376608642084934,-2.609006596543395e-06,0.02690158633363815,-4.6901690011758035e-06,-0.02087082569264509
65,119.7,191.225,574.053,-5.75397e-09,331.321,-0.0186599,-0.0321349,-0.00408802,0.0271566,-0.0215951,0.0541846,-2.68495e-06,-4.82698e-06,0.0399192,-0.0040796754210477015,0.05567946259770351,-2.68494639554806e-06,0.027528701159417857,-4.82696835013563e-06,-0.02136359527848042
66,122.4,191.935,576.186,-1.21156e-08,332.551,-0.0187944,-0.0323659,-0.00418949,0.0277666,-0.0220982,0.0554184,-2.76105e-06,-4.96406e-06,0.0408913,-0.004180726329478079,0.056982763759812816,-2.7610461883487147e-06,0.028155684877717357,-4.9640476790235866e-06,-0.021855823423323595
67,125.1,192.631,578.277,-1.87414e-08,333.757,-0.0189256,-0.032591,-0.00429089,0.028376,-0.0226007,0.056651,-2.83731e-06,-5.10142e-06,0.0418626,-0.00428169728451433,0.058286403982840795,-2.8373059748343366e-06,0.028782433903113747,-5.101406987728652e-06,-0.02234721739897705
68,127.8,193.313,580.329,-2.56148e-08,334.941,-0.0190534,-0.0328104,-0.00439223,0.0289847,-0.0231029,0.0578824,-2.9137e-06,-5.23905e-06,0.0428332,-0.004382598264572768,0.059590380554306766,-2.913695755224488e-06,0.029408844399323675,-5.2390362762499976e-06,-0.0228380713626527
69,130.5,193.984,582.344,-3.27201e-08,336.103,-0.019178,-0.0330243,-0.0044935,0.0295929,-0.0236046,0.0591127,-2.99024e-06,-5.37692e-06,0.0438032,-0.004483419333685346,0.060894796846650445,-2.990235529187757e-06,0.030035121289984534,-5.3769055443630975e-06,-0.023328190545572558
70,133.2,194.642,584.322,-4.00441e-08,337.244,-0.0192996,-0.0332331,-0.00459471,0.0302005,-0.0241059,0.0603418,-3.0669e-06,-5.51502e-06,0.0447724,-0.004584170468217463,0.06219954430975272,-3.066895297054728e-06,0.03066116080122372,-5.515004792289169e-06,-0.023817673424517904
71,135.9,195.289,586.265,-4.75734e-08,338.365,-0.0194183,-0.0334369,-0.00469585,0.0308075,-0.0246068,0.0615698,-3.14368e-06,-5.65333e-06,0.0457409,-0.004684841734184597,0.0635047265680555,-3.143675058603357e-06,0.031286962037290644,-5.653314019915534e-06,-0.024306520709875823
72,138.6,195.924,588.175,-5.52967e-08,339.467,-0.0195343,-0.033636,-0.00479692,0.0314139,-0.0251072,0.0627967,-3.22058e-06,-5.79186e-06,0.0467087,-0.004785433153757457,0.06481034128265195,-3.2205748139446655e-06,0.03191252410231904,-5.791843227243021e-06,-0.024794635590384306
73,141.3,196.549,590.052,-6.32033e-08,340.549,-0.0196475,-0.0338305,-0.00489791,0.0320197,-0.0256072,0.0640223,-3.29758e-06,-5.93057e-06,0.0476757,-0.004885934797947189,0.06611617288707805,-3.297574562965977e-06,0.03253784610032917,-5.930552414157297e-06,-0.025282116392232656
74,144.0,197.163,591.898,-7.12832e-08,341.614,-0.0197583,-0.0340207,-0.00499884,0.0326249,-0.0261068,0.0652469,-3.37469e-06,-6.06947e-06,0.0486421,-0.004986366592172442,0.06742253847678925,-3.374684305779141e-06,0.03316292713523139,-6.069451580770213e-06,-0.025768963822268676
75,146.7,197.767,593.713,-7.95279e-08,342.661,-0.0198666,-0.0342067,-0.0050997,0.0332295,-0.0266059,0.0664703,-3.45188e-06,-6.20854e-06,0.0496076,-0.005086718606400753,0.0687292223459075,-3.451874042270653e-06,0.03378776631082636,-6.2085207270801135e-06,-0.026255081211739473
76,149.4,198.361,595.5,-8.79288e-08,343.692,-0.0199726,-0.0343886,-0.00520048,0.0338336,-0.0271046,0.0676925,-3.52917e-06,-6.34777e-06,0.0505725,-0.005186980914597017,0.07003622174609547,-3.5291637724421676e-06,0.03441246617204974,-6.347749852975149e-06,-0.02674056673686176
77,152.1,198.946,597.258,-9.64788e-08,344.706,-0.0200763,-0.0345668,-0.00530119,0.0344371,-0.0276028,0.0689136,-3.60654e-06,-6.48716e-06,0.0515366,-0.005287163488970847,0.07134364105887481,-3.6065334964030527e-06,0.03503692250613044,-6.4871389584553185e-06,-0.027225323823496628
78,154.8,199.522,598.988,-1.0517e-07,345.704,-0.0201778,-0.0347412,-0.00540182,0.0350399,-0.0281006,0.0701336,-3.68399e-06,-6.62668e-06,0.0524999,-0.005387256405449459,0.07265147791923621,-3.683983214153308e-06,0.035661030850373976,-6.626658043629163e-06,-0.0277094505481581
79,157.6,200.089,600.693,-1.13997e-07,346.687,-0.0202773,-0.0349121,-0.00550238,0.0356422,-0.028598,0.0713524,-3.76151e-06,-6.76634e-06,0.0534625,-0.005487269634195879,0.07395962256193478,-3.761502925581084e-06,0.03628499737791202,-6.766317108386488e-06,-0.028192947611767383
80,160.3,200.648,602.372,-1.22954e-07,347.656,-0.0203748,-0.0350795,-0.00560287,0.0362439,-0.0290949,0.0725701,-3.8391e-06,-6.90612e-06,0.0544243,-0.0055872031972243885,0.07526817974767797,-3.83909263068638e-06,0.036908717688271864,-6.9060961528366605e-06,-0.028675718581718357
81,163.0,201.198,604.025,-1.32034e-07,348.61,-0.0204703,-0.0352436,-0.00570328,0.0368451,-0.0295914,0.0737867,-3.91676e-06,-7.04601e-06,0.0553854,-0.005687047173400628,0.07657714709854635,-3.9167523294691975e-06,0.03753229463779473,-7.045985176978853e-06,-0.029157861385586847
82,165.7,201.74,605.655,-1.41234e-07,349.55,-0.020564,-0.0354046,-0.00580361,0.0374456,-0.0300874,0.0750021,-3.99447e-06,-7.18602e-06,0.0563457,-0.005786801587693846,0.07788641444372524,-3.994462022149925e-06,0.038155519885377576,-7.185994180591848e-06,-0.02963927968473168
83,168.4,202.275,607.262,-1.50547e-07,350.477,-0.0206559,-0.0355625,-0.00590387,0.0380456,-0.030583,0.0762164,-4.07224e-06,-7.32613e-06,0.0573052,-0.005886476406184449,0.07919608692350155,-4.072231708396323e-06,0.038778600102681526,-7.326103164007058e-06,-0.03012007130771477
84,171.1,202.802,608.846,-1.5997e-07,351.39,-0.0207461,-0.0357175,-0.00600405,0.038645,-0.0310782,0.0774295,-4.15006e-06,-7.46633e-06,0.0582639,-0.005986061710667068,0.08050605409649036,-4.150051388540632e-06,0.03940143063924717,-7.466302127001612e-06,-0.03060023694957792
85,173.8,203.322,610.408,-1.69499e-07,352.291,-0.0208346,-0.0358696,-0.00610416,0.0392439,-0.0315729,0.0786415,-4.22793e-06,-7.60661e-06,0.0592219,-0.006085567465185404,0.08181642135621003,-4.2279210623608066e-06,0.04002411460015698,-7.606581069796725e-06,-0.03107968041224074
86,176.5,203.834,611.948,-1.7913e-07,353.18,-0.0209215,-0.0360189,-0.00620419,0.0398421,-0.0320672,0.0798524,-4.30585e-06,-7.74698e-06,0.0601791,-0.0061849837534834196,0.08312718630330518,-4.305840729856847e-06,0.040646443145420985,-7.746949992282204e-06,-0.0315584993763568
87,179.2,204.34,613.468,-1.88859e-07,354.057,-0.0210069,-0.0361656,-0.00630413,0.0404398,-0.032561,0.0810622,-4.3838e-06,-7.88743e-06,0.0611355,-0.006284300663258358,0.08443834653419913,-4.38379039113812e-06,0.041268623444548735,-7.887398894346198e-06,-0.032036597737164496
88,181.9,204.839,614.968,-1.98683e-07,354.922,-0.0210907,-0.0363098,-0.00640401,0.0410369,-0.0330544,0.0822708,-4.46179e-06,-8.02794e-06,0.0620911,-0.006383548030812203,0.0857497910661138,-4.461780046205455e-06,0.041890550597481147,-8.027907776209098e-06,-0.03251407307698817
89,184.6,205.331,616.448,-2.08599e-07,355.775,-0.0211731,-0.0364514,-0.0065038,0.0416335,-0.0335474,0.0834783,-4.53982e-06,-8.16851e-06,0.063046,-0.006482696069480487,0.08706162579965238,-4.5398096950588496e-06,0.042512327957711316,-8.16847663775988e-06,-0.03299092608503662
90,187.3,205.817,617.909,-2.18605e-07,356.618,-0.0212541,-0.0365907,-0.00660351,0.0422295,-0.0340399,0.0846847,-4.61788e-06,-8.30915e-06,0.064,-0.006581754741203261,0.08837384831848971,-4.6178693375864555e-06,0.04313385050049412,-8.309115479110396e-06,-0.03346706079614281
91,190.0,206.297,619.352,-2.28697e-07,357.45,-0.0213338,-0.0367276,-0.00670315,0.0428249,-0.034532,0.0858899,-4.69597e-06,-8.44984e-06,0.0649533,-0.006680734003932098,0.08968634723346147,-4.695958973899295e-06,0.043755117327863635,-8.449804300147967e-06,-0.03394257464574646
92,192.7,206.771,620.776,-2.38873e-07,358.272,-0.0214121,-0.0368623,-0.0068027,0.0434197,-0.0350236,0.087094,-4.77408e-06,-8.59057e-06,0.0659058,-0.006779614015027691,0.09099922882590383,-4.774068604107562e-06,0.04437612754177889,-8.590533101204834e-06,-0.034417371761357396
93,195.4,207.239,622.183,-2.49131e-07,359.083,-0.0214892,-0.0369948,-0.00690218,0.044014,-0.0355148,0.0882971,-4.85222e-06,-8.73135e-06,0.0668575,-0.006878414664599708,0.09231259989805296,-4.85220822799004e-06,0.04499698474382097,-8.731311881837733e-06,-0.03489154948076645
94,198.1,207.702,623.572,-2.59468e-07,359.885,-0.021565,-0.0371253,-0.00700158,0.0446077,-0.0360056,0.089499,-4.93038e-06,-8.87217e-06,0.0678084,-0.006977126044145243,0.09362623968556427,-4.9303678456569244e-06,0.045617583660222616,-8.872130642378906e-06,-0.035365108487394825
95,200.8,208.158,624.945,-2.69884e-07,360.677,-0.0216396,-0.0372536,-0.00710089,0.0452009,-0.0364959,0.0906997,-5.00856e-06,-9.01302e-06,0.0687585,-0.007075738249087804,0.09494014535697204,-5.008547457219237e-06,0.04623802801645205,-9.012979382827524e-06,-0.03583795304738724
96,203.5,208.61,626.302,-2.80374e-07,361.459,-0.0217131,-0.03738,-0.00720013,0.0457935,-0.0369858,0.0918994,-5.08675e-06,-9.1539e-06,0.0697078,-0.007174271163539747,0.09625453332733303,-5.086737062454105e-06,0.046858212414342404,-9.153858103183588e-06,-0.03631018035266642
97,206.2,209.056,627.642,-2.90938e-07,362.232,-0.0217854,-0.0375045,-0.00729929,0.0463855,-0.0374752,0.093098,-5.16496e-06,-9.29481e-06,0.0706563,-0.007272714881890852,0.09756929178832152,-5.164946661584402e-06,0.04747813595535466,-9.294766803336074e-06,-0.036781694761414796
98,208.9,209.497,628.968,-3.01575e-07,362.997,-0.0218567,-0.0376271,-0.00739836,0.046977,-0.0379643,0.0942954,-5.24318e-06,-9.43574e-06,0.0716041,-0.007371059502446431,0.09888430840163664,-5.243166254609299e-06,0.048097902550673144,-9.435695483506201e-06,-0.03725268964331929
99,211.7,209.932,630.277,-3.12282e-07,363.752,-0.0219269,-0.037748,-0.00749736,0.0475679,-0.0384528,0.0954918,-5.32141e-06,-9.57669e-06,0.072551,-0.00746932490333807,0.10019980035858334,-5.321395841306753e-06,0.04871740661574053,-9.576644143693969e-06,-0.037722876851852716
100,214.4,210.363,631.573,-3.23057e-07,364.499,-0.0219961,-0.037867,-0.00759627,0.0481583,-0.0389409,0.096687,-5.39965e-06,-9.71765e-06,0.0734971,-0.007567491257514769,0.10151554529251583,-5.399635421898807e-06,0.04933675218542821,-9.717602783787527e-06,-0.038192449707083576
101,217.1,210.789,632.853,-3.33901e-07,365.238,-0.0220643,-0.0379844,-0.00769511,0.0487481,-0.0394286,0.0978811,-5.47789e-06,-9.85863e-06,0.0744424,-0.007665578439130516,0.10283165062945776,-5.477874996384635e-06,0.049955833551015294,-9.858581403898725e-06,-0.03866140888437053
102,219.8,211.211,634.12,-3.44811e-07,365.968,-0.0221315,-0.0381001,-0.00779386,0.0493374,-0.0399159,0.0990741,-5.55614e-06,-9.99961e-06,0.075387,-0.007763566625013429,0.10414811390286327,-5.556124564654041e-06,0.05057475487098251,-9.99956000402591e-06,-0.03912975505800831
103,222.5,211.628,635.372,-3.55786e-07,366.691,-0.0221978,-0.0382143,-0.00789253,0.0499261,-0.0404027,0.100266,-5.63439e-06,-1.01406e-05,0.0763307,-0.007861465763960962,0.10546493264205936,-5.634374126817221e-06,0.051193410312537546,-1.0140548584280928e-05,-0.03959739286096986
104,225.2,212.04,636.612,-3.66825e-07,367.406,-0.0222632,-0.0383269,-0.00799113,0.0505142,-0.0408891,0.101457,-5.71264e-06,-1.02816e-05,0.0772737,-0.007959285800829496,0.10678232572869462,-5.712623682874174e-06,0.051811798976505674,-1.028154714455276e-05,-0.04006441909909364
105,227.9,212.448,637.838,-3.77927e-07,368.113,-0.0223277,-0.0384379,-0.00808964,0.0511018,-0.041375,0.102647,-5.79089e-06,-1.04226e-05,0.0782158,-0.00805700691825284,0.1081001806644808,-5.7908732328249e-06,0.05243002520666229,-1.0422545684840578e-05,-0.040530738496381
106,230.6,212.851,639.051,-3.89091e-07,368.813,-0.0223913,-0.0385475,-0.00818807,0.0516889,-0.0418606,0.103835,-5.86914e-06,-1.05636e-05,0.0791571,-0.008154639062016966,0.10941738594412698,-5.8691227766694e-06,0.053048088289126216,-1.0563544205366426e-05,-0.040996543663119445
107,233.3,213.251,640.251,-4.00315e-07,369.505,-0.0224542,-0.0386557,-0.00828641,0.0522754,-0.0423456,0.105023,-5.94738e-06,-1.07046e-05,0.0800977,-0.008252172339021757,0.11073615699352879,-5.9473623144068455e-06,0.0536658821432463,-1.0704542706019282e-05,-0.04146154756688103
108,236.0,213.646,641.439,-4.116e-07,370.19,-0.0225161,-0.0387625,-0.00838468,0.0528614,-0.0428303,0.106209,-6.02562e-06,-1.08455e-05,0.0810374,-0.008349626609551963,0.11205427156315806,-6.0256018460380645e-06,0.05428351129784992,-1.0845441187790072e-05,-0.04192603857628541
109,238.7,214.037,642.615,-4.22943e-07,370.869,-0.0225773,-0.0388679,-0.00848287,0.0534468,-0.0433145,0.107395,-6.10386e-06,-1.09865e-05,0.0819763,-0.008446991979484175,0.11337395034406139,-6.1038413714520345e-06,0.05490086954849338,-1.0986439648585922e-05,-0.04238982569648386
110,241.4,214.425,643.78,-4.34345e-07,371.54,-0.0226378,-0.0389721,-0.00858097,0.0540316,-0.0437983,0.108579,-6.18208e-06,-1.11275e-05,0.0829145,-0.00854425855856722,0.11469296580433186,-6.182060890980168e-06,0.05551795599549614,-1.1127438089619801e-05,-0.04285300544659576
111,244.1,214.808,644.932,-4.45804e-07,372.205,-0.0226975,-0.0390749,-0.00867899,0.054616,-0.0442816,0.109762,-6.2603e-06,-1.12684e-05,0.0838518,-0.00864143628758507,0.11601242789082167,-6.260280404402074e-06,0.05613498096611558,-1.1268336511771615e-05,-0.043315482822403606
112,246.8,215.188,646.073,-4.57321e-07,372.863,-0.0227564,-0.0391766,-0.00877693,0.0551997,-0.0447645,0.110944,-6.33851e-06,-1.14093e-05,0.0847884,-0.008738525190793878,0.11733233449171698,-6.338489911716927e-06,0.056751626905114705,-1.1409234914161459e-05,-0.04377735424791762
113,249.5,215.564,647.203,-4.68893e-07,373.515,-0.0228147,-0.039277,-0.00887479,0.055783,-0.045247,0.112125,-6.4167e-06,-1.15502e-05,0.0857241,-0.00883552529242626,0.1186526834913717,-6.41667941303492e-06,0.05736820993804814,-1.1550133296678311e-05,-0.04423862038508852
114,252.2,215.936,648.322,-4.8052e-07,374.161,-0.0228723,-0.0393762,-0.00897257,0.0563657,-0.045729,0.113305,-6.49488e-06,-1.16911e-05,0.086659,-0.008932436616691297,0.11997347277031034,-6.494858908356882e-06,0.05798451793787618,-1.169103165932217e-05,-0.044699186364745125
115,254.9,216.305,649.431,-4.92203e-07,374.8,-0.0229292,-0.0394743,-0.00907027,0.0569478,-0.0462107,0.114484,-6.57305e-06,-1.1832e-05,0.0875932,-0.009029259187774308,0.12129470020523292,-6.57302839757179e-06,0.05860055000450637,-1.183193000220406e-05,-0.04515924395290727
116,257.6,216.67,650.529,-5.0394e-07,375.433,-0.0229854,-0.0395713,-0.00916788,0.0575295,-0.0466918,0.115662,-6.65121e-06,-1.19728e-05,0.0885265,-0.009125983121096692,0.12261636366901718,-6.6511878807906655e-06,0.059216517081098985,-1.1972728326314908e-05,-0.04561850735597173
117,260.3,217.032,651.617,-5.1573e-07,376.061,-0.023041,-0.0396672,-0.00926541,0.0581105,-0.0471726,0.116838,-6.72935e-06,-1.21136e-05,0.0894591,-0.009222618351469092,0.12393733709282562,-6.729327358012682e-06,0.05983210068724443,-1.2113526630663785e-05,-0.04607726368377607
118,263.0,217.39,652.694,-5.27574e-07,376.682,-0.023096,-0.039762,-0.00936287,0.0586911,-0.0476529,0.118014,-6.80747e-06,-1.22544e-05,0.0903908,-0.009319174809812036,0.12525986489517593,-6.80744682923784e-06,0.0604476178722515,-1.225432491513967e-05,-0.046535322762335296
119,265.8,217.746,653.762,-5.3947e-07,377.298,-0.0231504,-0.0398558,-0.00946023,0.0592711,-0.0481328,0.119189,-6.88558e-06,-1.23951e-05,0.0913217,-0.009415622799788248,0.12658282232170692,-6.885556294466966e-06,0.06106285589239602,-1.2395023181066556e-05,-0.046992780685133684
120,268.5,218.098,654.82,-5.51419e-07,377.908,-0.0232042,-0.0399486,-0.00955752,0.0598506,-0.0486123,0.120362,-6.96366e-06,-1.25359e-05,0.0922519,-0.009511992065887043,0.12790507932441142,-6.963635753809427e-06,0.06167792001500283,-1.2535821425907478e-05,-0.04744963810647507
121,270.5,218.361,655.613,-6.61479e-07,378.366,-0.0232444,-0.040018,-0.00963097,0.060288,-0.0489743,0.121248,-7.02263e-06,-1.26421e-05,0.0929541,-0.009584740738342035,0.12890484605595365,-7.022605341355792e-06,0.06214239951147782,-1.2642020088993178e-05,-0.0477943989320061
