,Time,S11,S22,S33,S12,S13,S23,LE11,LE22,LE33,LE12,LE13,LE23,SDV_EPBAR,E11,E12,E13,E22,E23,E33
0,0.0002705,0.000519365,0.0015581,-7.79048e-12,0.000899567,2.21372e-21,3.68811e-20,2.50301e-10,6.7501e-09,-3.0004e-09,1.1258e-08,2.76762e-26,4.61603e-25,0.0,2.5030089112476617e-10,1.1258000087721598e-08,0.0,6.750100034480511e-09,0.0,-3.0004000395322805e-09
1,0.000541,0.00103873,0.00311619,4.33681e-19,0.00179913,-3.08331e-20,-2.03577e-20,5.00425e-10,1.35001e-08,-6.00057e-09,2.25162e-08,-1.63975e-24,4.6912e-25,0.0,5.00425034744012e-10,2.2516200237632233e-08,0.0,1.3500100148888805e-08,0.0,-6.000569929831556e-09
2,0.00094675,0.00181778,0.00545333,6.50521e-19,0.00314848,1.87371e-20,6.55005e-20,8.75688e-10,2.36252e-08,-1.05009e-08,3.94034e-08,-1.73568e-24,1.95724e-24,0.0,8.756879665838824e-10,3.9403400764470575e-08,0.0,2.3625200240573463e-08,0.0,-1.0500899927379237e-08
3,0.0015554,0.00298635,0.00895905,1.73472e-18,0.00517251,4.73565e-20,4.89771e-20,1.4375e-09,3.88125e-08,-1.725e-08,6.47354e-08,4.1359e-25,7.16359e-25,0.0,1.4374998968946784e-09,6.473540214990692e-08,0.0,3.8812500768869995e-08,0.0,-1.7249999872959165e-08
4,0.0024683,0.00473921,0.0142176,0.0,0.00820854,1.00168e-19,-5.78319e-20,2.28125e-09,6.15937e-08,-2.7375e-08,1.02732e-07,-7.41318e-35,-1.284e-34,0.0,2.281250077729169e-09,1.027320053470504e-07,0.0,6.159370191660685e-08,0.0,-2.7374999600482397e-08
5,0.0038377,0.00736849,0.0221055,-8.67362e-19,0.0127626,9.88226e-21,-8.20239e-20,3.54688e-09,9.57656e-08,-4.25625e-08,1.59728e-07,7.653e-32,1.32554e-31,0.0,3.5468799008953056e-09,1.597280128162737e-07,0.0,9.576560455748506e-08,0.0,-4.256249908074494e-08
6,0.0058918,0.0113124,0.0339373,-6.07153e-18,0.0195937,-4.73565e-20,-4.89771e-20,5.44671e-09,1.47024e-07,-6.53456e-08,2.45219e-07,-1.14621e-23,6.61761e-24,0.0,5.446709971934638e-09,2.452190299706558e-07,0.0,1.4702401074373483e-07,0.0,-6.534559782167548e-08
7,0.008973,0.0172283,0.0516849,7.80626e-18,0.0298403,6.7121e-20,-1.15071e-19,8.29297e-09,2.2391e-07,-9.95156e-08,3.7346e-07,1.78232e-31,3.08708e-31,0.0,8.292970088419338e-09,3.734600697580248e-07,0.0,2.2391002496569e-07,0.0,-9.951559509779884e-08
8,0.013595,0.0261021,0.0783064,9.54098e-18,0.0452102,-1.3116e-19,-4.58503e-19,1.25671e-08,3.39241e-07,-1.50777e-07,5.65816e-07,2.77687e-23,-3.13146e-23,0.0,1.2567100027283118e-08,5.658161601473921e-07,0.0,3.392410574676319e-07,0.0,-1.5077698867216327e-07
9,0.020527,0.0394129,0.118239,6.07153e-18,0.0682651,-4.56883e-19,3.48265e-20,1.89735e-08,5.12236e-07,-2.27663e-07,8.54355e-07,1.1462e-23,-6.61759e-24,0.0,1.8973500104380037e-08,8.543553648987512e-07,0.0,5.122361312892565e-07,0.0,-2.276629741393421e-07
10,0.030926,0.059379,0.178137,-8.67362e-19,0.102847,-1.54031e-18,-2.55477e-19,2.8587e-08,7.71729e-07,-3.42996e-07,1.28716e-06,-2.95414e-23,1.77334e-24,0.0,2.858700032248862e-08,1.2871608283671065e-06,0.0,7.717292977993395e-07,0.0,-3.429959412049044e-07
11,0.046525,0.0893282,0.267985,-4.94396e-17,0.154721,-5.5365e-19,3.95969e-19,4.30043e-08,1.16097e-06,-5.15992e-07,1.93637e-06,-9.16942e-23,5.29396e-23,0.0,4.300430100911967e-08,1.9363718748444114e-06,0.0,1.1609706738191505e-06,0.0,-5.159918669006558e-07
12,0.069922,0.134252,0.402756,-2.1684e-17,0.232531,2.20493e-19,-2.49317e-18,6.46307e-08,1.74483e-06,-7.75487e-07,2.91018e-06,-5.29397e-23,-9.16942e-23,0.0,6.463070212348043e-08,2.910184234483637e-06,0.0,1.744831522154655e-06,0.0,-7.754866993003873e-07
13,0.105,0.201637,0.604912,1.99493e-17,0.349246,-1.22407e-18,-2.88023e-18,9.70596e-08,2.62061e-06,-1.16471e-06,4.37091e-06,-1.05879e-22,-1.83388e-22,0.0,9.705960479777787e-08,4.370919552521002e-06,0.0,2.62061343381248e-06,0.0,-1.1647093217659332e-06
14,0.1577,0.302715,0.908146,-9.1073e-17,0.524319,2.72256e-18,-2.74454e-19,1.45719e-07,3.93429e-06,-1.74858e-06,6.56199e-06,1.03982e-22,-2.43423e-22,0.0,1.4571901063575865e-07,6.562011529931411e-06,0.0,3.934297739371928e-06,0.0,-1.748578471238993e-06
15,0.2366,0.454332,1.363,-7.80626e-18,0.786926,-1.38381e-17,-7.8084e-18,2.18705e-07,5.90479e-06,-2.62436e-06,9.8486e-06,-2.11758e-22,-3.66776e-22,0.0,2.1870502386889257e-07,9.848648497623458e-06,0.0,5.904807433232406e-06,0.0,-2.624356556402141e-06
16,0.3551,0.681756,2.04527,4.77049e-17,1.18084,-5.94481e-18,-2.59681e-18,3.28182e-07,8.86055e-06,-3.93804e-06,1.47785e-05,5.57568e-28,9.65736e-28,0.0,3.281820537548441e-07,1.4778609202625859e-05,0.0,8.860589254755524e-06,0.0,-3.938032245964784e-06
17,0.5328,1.02289,3.06867,7.13839e-16,1.7717,-5.94479e-18,-2.59677e-18,4.92389e-07,1.32942e-05,-5.90853e-06,2.21733e-05,8.36561e-28,1.44897e-27,0.0,4.923891212538223e-07,2.2173545829451413e-05,0.0,1.3294288368159712e-05,0.0,-5.908512544672284e-06
18,0.7993,1.53459,4.60377,-2.85362e-16,2.65799,-3.98145e-18,-3.30361e-17,7.38697e-07,1.99445e-05,-8.86424e-06,3.32654e-05,7.35553e-27,1.27402e-26,0.0,7.38697272906208e-07,3.326595329955495e-05,0.0,1.9944698892881974e-05,0.0,-8.864200712777048e-06
19,1.199,2.30213,6.90638,-1.61763e-15,3.9874,2.21215e-18,-5.61484e-17,1.10814e-06,2.99199e-05,-1.32977e-05,4.99034e-05,-4.23505e-22,-7.33532e-22,0.0,1.1081406139368255e-06,4.990464519538662e-05,0.0,2.992034760462836e-05,0.0,-1.3297611585971758e-05
20,1.799,3.45341,10.3602,-3.17194e-15,5.98148,6.53581e-17,-1.44564e-17,1.66234e-06,4.48827e-05,-1.99479e-05,7.48599e-05,-1.09041e-26,-1.88864e-26,0.0,1.6623413816585497e-06,7.486270207235357e-05,0.0,4.4883707243537074e-05,0.0,-1.994770104196686e-05
21,2.698,5.18029,15.5409,-2.8485e-14,8.97252,-6.87866e-17,2.39178e-17,2.49357e-06,6.73263e-05,-2.99228e-05,0.000112294,-4.23518e-22,-7.33555e-22,0.0,2.4935731088859825e-06,0.00011230030520725798,0.0,6.732856646629592e-05,0.0,-2.9922352317468537e-05
22,4.047,31.1929,93.5787,-1.03264e-09,54.0277,-8.08225e-16,-1.7395e-16,1.5015e-05,0.000405403,-0.000180179,0.000676171,-3.02527e-20,1.82072e-21,0.0,1.5015112725613733e-05,0.0006763996551444329,0.0,0.00040548518690219915,0.0,-0.00018016276873877857
23,6.071,70.3658,211.097,-9.04826e-07,121.877,1.29847e-16,-7.14917e-16,3.38711e-05,0.000914519,-0.000406453,0.00152533,-2.03309e-20,-3.52142e-20,0.0,3.3871673632113186e-05,0.0015264939075101402,0.0,0.0009149373000056915,0.0,-0.00040637040916957634
24,8.776,121.259,363.786,0.000132892,210.029,-0.000228091,-0.000394961,5.55342e-05,0.0015932,-0.000714811,0.00266339,-2.8974e-09,-5.02045e-09,2.78091e-05,5.5535742052192916e-05,0.002666939974101723,-2.8973999866011013e-09,0.0015944698173882,-5.020449944659333e-09,-0.000714555583478993
25,11.48,127.208,381.847,0.0825362,220.473,-0.00462892,-0.00799926,-3.42697e-05,0.00223288,-0.0012183,0.00393101,-8.38374e-08,-1.46987e-07,0.000935964,-3.426911280057787e-05,0.003938746553978634,-8.38373964695549e-08,0.0022353747330148277,-1.4698698924675568e-07,-0.0012175581738411712
26,14.19,132.18,396.692,0.000153968,228.986,-0.00850079,-0.014698,-0.000125863,0.00287126,-0.00172709,0.00519956,-1.78993e-07,-3.15368e-07,0.00186429,-0.00012585507958484676,0.005213101171301693,-1.7899298399015606e-07,0.002875386015002812,-3.1536795030984166e-07,-0.0017255994383009732
27,16.89,136.369,409.314,-5.80336e-06,236.258,-0.0116005,-0.0200497,-0.000219522,0.00350829,-0.00223809,0.00646934,-2.80422e-07,-4.95703e-07,0.00280604,-0.00021949790680875214,0.006490311379287572,-2.804219606522551e-07,0.003514451252408568,-4.957028771901406e-07,-0.0022355873439804386
28,19.6,140.023,420.322,5.85702e-06,242.6,-0.0142404,-0.0246043,-0.000314419,0.00414423,-0.0027509,0.00773938,-3.89086e-07,-6.89526e-07,0.00375731,-0.00031436957552644085,0.007769406413348445,-3.8908592425723754e-07,0.004152829196058194,-6.895257622652196e-07,-0.00274711974176034
29,22.3,143.269,430.101,2.67112e-06,248.234,-0.0165296,-0.0285514,-0.000410237,0.0047792,-0.00326498,0.00900931,-5.04148e-07,-8.95221e-07,0.0047156,-0.0004101528643074559,0.009050015985786697,-5.041478728928794e-07,0.004790638591499086,-8.952205993173479e-07,-0.003259655748900525
30,25.01,146.192,438.91,1.19203e-06,253.309,-0.0185434,-0.0320221,-0.00050676,0.00541327,-0.00377994,0.0102789,-6.24872e-07,-1.11138e-06,0.00567921,-0.0005066316188383491,0.010331909362902403,-6.248718047441315e-07,0.005427948219816514,-1.1113793824124585e-06,-0.003772805019562009
31,27.71,148.856,446.933,4.77308e-07,257.931,-0.0203364,-0.0351106,-0.000603837,0.00604649,-0.00429551,0.0115479,-7.50624e-07,-1.33681e-06,0.00664693,-0.0006036547271282,0.011614834399655383,-7.50623718293042e-07,0.006064806919741317,-1.3368091065224519e-06,-0.004286297492446467
32,30.42,151.304,454.308,1.20636e-07,262.18,-0.0219486,-0.0378868,-0.000701354,0.00667891,-0.0048115,0.0128163,-8.80859e-07,-1.57049e-06,0.00761788,-0.0007011081087723303,0.01289878076225226,-8.808586120512274e-07,0.006701263657705736,-1.5704887668110956e-06,-0.004799943276363017
33,33.12,153.571,461.136,-5.89091e-08,266.115,-0.0234106,-0.0404033,-0.000799226,0.00731056,-0.00532776,0.014084,-1.01511e-06,-1.81154e-06,0.00859138,-0.0007989067039693154,0.014183646786882997,-1.0151094848032116e-06,0.007337347380888426,-1.8115383592087753e-06,-0.005313592657923971
34,35.83,155.683,467.498,-1.47935e-07,269.78,-0.0247459,-0.0427011,-0.000897387,0.00794145,-0.00584417,0.0153508,-1.15297e-06,-2.05921e-06,0.00956691,-0.0008969844687038986,0.015469228746322061,-1.1529693353384829e-06,0.007973066953452124,-2.0592078798786773e-06,-0.0058271260572356764
35,38.53,157.661,473.457,-1.90066e-07,273.214,-0.025973,-0.0448122,-0.000995784,0.0085716,-0.00636065,0.0166167,-1.2941e-06,-2.31285e-06,0.0105441,-0.0009952883716393135,0.016755525232578616,-1.294099162607587e-06,0.008608441351156237,-2.312847325325329e-06,-0.006340463887397285
36,41.24,159.522,479.065,-2.08142e-07,276.445,-0.027107,-0.0467624,-0.00109437,0.00920104,-0.00687711,0.0178817,-1.43819e-06,-2.57191e-06,0.0115225,-0.001093771395536347,0.018042534833945467,-1.4381889658077185e-06,0.009243499693074364,-2.5719066926166434e-06,-0.006853516794361858
37,43.94,161.281,484.362,-2.14461e-07,279.497,-0.0281598,-0.0485727,-0.00119313,0.00982977,-0.00739351,0.0191457,-1.58497e-06,-2.83588e-06,0.012502,-0.0011924185033990176,0.01933015420198081,-1.5849687439173366e-06,0.009878240878139488,-2.8358759789348653e-06,-0.007366245240410296
38,46.65,162.948,489.384,-2.15764e-07,282.39,-0.0291415,-0.0502602,-0.00129201,0.0104578,-0.00790978,0.0204088,-1.73421e-06,-3.10435e-06,0.0134822,-0.0012911757144202785,0.02061848359289442,-1.7342084962512772e-06,0.01051267391039401,-3.1043451814705136e-06,-0.007878580006065672
39,49.35,164.533,494.159,-2.15768e-07,285.141,-0.0300602,-0.0518393,-0.00139099,0.0110852,-0.0084259,0.0216708,-1.88571e-06,-3.37692e-06,0.0144631,-0.001390023021814235,0.021907317202141563,-1.885708222015836e-06,0.01114686848804114,-3.3769142981920908e-06,-0.00839050159550403
40,52.06,166.045,498.712,-2.16505e-07,287.765,-0.0309229,-0.0533219,-0.00149007,0.0117118,-0.00894182,0.0229317,-2.03927e-06,-3.65325e-06,0.0154444,-0.001488960396894612,0.023196652829224895,-2.039267920639354e-06,0.011780651659366592,-3.653243326851019e-06,-0.008901960820554389
41,54.76,167.49,503.064,-2.19056e-07,290.273,-0.0317356,-0.0547182,-0.00158921,0.0123378,-0.00945751,0.0241916,-2.19474e-06,-3.93306e-06,0.016426,-0.0015879478744704745,0.024486590717865964,-2.1947375915543077e-06,0.012414224634956561,-3.933052265536752e-06,-0.009412928406617893
42,57.47,168.874,507.233,-2.23952e-07,292.675,-0.0325031,-0.0560368,-0.00168841,0.0129632,-0.00997296,0.0254504,-2.35196e-06,-4.21606e-06,0.0174079,-0.001686985437697297,0.025777026468123188,-2.351957234192348e-06,0.013047586522661803,-4.2160511124489375e-06,-0.009923394941380725
43,60.17,170.203,511.235,-2.31412e-07,294.981,-0.03323,-0.0572853,-0.00178764,0.0135878,-0.0104881,0.0267081,-2.51081e-06,-4.50202e-06,0.0183898,-0.00178604312330366,0.02706795786635463,-2.5108068478774115e-06,0.013680533694028219,-4.5020098659032115e-06,-0.010433291658337618
44,62.88,171.481,515.084,-2.41476e-07,297.199,-0.0339198,-0.0584702,-0.00188691,0.0142119,-0.011003,0.0279647,-2.67117e-06,-4.79072e-06,0.0193717,-0.001885130904499488,0.02835938269449434,-2.6711664323775253e-06,0.014313369170876555,-4.790708524549103e-06,-0.010942688401016865
45,65.58,172.711,518.791,-2.54085e-07,299.335,-0.0345759,-0.0595969,-0.0019862,0.0148352,-0.0115176,0.0292202,-2.83293e-06,-5.08195e-06,0.0203536,-0.001984228810055222,0.029651298730056785,-2.8329259872394985e-06,0.014945787766661223,-5.081937086925947e-06,-0.011451526358330355
46,68.29,173.899,522.368,-2.69126e-07,301.396,-0.0352011,-0.0606706,-0.00208549,0.0154579,-0.0120318,0.0304746,-2.99598e-06,-5.37555e-06,0.0213353,-0.002083316876668073,0.030943703746141082,-2.9959755120101406e-06,0.015577991324853047,-5.37553555179926e-06,-0.011959707318955015
47,70.99,175.046,525.824,-2.86462e-07,303.387,-0.035798,-0.0616955,-0.0021848,0.01608,-0.0125458,0.0317279,-3.16025e-06,-5.67134e-06,0.0223168,-0.0021824150616671645,0.03223659551143565,-3.160245006461615e-06,0.016209978952625992,-5.671323917932902e-06,-0.01246742953360569
48,73.7,176.156,529.167,-3.05946e-07,305.313,-0.0363688,-0.0626755,-0.00228409,0.0167015,-0.0130593,0.03298,-3.32564e-06,-5.96918e-06,0.0232981,-0.0022814834513440463,0.033529868437229604,-3.3256344700305362e-06,0.0168417497569866,-5.9691621844271125e-06,-0.012974397333417653
49,76.4,177.231,532.404,-3.27433e-07,307.178,-0.0369154,-0.0636141,-0.00238338,0.0173223,-0.0135725,0.034231,-3.49209e-06,-6.26893e-06,0.0242791,-0.0023805420050092563,0.03482362337763223,-3.49208390271194e-06,0.017473201097452096,-6.268910350271106e-06,-0.013480808916379372
50,79.11,178.273,535.543,-3.50784e-07,308.987,-0.0374397,-0.0645142,-0.00248265,0.0179424,-0.0140854,0.0354809,-3.65952e-06,-6.57046e-06,0.0252597,-0.002479570773229911,0.03611785808798129,-3.6595133039440952e-06,0.018104331891331427,-6.570438414565949e-06,-0.0139866648716368
51,81.81,179.285,538.591,-3.75866e-07,310.743,-0.0379433,-0.0653786,-0.0025819,0.018562,-0.0145979,0.0367296,-3.82787e-06,-6.87366e-06,0.02624,-0.0025785697629245874,0.03741246657796804,-3.827862673722038e-06,0.01873534480298389,-6.8736363764143604e-06,-0.014491867236726241
52,84.52,180.268,541.551,-4.02558e-07,312.449,-0.0384275,-0.0662098,-0.00268112,0.0191809,-0.01511,0.0379772,-3.99708e-06,-7.17842e-06,0.0272198,-0.002677529007783397,0.038707550076373165,-3.997072011707736e-06,0.01936603525491143,-7.178394235252128e-06,-0.014996416750584829
53,87.22,181.224,544.43,-4.30748e-07,314.108,-0.0388936,-0.06701,-0.00278032,0.0197992,-0.0156217,0.0392236,-4.1671e-06,-7.48465e-06,0.0281992,-0.002776458489922362,0.04000300232492093,-4.167091317675009e-06,0.019996504163887208,-7.484621990072604e-06,-0.015500314150988959
54,89.93,182.154,547.233,-4.60335e-07,315.722,-0.0393429,-0.0677813,-0.00287948,0.0204168,-0.016133,0.0404688,-4.33788e-06,-7.79225e-06,0.0291781,-0.0028753382737577438,0.04129882067248625,-4.3378705913976745e-06,0.020626648573423223,-7.792219640534448e-06,-0.016003560174553955
55,92.63,183.06,549.962,-4.91225e-07,317.295,-0.0397764,-0.0685254,-0.00297861,0.0210339,-0.0166439,0.041713,-4.50937e-06,-8.10113e-06,0.0301566,-0.0029741783423856694,0.04259521098234065,-4.509359832760573e-06,0.02125667165188494,-8.101097185964079e-06,-0.016506155556738178
56,95.34,183.944,552.623,-5.23334e-07,318.829,-0.0401951,-0.069244,-0.0030777,0.0216503,-0.0171544,0.0429559,-4.68152e-06,-8.41122e-06,0.0311345,-0.003072968736403059,0.04389185820456509,-4.681509041648546e-06,0.021886368316865745,-8.411184625800594e-06,-0.017008101031842804
57,98.04,184.806,555.219,-5.56585e-07,320.324,-0.0405998,-0.0699387,-0.00317674,0.0222661,-0.0176645,0.0441977,-4.8543e-06,-8.72245e-06,0.0321118,-0.0031716995003511217,0.0451889683230704,-4.854288217948088e-06,0.022515839736833687,-8.722411959594112e-06,-0.017509397333015153
58,100.7,185.647,557.753,-5.90909e-07,321.784,-0.0409914,-0.0706108,-0.00327574,0.0228813,-0.0181742,0.0454384,-5.02767e-06,-9.03474e-06,0.0330886,-0.003270380617304669,0.0464865390576239,-5.027657361322824e-06,0.02314508501744217,-9.034699186893924e-06,-0.018010045192248803
59,103.5,186.469,560.228,-6.26243e-07,323.211,-0.0413706,-0.0712617,-0.00337469,0.0234959,-0.0186835,0.0466779,-5.20159e-06,-9.34803e-06,0.0340648,-0.0033690021337625664,0.04778446334519004,-5.201576471769442e-06,0.02377410326420093,-9.347986307250977e-06,-0.018510045340386916
60,106.2,187.272,562.648,-6.62529e-07,324.605,-0.0417381,-0.0718925,-0.00347359,0.0241099,-0.0191924,0.0479162,-5.37604e-06,-9.66227e-06,0.0350404,-0.0034675640654837636,0.04908273850732048,-5.376025549175267e-06,0.024402893582478713,-9.66222332043909e-06,-0.01900939850712302
61,108.9,188.057,565.014,-6.99715e-07,325.968,-0.0420945,-0.0725043,-0.00357244,0.0247233,-0.0197008,0.0491534,-5.55097e-06,-9.97739e-06,0.0360154,-0.00356606642821633,0.05038146689912515,-5.550954593425139e-06,0.02503145507750415,-9.97734022600838e-06,-0.019508007371809022
62,111.6,188.826,567.329,-7.37754e-07,327.302,-0.0424404,-0.073098,-0.00367124,0.025336,-0.0202088,0.0503894,-5.72636e-06,-1.02933e-05,0.0369898,-0.0036645092376983435,0.051680541054658136,-5.726343604406381e-06,0.0256596842883956,-1.0293247024173446e-05,-0.020005970810641815
63,114.3,189.578,569.596,-7.76603e-07,328.608,-0.0427763,-0.0736747,-0.00376998,0.0259482,-0.0207164,0.0516243,-5.90218e-06,-1.06101e-05,0.0379635,-0.0037628825472861838,0.05298006357984453,-5.90216258211651e-06,0.026287785389247142,-1.0610043713055184e-05,-0.020503289549684056
64,117.0,190.316,571.816,-8.16221e-07,329.887,-0.0431028,-0.0742352,-0.00386867,0.0265597,-0.0212236,0.052858,-6.07841e-06,-1.09275e-05,0.0389366,-0.0038611963370338565,0.05427992674000537,-6.078391526553872e-06,0.026915552290180722,-1.0927440295072088e-05,-0.020999964313856867
65,119.7,191.038,573.991,-8.56573e-07,331.141,-0.0434203,-0.0747803,-0.00396729,0.0271707,-0.0217304,0.0540906,-6.25502e-06,-1.12457e-05,0.039909,-0.0039594307018347985,0.05558023339206497,-6.255000437382918e-06,0.027543189416246117,-1.1245636767354128e-05,-0.021495995826940173
66,122.4,191.746,576.124,-8.97625e-07,332.37,-0.0437293,-0.0753107,-0.00406586,0.027781,-0.0222367,0.055322,-6.432e-06,-1.15645e-05,0.0408808,-0.0040576055821220924,0.05688087553247789,-6.431979314713843e-06,0.02817049042617925,-1.1564433131439067e-05,-0.021991287010709515
67,125.1,192.44,578.216,-9.39347e-07,333.575,-0.0440301,-0.0758271,-0.00416437,0.0283908,-0.0227426,0.0565523,-6.60931e-06,-1.18839e-05,0.0418518,-0.004155711035132792,0.05818195626934686,-6.609288158543336e-06,0.02879765999580819,-1.1883829386771794e-05,-0.02248593648647612
68,127.8,193.122,580.269,-9.81711e-07,334.758,-0.0443231,-0.0763302,-0.00426281,0.0289999,-0.023248,0.0577814,-6.78693e-06,-1.22039e-05,0.0428222,-0.0042537371220153775,0.0594833673301296,-6.786906968869744e-06,0.029424491532676456,-1.2203825532686174e-05,-0.022979847272406984
69,130.5,193.791,582.284,-1.02469e-06,335.919,-0.0446087,-0.0768206,-0.00436119,0.0296085,-0.023753,0.0590093,-6.96486e-06,-1.25245e-05,0.0437918,-0.0043516938207882605,0.06078510599577136,-6.964835745471021e-06,0.030051189963211877,-1.252442156873812e-05,-0.023473117888220818
70,133.2,194.448,584.262,-1.06826e-06,337.059,-0.0448872,-0.0772988,-0.00445951,0.0302165,-0.0242576,0.0602361,-7.14307e-06,-1.28455e-05,0.0447608,-0.004449581150031912,0.06208727575141704,-7.143044488344685e-06,0.03067765151172197,-1.2845417496909484e-05,-0.023965749051639174
71,135.9,195.093,586.206,-1.11241e-06,338.178,-0.045159,-0.0777654,-0.00455776,0.0308238,-0.0247617,0.0614618,-7.32153e-06,-1.3167e-05,0.045729,-0.004547389173785832,0.06338987425972253,-7.3215031977102996e-06,0.031303772151773934,-1.3166913315432183e-05,-0.02445764392502292
72,138.6,195.727,588.116,-1.1571e-06,339.279,-0.0454242,-0.0782209,-0.00465594,0.0314306,-0.0252654,0.0626863,-7.50025e-06,-1.3489e-05,0.0466966,-0.004645117913534502,0.0646927927097749,-7.500221873235624e-06,0.03192975718536739,-1.3488909023862128e-05,-0.024948900876328062
73,141.3,196.35,589.994,-1.20232e-06,340.361,-0.0456832,-0.0786658,-0.00475406,0.0320368,-0.0257687,0.0639097,-7.6792e-06,-1.38114e-05,0.0476633,-0.004742777343314963,0.06599613496427281,-7.679170515029199e-06,0.03255550264846052,-1.3811304623079224e-05,-0.025439520619701783
74,144.0,196.963,591.84,-1.24806e-06,341.424,-0.0459363,-0.0791004,-0.00485211,0.0326424,-0.0262715,0.0651319,-7.85836e-06,-1.41342e-05,0.0486294,-0.004840357530049633,0.06729979194292546,-7.858329123200392e-06,0.033181007644660365,-1.413410011263938e-05,-0.025929406461113302
75,146.7,197.566,593.656,-1.29429e-06,342.471,-0.0461836,-0.0795253,-0.00495009,0.0332474,-0.0267739,0.0663529,-8.03772e-06,-1.44573e-05,0.0495947,-0.004937858495168479,0.06860376089993503,-8.037687697637352e-06,0.033806271277462496,-1.445719549375557e-05,-0.02641865661737719
76,149.4,198.159,595.442,-1.34101e-06,343.5,-0.0464255,-0.0799407,-0.005048,0.0338519,-0.0272758,0.0675729,-8.21727e-06,-1.47808e-05,0.0505593,-0.0050352802600829305,0.06990825306665438,-8.217236238339254e-06,0.03443139609338908,-1.4780690764548687e-05,-0.02690717448980584
77,152.1,198.743,597.201,-1.38819e-06,344.513,-0.0466621,-0.0803471,-0.00514584,0.0344557,-0.0277773,0.0687916,-8.397e-06,-1.51046e-05,0.0515231,-0.005132622846185209,0.07121294510728093,-8.396964745305269e-06,0.03505617437193087,-1.5104485926120681e-05,-0.027395058194734867
78,154.8,199.317,598.932,-1.43583e-06,345.511,-0.0468936,-0.0807449,-0.00524361,0.035059,-0.0282784,0.0700093,-8.5769e-06,-1.54287e-05,0.0524862,-0.005229886274849438,0.07251815562668296,-8.57686321853457e-06,0.035680812164974096,-1.5428580978249506e-05,-0.027882308440328574
79,157.6,199.883,600.637,-1.48391e-06,346.493,-0.0471202,-0.0811343,-0.00534131,0.0356617,-0.028779,0.0712258,-8.75694e-06,-1.57531e-05,0.0534485,-0.005327070567430314,0.07382366787983141,-8.756901658135696e-06,0.036305205132385776,-1.5752975920602097e-05,-0.028368828770524712
80,160.3,200.441,602.316,-1.53242e-06,347.46,-0.0473422,-0.0815156,-0.00543894,0.0362638,-0.0292792,0.0724411,-8.93713e-06,-1.60777e-05,0.05441,-0.005424175745264548,0.07512947909887457,-8.937090063998454e-06,0.0369293523770684,-1.6077570754502446e-05,-0.02885471715155874
81,163.0,200.99,603.97,-1.58135e-06,348.413,-0.0475596,-0.0818892,-0.00553649,0.0368653,-0.0297789,0.0736554,-9.11744e-06,-1.64026e-05,0.0553708,-0.005521191884881316,0.07643580179865439,-9.117398436231383e-06,0.037553253001825215,-1.640246547807145e-05,-0.029339877222058997
82,165.7,201.531,605.6,-1.63069e-06,349.353,-0.0477726,-0.0822554,-0.00563397,0.0374663,-0.0302782,0.0748684,-9.29788e-06,-1.67277e-05,0.0563308,-0.0056181289543068,0.07774231066366633,-9.29783677483531e-06,0.03817700992706041,-1.6727560092855143e-05,-0.02982440684847476
83,168.4,202.064,607.207,-1.68044e-06,350.279,-0.0479815,-0.0826144,-0.00573138,0.0380666,-0.0307771,0.0760804,-9.47843e-06,-1.7053e-05,0.0572901,-0.005714986974819092,0.0790493262356331,-9.478385079808582e-06,0.03880041468233597,-1.705285459840944e-05,-0.030308306733034973
84,171.1,202.59,608.792,-1.73057e-06,351.191,-0.0481863,-0.0829664,-0.00582872,0.0386664,-0.0312755,0.0772912,-9.65908e-06,-1.73785e-05,0.0582485,-0.005811765967676741,0.08035663044209262,-9.659033351261392e-06,0.03942367406786662,-1.737834899473434e-05,-0.03079148065601578
85,173.8,203.109,610.354,-1.78109e-06,352.091,-0.0483872,-0.0833118,-0.00592598,0.0392657,-0.0317734,0.0785009,-9.83983e-06,-1.77042e-05,0.0592063,-0.005908456013205776,0.0816643286597345,-9.839781589082719e-06,0.040046787372987724,-1.7704043281607795e-05,-0.03127392946220009
86,176.5,203.62,611.895,-1.83198e-06,352.979,-0.0485844,-0.0836507,-0.00602316,0.0398643,-0.0322709,0.0797095,-1.00207e-05,-1.803e-05,0.0601632,-0.006005057135525904,0.08297241848680637,-1.002064979294115e-05,0.04066954575289672,-1.8029837460575848e-05,-0.03175575081929227
87,179.2,204.125,613.415,-1.88324e-06,353.855,-0.0487779,-0.0839833,-0.00612028,0.0404624,-0.032768,0.0809169,-1.02016e-05,-1.83559e-05,0.0611193,-0.006101589236702121,0.08428078908927317,-1.0201547963828439e-05,0.041292156381359746,-1.8355731531527475e-05,-0.03223694542473188
88,181.9,204.623,614.915,-1.93486e-06,354.719,-0.0489678,-0.08431,-0.00621731,0.0410599,-0.0332646,0.0821232,-1.03826e-05,-1.8682e-05,0.0620747,-0.006198022520962021,0.08558954622331272,-1.0382546100973222e-05,0.04191451435572713,-1.8681825492472548e-05,-0.03271741724660637
89,184.6,205.114,616.396,-1.98683e-06,355.572,-0.0491544,-0.0846308,-0.00631428,0.0416569,-0.0337608,0.0833284,-1.05636e-05,-1.90082e-05,0.0630292,-0.0062943868264192515,0.08689868747447771,-1.0563544205366426e-05,0.042536723031606716,-1.9008019345290172e-05,-0.03319726380439236
90,187.3,205.599,617.857,-2.03916e-06,356.414,-0.0493376,-0.084946,-0.00641116,0.0422532,-0.0342566,0.0845324,-1.07447e-05,-1.93345e-05,0.063983,-0.006390652363045812,0.08820810160332337,-1.0744642275906102e-05,0.04315857306571225,-1.9334313089758304e-05,-0.033676485792050403
91,190.0,206.078,619.3,-2.09182e-06,357.246,-0.0495177,-0.0852557,-0.00650797,0.042849,-0.0347519,0.0857354,-1.09258e-05,-1.96609e-05,0.064936,-0.006486839027999625,0.08951800369768703,-1.0925740313694199e-05,0.04378027212930524,-1.966070672576592e-05,-0.03415498731795252
92,192.7,206.551,620.725,-2.14482e-06,358.066,-0.0496947,-0.0855602,-0.00660471,0.0434443,-0.0352467,0.0869372,-1.1107e-05,-1.99874e-05,0.0658882,-0.0065829468423822535,0.09082817355790729,-1.1106938317517745e-05,0.04440181951052602,-1.9987200253201998e-05,-0.0346327692172379
93,195.4,207.018,622.132,-2.19815e-06,358.877,-0.0498687,-0.0858595,-0.00670136,0.044039,-0.0357411,0.0881379,-1.12883e-05,-2.03139e-05,0.0668397,-0.006678955960854549,0.09213871757354952,-1.128823628737674e-05,0.04502310999500381,-2.0313693674167688e-05,-0.03510992881256536
94,198.1,207.48,623.522,-2.25181e-06,359.678,-0.0500398,-0.0861539,-0.00679794,0.0446331,-0.0362351,0.0893375,-1.14695e-05,-2.06405e-05,0.0677903,-0.006774886274738434,0.09344963330920386,-1.1469434225586106e-05,0.04564414268414585,-2.0640286986339795e-05,-0.03558646679315991
95,200.8,207.935,624.895,-2.30579e-06,360.469,-0.0502081,-0.0864435,-0.00689445,0.0452266,-0.0367286,0.090536,-1.16508e-05,-2.09672e-05,0.0687401,-0.006870737805073968,0.09476091832530975,-1.1650732129719898e-05,0.04626491667929011,-2.0966980189829343e-05,-0.03606228745339268
96,203.5,208.386,626.252,-2.36008e-06,361.251,-0.0503737,-0.0867285,-0.00699088,0.0458196,-0.0372217,0.0917333,-1.18321e-05,-2.12939e-05,0.0696892,-0.006966500642548001,0.09607246057090824,-1.183203000099109e-05,0.04688553577025467,-2.1293673286515435e-05,-0.0365374879691337
97,206.2,208.831,627.593,-2.41469e-06,362.023,-0.0505366,-0.087009,-0.00708723,0.0464121,-0.0377144,0.0929296,-1.20134e-05,-2.16206e-05,0.0706374,-0.007062174811034216,0.09738447668145356,-1.2013327839399679e-05,0.04750599924435117,-2.1620366276509095e-05,-0.03701206902616727
98,208.9,209.271,628.918,-2.46961e-06,362.787,-0.050697,-0.087285,-0.0071835,0.047004,-0.0382066,0.0941247,-1.21947e-05,-2.19473e-05,0.0715849,-0.0071577603343819796,0.09869674485919622,-1.2194625644945667e-05,0.048126201576077055,-2.1947059159810323e-05,-0.03748593505779563
99,211.7,209.706,630.228,-2.52483e-06,363.542,-0.0508549,-0.0875569,-0.00727969,0.0475953,-0.0386983,0.0953188,-1.23761e-05,-2.22741e-05,0.0725316,-0.007253257236418342,0.10000948225611195,-1.2376023416416082e-05,0.048746141866353065,-2.2273851934095923e-05,-0.03795908688961702
100,214.4,210.136,631.524,-2.58035e-06,364.288,-0.0510104,-0.0878246,-0.00737581,0.048186,-0.0391897,0.0965117,-1.25574e-05,-2.26008e-05,0.0734774,-0.007348675467459098,0.10132246654127308,-1.2557321156236867e-05,0.04936581921604022,-2.260054460379024e-05,-0.038431717659428655
101,217.1,210.561,632.805,-2.63617e-06,365.026,-0.0511636,-0.0880883,-0.00747185,0.0487763,-0.0396806,0.0977035,-1.27387e-05,-2.29276e-05,0.0744225,-0.007444005122863917,0.10263580511990189,-1.2738618863084028e-05,0.049985442723008866,-2.2927337164579953e-05,-0.03890363568747268
102,219.8,210.981,634.071,-2.69228e-06,365.756,-0.0513145,-0.0883482,-0.00756781,0.0493659,-0.040171,0.0988942,-1.292e-05,-2.32543e-05,0.0753667,-0.0075392462263911275,0.10394949552343102,-1.291991653717961e-05,0.05060469667816525,-2.3254029620889405e-05,-0.039374841795350446
103,222.5,211.397,635.325,-2.74869e-06,366.478,-0.0514631,-0.0886043,-0.0076637,0.049955,-0.040661,0.100084,-1.31014e-05,-2.3581e-05,0.0763102,-0.007634408725431419,0.10526375633191809,-1.3101314177088597e-05,0.051223790241083256,-2.3580721970395402e-05,-0.03984543281865438
104,225.2,211.809,636.564,-2.80538e-06,367.192,-0.0516097,-0.0888567,-0.0077595,0.0505436,-0.0411506,0.101272,-1.32826e-05,-2.39077e-05,0.0772529,-0.0077294727954341225,0.10657758993707933,-1.3282511786671947e-05,0.05184272269797208,-2.3907414213208966e-05,-0.04031540943508238
105,227.9,212.216,637.79,-2.86236e-06,367.898,-0.0517541,-0.0891056,-0.00785523,0.0511316,-0.0416397,0.10246,-1.34639e-05,-2.42344e-05,0.0781948,-0.007824458306449178,0.10789298530406644,-1.3463809362068702e-05,0.052461388088718364,-2.4234106349330098e-05,-0.04078467639973704
106,230.6,212.618,639.004,-2.91962e-06,368.597,-0.0518966,-0.089351,-0.00795088,0.051719,-0.0421284,0.103646,-1.36452e-05,-2.4561e-05,0.0791358,-0.007919355358488422,0.10920772587168437,-1.3645106904713877e-05,0.05307978551362469,-2.456069838108199e-05,-0.04125333040344714
107,233.3,213.017,640.205,-2.97716e-06,369.289,-0.052037,-0.089593,-0.00804645,0.0523059,-0.0426167,0.104831,-1.38264e-05,-2.48876e-05,0.0800761,-0.008014163975194832,0.11052291612316445,-1.3826304415820445e-05,0.053698019442742995,-2.4887290306252474e-05,-0.04172137212052607
108,236.0,213.411,641.393,-3.03498e-06,369.974,-0.0521756,-0.0898318,-0.00814194,0.0528923,-0.0431045,0.106016,-1.40076e-05,-2.52141e-05,0.0810156,-0.008108884180188625,0.11183966579886895,-1.4007501894064411e-05,0.05431608916167452,-2.5213782127275763e-05,-0.04218870644309747
109,238.7,213.802,642.569,-3.09307e-06,370.651,-0.0523122,-0.0900674,-0.00823736,0.0534781,-0.0435919,0.107199,-1.41887e-05,-2.55406e-05,0.0819542,-0.008203525915031151,0.11315575043408344,-1.4188599340880792e-05,0.054933888462453506,-2.554027384160662e-05,-0.04265542991782678
110,241.4,214.188,643.734,-3.15143e-06,371.322,-0.0524471,-0.0902999,-0.00833269,0.0540634,-0.0440788,0.108381,-1.43699e-05,-2.5867e-05,0.0828921,-0.008298069366420524,0.11447227844587204,-1.4369796753510578e-05,0.05555152200019342,-2.5866665452012327e-05,-0.04312144752780611
111,244.1,214.571,644.887,-3.21007e-06,371.986,-0.0525802,-0.0905294,-0.00842795,0.0546481,-0.0445653,0.109561,-1.45509e-05,-2.61933e-05,0.0838292,-0.008392534392892115,0.11578813193531445,-1.4550794136147793e-05,0.05616888344313642,-2.6192956958492886e-05,-0.043586855723860785
112,246.8,214.95,646.028,-3.26898e-06,372.644,-0.0527116,-0.090756,-0.00852313,0.0552323,-0.0450514,0.110741,-1.4732e-05,-2.65196e-05,0.0847654,-0.008486911100009764,0.11710553904833154,-1.4731891484598414e-05,0.05678607756969467,-2.6519248358503056e-05,-0.044051655174634385
113,249.5,215.325,647.158,-3.32815e-06,373.295,-0.0528413,-0.0909797,-0.00861823,0.0558159,-0.045537,0.11192,-1.4913e-05,-2.68458e-05,0.0857009,-0.008581199511279114,0.1184233831953394,-1.4912888801732471e-05,0.05740299792441417,-2.68454396546991e-05,-0.0445157509992955
114,252.2,215.696,648.278,-3.38759e-06,373.94,-0.0529694,-0.0912006,-0.00871325,0.056399,-0.0460222,0.113098,-1.50939e-05,-2.71719e-05,0.0866356,-0.008675399650182047,0.11974166225466298,-1.5093786087660988e-05,0.05801974940892429,-2.717153084730306e-05,-0.04497923950550631
115,254.9,216.064,649.386,-3.44729e-06,374.579,-0.0530959,-0.0914189,-0.00880819,0.0569816,-0.046507,0.114274,-1.52748e-05,-2.74979e-05,0.0875695,-0.008769511540177244,0.12105925304100729,-1.5274683340837925e-05,0.05863633130779711,-2.7497521936203917e-05,-0.045442121358566734
116,257.6,216.429,650.485,-3.50726e-06,375.212,-0.0532209,-0.0916345,-0.00890306,0.0575636,-0.0469913,0.11545,-1.54557e-05,-2.78238e-05,0.0885025,-0.008863545116064131,0.12237839422557162,-1.5455580561263282e-05,0.059252636980172246,-2.7823412921623714e-05,-0.045904301813162296
117,260.3,216.79,651.573,-3.56749e-06,375.838,-0.0533443,-0.0918475,-0.00899784,0.0581451,-0.0474753,0.116624,-1.56365e-05,-2.81497e-05,0.0894348,-0.008957480577586274,0.12369684023676952,-1.563637775059412e-05,0.05986877151232983,-2.814930380090619e-05,-0.04636597239779072
118,263.0,217.148,652.651,-3.62797e-06,376.459,-0.0534663,-0.0920581,-0.00909255,0.058726,-0.0479587,0.117797,-1.58172e-05,-2.84754e-05,0.0903663,-0.009051337769923395,0.1250157099962581,-1.581707490871942e-05,0.06048462813994049,-2.8474994579696933e-05,-0.04682684768420242
119,265.8,217.502,653.719,-3.68871e-06,377.074,-0.0535869,-0.0922662,-0.00918717,0.0593064,-0.0484418,0.11897,-1.59979e-05,-2.8801e-05,0.091297,-0.009145096896529314,0.12633612769766578,-1.5997772034315183e-05,0.06110031207230682,-2.880058525522866e-05,-0.047287214423546664
120,268.5,217.853,654.777,-3.74971e-06,377.684,-0.0537061,-0.0924719,-0.00928172,0.0598863,-0.0489244,0.120141,-1.61785e-05,-2.91266e-05,0.0922269,-0.009238777798783127,0.12765583984385742,-1.6178369128816428e-05,0.061715822593304104,-2.912617582473409e-05,-0.04774688268699234
121,270.5,218.116,655.57,-3.94221e-06,378.141,-0.0537951,-0.0926256,-0.00935311,0.0603241,-0.0492887,0.121025,-1.63149e-05,-2.93724e-05,0.0929289,-0.009309505717773003,0.12865312834285136,-1.6314766912772782e-05,0.06218074354420566,-2.9371968635283352e-05,-0.04809372531640854
