,Time,S11,S22,S33,S12,S13,S23,LE11,LE22,LE33,LE12,LE13,LE23,SDV_EPBAR,E11,E12,E13,E22,E23,E33
0,0.0002705,0.000519365,0.0015581,-7.79048e-12,0.000899567,2.21372e-21,3.68811e-20,2.50301e-10,6.7501e-09,-3.0004e-09,1.1258e-08,2.76762e-26,4.61603e-25,0.0,2.5030089112476617e-10,1.1258000087721598e-08,0.0,6.750100034480511e-09,0.0,-3.0004000395322805e-09
1,0.000541,0.00103873,0.00311619,4.33681e-19,0.00179913,-3.08331e-20,-2.03577e-20,5.00425e-10,1.35001e-08,-6.00057e-09,2.25162e-08,-1.63975e-24,4.6912e-25,0.0,5.00425034744012e-10,2.2516200237632233e-08,0.0,1.3500100148888805e-08,0.0,-6.000569929831556e-09
2,0.00094675,0.00181778,0.00545333,6.50521e-19,0.00314848,1.87371e-20,6.55005e-20,8.75688e-10,2.36252e-08,-1.05009e-08,3.94034e-08,-1.73568e-24,1.95724e-24,0.0,8.756879665838824e-10,3.9403400764470575e-08,0.0,2.3625200240573463e-08,0.0,-1.0500899927379237e-08
3,0.0015554,0.00298635,0.00895905,1.73472e-18,0.00517251,4.73565e-20,4.89771e-20,1.4375e-09,3.88125e-08,-1.725e-08,6.47354e-08,4.1359e-25,7.16359e-25,0.0,1.4374998968946784e-09,6.473540214990692e-08,0.0,3.8812500768869995e-08,0.0,-1.7249999872959165e-08
4,0.0024683,0.00473921,0.0142176,0.0,0.00820854,1.00168e-19,-5.78319e-20,2.28125e-09,6.15937e-08,-2.7375e-08,1.02732e-07,-7.41318e-35,-1.284e-34,0.0,2.281250077729169e-09,1.027320053470504e-07,0.0,6.159370191660685e-08,0.0,-2.7374999600482397e-08
5,0.0038377,0.00736849,0.0221055,-8.67362e-19,0.0127626,9.88226e-21,-8.20239e-20,3.54688e-09,9.57656e-08,-4.25625e-08,1.59728e-07,7.653e-32,1.32554e-31,0.0,3.5468799008953056e-09,1.597280128162737e-07,0.0,9.576560455748506e-08,0.0,-4.256249908074494e-08
6,0.0058918,0.0113124,0.0339373,-6.07153e-18,0.0195937,-4.73565e-20,-4.89771e-20,5.44671e-09,1.47024e-07,-6.53456e-08,2.45219e-07,-1.14621e-23,6.61761e-24,0.0,5.446709971934638e-09,2.452190299706558e-07,0.0,1.4702401074373483e-07,0.0,-6.534559782167548e-08
7,0.008973,0.0172283,0.0516849,7.80626e-18,0.0298403,6.7121e-20,-1.15071e-19,8.29297e-09,2.2391e-07,-9.95156e-08,3.7346e-07,1.78232e-31,3.08708e-31,0.0,8.292970088419338e-09,3.734600697580248e-07,0.0,2.2391002496569e-07,0.0,-9.951559509779884e-08
8,0.013595,0.0261021,0.0783064,9.54098e-18,0.0452102,-1.3116e-19,-4.58503e-19,1.25671e-08,3.39241e-07,-1.50777e-07,5.65816e-07,2.77687e-23,-3.13146e-23,0.0,1.2567100027283118e-08,5.658161601473921e-07,0.0,3.392410574676319e-07,0.0,-1.5077698867216327e-07
9,0.020527,0.0394129,0.118239,6.07153e-18,0.0682651,-4.56883e-19,3.48265e-20,1.89735e-08,5.12236e-07,-2.27663e-07,8.54355e-07,1.1462e-23,-6.61759e-24,0.0,1.8973500104380037e-08,8.543553648987512e-07,0.0,5.122361312892565e-07,0.0,-2.276629741393421e-07
10,0.030926,0.059379,0.178137,-8.67362e-19,0.102847,-1.54031e-18,-2.55477e-19,2.8587e-08,7.71729e-07,-3.42996e-07,1.28716e-06,-2.95414e-23,1.77334e-24,0.0,2.858700032248862e-08,1.2871608283671065e-06,0.0,7.717292977993395e-07,0.0,-3.429959412049044e-07
11,0.046525,0.0893282,0.267985,-4.94396e-17,0.154721,-5.5365e-19,3.95969e-19,4.30043e-08,1.16097e-06,-5.15992e-07,1.93637e-06,-9.16942e-23,5.29396e-23,0.0,4.300430100911967e-08,1.9363718748444114e-06,0.0,1.1609706738191505e-06,0.0,-5.159918669006558e-07
12,0.069922,0.134252,0.402756,-2.1684e-17,0.232531,2.20493e-19,-2.49317e-18,6.46307e-08,1.74483e-06,-7.75487e-07,2.91018e-06,-5.29397e-23,-9.16942e-23,0.0,6.463070212348043e-08,2.910184234483637e-06,0.0,1.744831522154655e-06,0.0,-7.754866993003873e-07
13,0.105,0.201637,0.604912,1.99493e-17,0.349246,-1.22407e-18,-2.88023e-18,9.70596e-08,2.62061e-06,-1.16471e-06,4.37091e-06,-1.05879e-22,-1.83388e-22,0.0,9.705960479777787e-08,4.370919552521002e-06,0.0,2.62061343381248e-06,0.0,-1.1647093217659332e-06
14,0.1577,0.302715,0.908146,-9.1073e-17,0.524319,2.72256e-18,-2.74454e-19,1.45719e-07,3.93429e-06,-1.74858e-06,6.56199e-06,1.03982e-22,-2.43423e-22,0.0,1.4571901063575865e-07,6.562011529931411e-06,0.0,3.934297739371928e-06,0.0,-1.748578471238993e-06
15,0.2366,0.454332,1.363,-7.80626e-18,0.786926,-1.38381e-17,-7.8084e-18,2.18705e-07,5.90479e-06,-2.62436e-06,9.8486e-06,-2.11758e-22,-3.66776e-22,0.0,2.1870502386889257e-07,9.848648497623458e-06,0.0,5.904807433232406e-06,0.0,-2.624356556402141e-06
16,0.3551,0.681756,2.04527,4.77049e-17,1.18084,-5.94481e-18,-2.59681e-18,3.28182e-07,8.86055e-06,-3.93804e-06,1.47785e-05,5.57568e-28,9.65736e-28,0.0,3.281820537548441e-07,1.4778609202625859e-05,0.0,8.860589254755524e-06,0.0,-3.938032245964784e-06
17,0.5328,1.02289,3.06867,7.13839e-16,1.7717,-5.94479e-18,-2.59677e-18,4.92389e-07,1.32942e-05,-5.90853e-06,2.21733e-05,8.36561e-28,1.44897e-27,0.0,4.923891212538223e-07,2.2173545829451413e-05,0.0,1.3294288368159712e-05,0.0,-5.908512544672284e-06
18,0.7993,1.53459,4.60377,-2.85362e-16,2.65799,-3.98145e-18,-3.30361e-17,7.38697e-07,1.99445e-05,-8.86424e-06,3.32654e-05,7.35553e-27,1.27402e-26,0.0,7.38697272906208e-07,3.326595329955495e-05,0.0,1.9944698892881974e-05,0.0,-8.864200712777048e-06
19,1.199,2.30213,6.90638,-1.61763e-15,3.9874,2.21215e-18,-5.61484e-17,1.10814e-06,2.99199e-05,-1.32977e-05,4.99034e-05,-4.23505e-22,-7.33532e-22,0.0,1.1081406139368255e-06,4.990464519538662e-05,0.0,2.992034760462836e-05,0.0,-1.3297611585971758e-05
20,1.799,3.45341,10.3602,-3.17194e-15,5.98148,6.53581e-17,-1.44564e-17,1.66234e-06,4.48827e-05,-1.99479e-05,7.48599e-05,-1.09041e-26,-1.88864e-26,0.0,1.6623413816585497e-06,7.486270207235357e-05,0.0,4.4883707243537074e-05,0.0,-1.994770104196686e-05
21,2.698,5.18029,15.5409,-2.8485e-14,8.97252,-6.87866e-17,2.39178e-17,2.49357e-06,6.73263e-05,-2.99228e-05,0.000112294,-4.23518e-22,-7.33555e-22,0.0,2.4935731088859825e-06,0.00011230030520725798,0.0,6.732856646629592e-05,0.0,-2.9922352317468537e-05
22,4.047,31.1929,93.5787,-1.03264e-09,54.0277,-8.08225e-16,-1.7395e-16,1.5015e-05,0.000405403,-0.000180179,0.000676171,-3.02527e-20,1.82072e-21,0.0,1.5015112725613733e-05,0.0006763996551444329,0.0,0.00040548518690219915,0.0,-0.00018016276873877857
23,6.071,70.3658,211.097,-9.04826e-07,121.877,1.29847e-16,-7.14917e-16,3.38711e-05,0.000914519,-0.000406453,0.00152533,-2.03309e-20,-3.52142e-20,0.0,3.3871673632113186e-05,0.0015264939075101402,0.0,0.0009149373000056915,0.0,-0.00040637040916957634
24,8.776,121.271,363.819,0.000118491,210.05,-0.000122326,-0.000211819,5.55206e-05,0.0015932,-0.000714715,0.00266338,-1.55371e-09,-2.69217e-09,2.7588e-05,5.552214129700417e-05,0.0026669299474322283,-1.5537100495066625e-09,0.0015944698173882,-2.6921700424509254e-09,-0.0007144596520716195
25,11.48,127.237,381.875,0.075346,220.498,-0.00255552,-0.00441619,-3.57625e-05,0.00223292,-0.00121675,0.00393179,-4.62851e-08,-8.11485e-08,0.000935816,-3.576186052944852e-05,0.003939529626506344,-4.628509897575128e-08,0.0022354148224306147,-8.114849670004531e-08,-0.0012160100598566093
26,14.19,132.211,396.716,0.000131488,229.02,-0.00461439,-0.00797826,-0.000128961,0.00287134,-0.00172397,0.00520122,-9.74024e-08,-1.71624e-07,0.00186422,-0.0001289526848876621,0.005214769826434429,-9.740239526045968e-08,0.002875466245036984,-1.7162398524561695e-07,-0.0017224848173124085
27,16.89,136.408,409.335,-4.96442e-06,236.297,-0.00629047,-0.010872,-0.000224204,0.00350839,-0.0022334,0.00647186,-1.52346e-07,-2.69313e-07,0.00280605,-0.00022417886816139543,0.00649284773806813,-1.5234598838009816e-07,0.0035145516038588287,-2.6931296370769076e-07,-0.002230907817911687
28,19.6,140.067,420.34,5.29577e-06,242.644,-0.00771863,-0.013336,-0.000320697,0.00414436,-0.00274464,0.00774278,-2.11214e-07,-3.74316e-07,0.00375741,-0.0003206455822137855,0.0077728328351551745,-2.112139776411226e-07,0.004152959735934436,-3.74315929918545e-07,-0.002740876919189783
29,22.3,143.318,430.115,2.41476e-06,248.281,-0.0089572,-0.0154716,-0.000418117,0.00477935,-0.00325712,0.0090136,-2.73546e-07,-4.85746e-07,0.0047158,-0.0004180296012684659,0.009054344819640514,-2.7354596254802743e-07,0.004790789310106236,-4.857458820728411e-07,-0.0032518213390053674
30,25.01,146.247,438.921,1.08524e-06,253.359,-0.010047,-0.0173498,-0.000516247,0.00541343,-0.00377049,0.0102841,-3.38944e-07,-6.02845e-07,0.0056795,-0.0005161137674454253,0.010337163102490665,-3.3894394257938387e-07,0.0054281090883010474,-6.02844818287096e-07,-0.003763390628086505
31,27.71,148.915,446.942,4.48269e-07,257.985,-0.0110175,-0.0190215,-0.000614933,0.00604667,-0.00428446,0.011554,-4.07065e-07,-7.24964e-07,0.00664731,-0.0006147439674523136,0.011621005268966478,-4.0706491710729154e-07,0.006064988011422967,-7.249637372641615e-07,-0.004275294795243911
32,30.42,151.367,454.315,1.3583e-07,262.237,-0.0118903,-0.0205244,-0.000714061,0.0066791,-0.00479884,0.0128234,-4.77616e-07,-8.51551e-07,0.00761835,-0.0007138061191145351,0.012905972369125829,-4.776158859520763e-07,0.006701454930964079,-8.515506374484616e-07,-0.004787343963891466
33,33.12,153.637,461.141,-1.58005e-08,266.173,-0.0126819,-0.021887,-0.000813544,0.00731074,-0.00531349,0.0140919,-5.50343e-07,-9.82132e-07,0.00859195,-0.0008132131628030281,0.01419165886934004,-5.50342848515406e-07,0.007337528701627294,-9.821315176683498e-07,-0.005299398381615195
34,35.83,155.752,467.501,-8.49205e-08,269.841,-0.013405,-0.0231313,-0.000913317,0.00794164,-0.00582829,0.0153597,-6.25028e-07,-1.1163e-06,0.00956758,-0.0009129000529732867,0.015478266462675805,-6.250278046238122e-07,0.007973258468353173,-1.116299376935359e-06,-0.005811338466644278
35,38.53,157.734,473.459,-1.10949e-07,273.277,-0.0140697,-0.0242748,-0.00101333,0.00857179,-0.00634315,0.0166265,-7.01483e-07,-1.25371e-06,0.0105448,-0.001012816754532686,0.016765489485550678,-7.014827539952861e-07,0.008608632986778275,-1.2537092141107209e-06,-0.006323074693360242
36,41.24,159.598,479.064,-1.14526e-07,276.51,-0.014684,-0.0253312,-0.00111353,0.00920122,-0.006858,0.0178925,-7.79542e-07,-1.39405e-06,0.0115234,-0.0011129102555256232,0.01805352975269403,-7.795416961942081e-07,0.009243681356920552,-1.3940490283248508e-06,-0.006834537583721989
37,43.94,161.359,484.36,-1.06771e-07,279.564,-0.0152544,-0.026312,-0.00121389,0.00982995,-0.00737277,0.0191574,-8.59063e-07,-1.53706e-06,0.0125029,-0.0012131535335604404,0.01934208043455321,-8.590626310311933e-07,0.009878422656239172,-1.5370588187790801e-06,-0.007345657802845795
38,46.65,163.029,489.38,-9.37902e-08,282.459,-0.0157864,-0.0272265,-0.00131437,0.010458,-0.00788743,0.0204214,-9.39918e-07,-1.68251e-06,0.0134833,-0.0013135065940712565,0.02063134346680484,-9.399175582291974e-07,0.010512876012948924,-1.6825085845662002e-06,-0.00785640584453362
39,49.35,164.617,494.153,-7.89626e-08,285.212,-0.0162843,-0.0280823,-0.00141497,0.0110853,-0.00840193,0.0216843,-1.022e-06,-1.83018e-06,0.0144643,-0.0014139694019439375,0.021921113044045537,-1.021999477712754e-06,0.011146969602733314,-1.830178325223919e-06,-0.00836673243095487
40,52.06,166.131,498.705,-6.4148e-08,287.837,-0.0167519,-0.0288859,-0.00151565,0.011712,-0.00891622,0.0229462,-1.1052e-06,-1.9799e-06,0.0154457,-0.0015145019826094952,0.023211489288255116,-1.105199389228595e-06,0.011780854015517317,-1.9798980399610144e-06,-0.008876588385985595
41,54.76,167.578,503.056,-5.03456e-08,290.346,-0.0171925,-0.0296429,-0.00161639,0.012338,-0.0094303,0.0242071,-1.18943e-06,-2.1315e-06,0.0164274,-0.0016150843452610308,0.02450247038308917,-1.1894292926140082e-06,0.012414427117821702,-2.1314977283193315e-06,-0.009385974165688982
42,57.47,168.964,507.224,-3.80609e-08,292.75,-0.0176087,-0.0303579,-0.00171719,0.0129633,-0.00994412,0.0254668,-1.27462e-06,-2.28484e-06,0.0174093,-0.0017157164728146546,0.0257938493493044,-1.2746191876411572e-06,0.013047687827425714,-2.284837389732175e-06,-0.00989484072034108
43,60.17,170.295,511.225,-2.75153e-08,295.058,-0.0180029,-0.031035,-0.00181803,0.0135879,-0.0104577,0.0267255,-1.36069e-06,-2.43978e-06,0.0183914,-0.0018163783845066561,0.0270858290042999,-1.3606890743034228e-06,0.013680635062086832,-2.439777023743872e-06,-0.010403208373140349
44,62.88,171.575,515.072,-1.87675e-08,297.277,-0.018377,-0.0316776,-0.00191889,0.0142119,-0.0109709,0.0279831,-1.44758e-06,-2.59621e-06,0.0193734,-0.0019170501076223312,0.028378304681217603,-1.4475789522627736e-06,0.014313369170876555,-2.596206629901232e-06,-0.010910939151741794
45,65.58,172.807,518.779,-1.1786e-08,299.414,-0.0187329,-0.0322889,-0.00201978,0.0148353,-0.0114839,0.0292396,-1.53523e-06,-2.75402e-06,0.0203554,-0.002017741616968549,0.02967127415901305,-1.5352288215142451e-06,0.014945889261245071,-2.754016207640042e-06,-0.011418211713420057
46,68.29,173.997,522.354,-6.48995e-09,301.476,-0.0190722,-0.0328714,-0.00212067,0.015458,-0.0119965,0.0304949,-1.62359e-06,-2.91312e-06,0.0213372,-0.0021184229680606403,0.03096463211574929,-1.6235886819426781e-06,0.015578092882657213,-2.913115756841833e-06,-0.011924828881022309
47,70.99,175.146,525.809,-2.77413e-09,303.469,-0.0193961,-0.0334276,-0.00222156,0.01608,-0.0125088,0.0317491,-1.71261e-06,-3.07341e-06,0.0223188,-0.0022190941619235627,0.032258479159226194,-1.7126085334329133e-06,0.016209978952625992,-3.073405277054242e-06,-0.012430890152524077
48,73.7,176.257,529.15,-5.25708e-10,305.396,-0.0197058,-0.0339594,-0.00232245,0.0167014,-0.0130208,0.0330022,-1.80224e-06,-3.23481e-06,0.0233002,-0.002319755199582163,0.033552813054993136,-1.8022383759808136e-06,0.01684164807281663,-3.2348047680486047e-06,-0.012936396116196347
49,76.4,177.334,532.387,3.70089e-10,307.262,-0.0200026,-0.0344689,-0.00242332,0.0173222,-0.0135324,0.0342542,-1.89244e-06,-3.39725e-06,0.0242813,-0.002420386130469021,0.034847631564188575,-1.8924382093610248e-06,0.017473099350137078,-3.3972442293750404e-06,-0.01344124870363983
50,79.11,178.378,535.525,2.30248e-11,309.072,-0.0202872,-0.0349575,-0.00252418,0.0179423,-0.0140436,0.035505,-1.98318e-06,-3.56067e-06,0.025262,-0.0025209969364353713,0.03614282882925712,-1.9831780334600424e-06,0.01810423008090334,-3.56066366080654e-06,-0.01394544865281544
51,81.81,179.391,538.571,-1.46327e-09,310.829,-0.0205606,-0.0354269,-0.00262501,0.0185618,-0.0145544,0.0367547,-2.07442e-06,-3.72499e-06,0.0262424,-0.002621567673955383,0.037438505957672064,-2.074417848385579e-06,0.018735141055935323,-3.724983062225462e-06,-0.014448996700523908
52,84.52,180.375,541.531,-3.99349e-09,312.536,-0.0208236,-0.0358783,-0.00272582,0.0191807,-0.0150649,0.0380033,-2.16613e-06,-3.89016e-06,0.0272223,-0.0027221083258816003,0.03873466069722209,-2.166127653913108e-06,0.019365831381724652,-3.8901524332946025e-06,-0.014951992087211763
53,87.22,181.333,544.409,-7.47949e-09,314.196,-0.0210768,-0.0363129,-0.00282659,0.019799,-0.015575,0.0392507,-2.25828e-06,-4.05613e-06,0.0282018,-0.0028225989557200126,0.04003118678818174,-2.258277450040147e-06,0.01999630016460685,-4.056121773898802e-06,-0.0154543369421003
54,89.93,182.264,547.211,-1.18427e-08,315.812,-0.0213208,-0.0367319,-0.00292733,0.0204166,-0.0160847,0.0404969,-2.35084e-06,-4.22285e-06,0.0291808,-0.0029230495473200335,0.041328081580461085,-2.350837236764214e-06,0.0206264444481139,-4.222841083811879e-06,-0.015956031998714093
55,92.63,183.172,549.94,-1.70102e-08,317.385,-0.0215564,-0.0371362,-0.00302803,0.0210336,-0.016594,0.041742,-2.4438e-06,-4.39028e-06,0.0301594,-0.0030234501409760473,0.042625446681874735,-2.443797013973459e-06,0.02125636527492958,-4.390270362697457e-06,-0.016457077989425528
56,95.34,184.057,552.6,-2.29174e-08,318.92,-0.0217839,-0.0375267,-0.00312869,0.02165,-0.0171029,0.0429859,-2.53711e-06,-4.55836e-06,0.0311374,-0.0031238007497537135,0.043923175430067074,-2.5371067815527226e-06,0.021886061751001273,-4.558349610661594e-06,-0.016957475645453468
57,98.04,184.92,555.195,-2.95054e-08,320.416,-0.0220038,-0.0379042,-0.00322931,0.0222658,-0.0176114,0.0442287,-2.63077e-06,-4.72706e-06,0.0321148,-0.0032241013867125856,0.04522136968330681,-2.6307665395020052e-06,0.02251553298212783,-4.727048827479763e-06,-0.017457225696868917
58,100.7,185.762,557.728,-3.67217e-08,321.877,-0.0222167,-0.0382696,-0.00332988,0.0228809,-0.0181195,0.0454703,-2.72475e-06,-4.89634e-06,0.0330917,-0.0033243420981476923,0.046519922510683376,-2.7247462878188244e-06,0.023144675759489974,-4.8963280129266096e-06,-0.017956328872592797
59,103.5,186.585,560.203,-4.45186e-08,323.304,-0.0224229,-0.0386235,-0.0034304,0.0234955,-0.0186272,0.0467108,-2.81903e-06,-5.06617e-06,0.034068,-0.0034245229001085287,0.04781893602110654,-2.8190260265015255e-06,0.023773693754641556,-5.066157166999652e-06,-0.01845478590040106
60,106.2,187.39,562.621,-5.28526e-08,324.699,-0.0226227,-0.0389664,-0.00353086,0.0241094,-0.0191344,0.0479501,-2.9136e-06,-5.23652e-06,0.0350438,-0.00352463384388102,0.04911830301497089,-2.9135957554382585e-06,0.02440238138116002,-5.236506289474363e-06,-0.018952499402178358
61,108.9,188.177,564.986,-6.16854e-08,326.063,-0.0228165,-0.0392992,-0.00363128,0.0247227,-0.0196413,0.0491883,-3.00843e-06,-5.40735e-06,0.0360189,-0.0036246948760019215,0.05041812585201488,-3.0084254746265415e-06,0.025030840058815507,-5.407335380347433e-06,-0.0194496663626198
62,111.6,188.946,567.301,-7.09823e-08,327.398,-0.0230047,-0.0396221,-0.00373164,0.0253354,-0.0201477,0.0504253,-3.10352e-06,-5.57864e-06,0.0369933,-0.0037246860839816875,0.05171829706379816,-3.1035151840663744e-06,0.02565906889276981,-5.578624439395163e-06,-0.019946091346159323
63,114.3,189.7,569.567,-8.0711e-08,328.705,-0.0231874,-0.0399359,-0.00383194,0.0259475,-0.0206537,0.0516612,-3.19884e-06,-5.75036e-06,0.0379672,-0.0038246074868250046,0.053018919261073494,-3.198834883755275e-06,0.026287066988048613,-5.750343466726093e-06,-0.020441873180555903
64,117.0,190.438,571.786,-9.08435e-08,329.985,-0.0233651,-0.0402408,-0.00393218,0.026559,-0.0211593,0.0528959,-3.29439e-06,-5.92248e-06,0.0389404,-0.003924459103524125,0.05431988470642746,-3.2943845734711985e-06,0.026914833449545705,-5.922462462115696e-06,-0.020937012587685877
65,119.7,191.162,573.961,-1.01353e-07,331.239,-0.0235379,-0.0405375,-0.00403236,0.0271699,-0.0216644,0.0541294,-3.39015e-06,-6.09498e-06,0.0399129,-0.0040242409530547585,0.05562119069968707,-3.390144253434535e-06,0.027542367382023425,-6.09496142567334e-06,-0.021431412431436203
66,122.4,191.871,576.093,-1.12217e-07,332.469,-0.023706,-0.0408261,-0.00413248,0.0277802,-0.0221691,0.0553618,-3.4861e-06,-6.26784e-06,0.0408847,-0.004123953054379403,0.05692294022840594,-3.486093923532607e-06,0.02816966789011599,-6.267820357175324e-06,-0.02192517138702854
67,125.1,192.566,578.184,-1.23413e-07,333.675,-0.0238698,-0.0411073,-0.00423254,0.0283899,-0.0226734,0.0565931,-3.58224e-06,-6.44103e-06,0.0418559,-0.004223595426445681,0.05822513097392079,-3.582233583765415e-06,0.028796734078330832,-6.441009256619168e-06,-0.02241829017274566
68,127.8,193.249,580.237,-1.34922e-07,334.858,-0.0240293,-0.0413812,-0.00433253,0.028999,-0.0231772,0.0578232,-3.67856e-06,-6.61455e-06,0.0428263,-0.004323158131418703,0.0595276546604826,-3.6785532341321314e-06,0.029423565051051037,-6.614528123893848e-06,-0.022910671796810944
69,130.5,193.919,582.251,-1.46727e-07,336.02,-0.0241849,-0.0416483,-0.00443246,0.0296076,-0.0236806,0.0590521,-3.77504e-06,-6.78836e-06,0.0437961,-0.004422651146975376,0.06083050856991612,-3.775032874520079e-06,0.03005026291755808,-6.7883369591070775e-06,-0.023402414782534353
70,133.2,194.577,584.229,-1.5881e-07,337.161,-0.0243366,-0.0419087,-0.00453232,0.0302155,-0.0241836,0.0602799,-3.87167e-06,-6.96245e-06,0.0447652,-0.004522064537238579,0.06213379619288517,-3.871662505150475e-06,0.030676620834585888,-6.9624257621470065e-06,-0.02389351984462118
71,135.9,195.223,586.172,-1.71157e-07,338.281,-0.0244846,-0.0421629,-0.00463211,0.0308228,-0.0246862,0.0615065,-3.96845e-06,-7.1368e-06,0.0457335,-0.004621398324076598,0.063437408849492,-3.9684421256902525e-06,0.03130274084851736,-7.136774533123003e-06,-0.02438398769665162
72,138.6,195.858,588.081,-1.83755e-07,339.382,-0.0246291,-0.0424111,-0.00473184,0.0314295,-0.0251883,0.062732,-4.06537e-06,-7.3114e-06,0.0467011,-0.004720662482132321,0.06474145028221878,-4.065361736360629e-06,0.03192862206325864,-7.311373271812194e-06,-0.02487372153845946
73,141.3,196.482,589.958,-1.96591e-07,340.465,-0.0247703,-0.0426535,-0.00483149,0.0320357,-0.0256899,0.0639563,-4.16242e-06,-7.48624e-06,0.047668,-0.004819837126657234,0.06604581154161737,-4.162411337160776e-06,0.03255436683803237,-7.486211978213753e-06,-0.02536272222810998
74,144.0,197.096,591.804,-2.09653e-07,341.529,-0.0249082,-0.0428904,-0.00493108,0.0326412,-0.0261912,0.0651795,-4.25958e-06,-7.66129e-06,0.0486342,-0.004918942184059527,0.0673505966221637,-4.259570927978018e-06,0.03317976782819487,-7.66126065243622e-06,-0.025851185451920555
75,146.7,197.7,593.619,-2.22931e-07,342.576,-0.0250431,-0.043122,-0.00503059,0.0332462,-0.026692,0.0664016,-4.35686e-06,-7.83654e-06,0.0495996,-0.005017957773520432,0.06865580317030973,-4.356850508924204e-06,0.033805030710681194,-7.836509294367744e-06,-0.02633891704006297
76,149.4,198.294,595.405,-2.36414e-07,343.606,-0.0251749,-0.0433486,-0.00513004,0.0338506,-0.0271923,0.0676225,-4.45424e-06,-8.01199e-06,0.0505642,-0.005116903817446228,0.06996132183210091,-4.454230079886656e-06,0.03443005133344812,-8.011957904119349e-06,-0.026825917846458047
77,152.1,198.878,597.163,-2.50096e-07,344.62,-0.025304,-0.0435702,-0.00522941,0.0344543,-0.0276922,0.0688423,-4.55172e-06,-8.18761e-06,0.0515282,-0.00521576043894123,0.07126725698039227,-4.551709640976398e-06,0.0350547252943012,-8.18757648157753e-06,-0.027312285992279972
78,154.8,199.454,598.893,-2.63966e-07,345.618,-0.0254302,-0.0437871,-0.00532871,0.0350576,-0.0281917,0.0700609,-4.6493e-06,-8.3634e-06,0.0524913,-0.005314537609562131,0.07257349899135956,-4.649289191971384e-06,0.03567936221285217,-8.363365026853309e-06,-0.027798022182713877
79,157.6,200.021,600.598,-2.78017e-07,346.601,-0.0255539,-0.0439996,-0.00542794,0.0356602,-0.0286907,0.0712784,-4.74695e-06,-8.53935e-06,0.0534537,-0.005413235351025669,0.07388015249029434,-4.7469387332021995e-06,0.036303650675743926,-8.539313539834836e-06,-0.028283029950142757
80,160.3,200.579,602.276,-2.92242e-07,347.569,-0.025675,-0.0442077,-0.00552709,0.0362622,-0.0291893,0.0724947,-4.84469e-06,-8.71544e-06,0.0544154,-0.005511843740148903,0.07518710758338387,-4.844678264559477e-06,0.03692769329143175,-8.71540202063148e-06,-0.028767407266110157
81,163.0,201.129,603.93,-3.06635e-07,348.522,-0.0257936,-0.0444116,-0.00562617,0.0368637,-0.0296874,0.0737099,-4.9425e-06,-8.89166e-06,0.0553763,-0.005610372745463499,0.0764944691485232,-4.942487785819516e-06,0.03755159291794863,-8.891620469353434e-06,-0.029251057757396337
82,165.7,201.671,605.56,-3.21188e-07,349.462,-0.0259099,-0.0446114,-0.00572517,0.0374646,-0.0301852,0.074924,-5.04038e-06,-9.06801e-06,0.0563364,-0.005708812445716305,0.07780223480201509,-5.0403672973153846e-06,0.0381752450276438,-9.067968885667632e-06,-0.02973417632265718
83,168.4,202.205,607.166,-3.35898e-07,350.388,-0.026024,-0.0448074,-0.0058241,0.0380649,-0.0306824,0.0761369,-5.13833e-06,-9.24448e-06,0.0572958,-0.005807172807425487,0.07911029424489535,-5.138316798825038e-06,0.03879864872313199,-9.244437269906314e-06,-0.03021647258140403
84,171.1,202.732,608.75,-3.50758e-07,351.302,-0.0261358,-0.0449996,-0.00592295,0.0386646,-0.0311792,0.0773487,-5.23633e-06,-9.42105e-06,0.0582543,-0.00590544391126413,0.08041875273434207,-5.236316290457843e-06,0.0394218031069371,-9.421005622067824e-06,-0.030698141381389044
85,173.8,203.251,610.311,-3.65764e-07,352.203,-0.0262456,-0.0451883,-0.00602173,0.0392638,-0.0316756,0.0785594,-5.33439e-06,-9.59772e-06,0.0592121,-0.0060036357217412295,0.08172760787386002,-5.334375772214628e-06,0.04004481128596904,-9.59767394204114e-06,-0.031179183419495438
86,176.5,203.764,611.852,-3.80909e-07,353.091,-0.0263532,-0.0453734,-0.00612043,0.0398624,-0.0321716,0.0797689,-5.43249e-06,-9.77448e-06,0.0601692,-0.0061017383214525545,0.08303674895906066,-5.432475244093737e-06,0.040667568482638305,-9.774432229936458e-06,-0.03165959939150931
87,179.2,204.269,613.372,-3.96192e-07,353.967,-0.026459,-0.0455551,-0.00621906,0.0404604,-0.032667,0.0809774,-5.53064e-06,-9.95132e-06,0.0611254,-0.0061997616729009275,0.08434639006142253,-5.530624705984977e-06,0.04129007379912952,-9.95127048575295e-06,-0.03213919641997809
88,181.9,204.768,614.871,-4.11608e-07,354.832,-0.0265628,-0.0457336,-0.0063176,0.0410579,-0.0331621,0.0821846,-5.62883e-06,-1.01282e-05,0.0620809,-0.006297685923578489,0.08565620346780745,-5.628814158220585e-06,0.04191243052878213,-1.0128148709931395e-05,-0.03261826570044435
89,184.6,205.26,616.351,-4.27152e-07,355.686,-0.0266648,-0.045909,-0.00641607,0.0416547,-0.0336567,0.0833908,-5.72706e-06,-1.03052e-05,0.0630355,-0.006395530972965746,0.08696651206868133,-5.727043600467496e-06,0.042534429453339184,-1.0305146901590234e-05,-0.03309661440084355
90,187.3,205.746,617.812,-4.42821e-07,356.528,-0.0267649,-0.0460813,-0.00651447,0.0422511,-0.0341509,0.0845958,-5.82532e-06,-1.04823e-05,0.0639894,-0.006493296842558283,0.0882770961840702,-5.8253030328359046e-06,0.043156382435008966,-1.0482245060838835e-05,-0.03357433999828874
91,190.0,206.225,619.254,-4.58613e-07,357.36,-0.0268634,-0.0462507,-0.00661278,0.0428468,-0.0346446,0.0857998,-5.92361e-06,-1.06594e-05,0.0649425,-0.006590963685653151,0.08958817091648541,-5.9235924554368324e-06,0.04377797581523257,-1.0659343188779147e-05,-0.034051346587866016
92,192.7,206.699,620.679,-4.74523e-07,358.181,-0.0269602,-0.0464172,-0.00671102,0.043442,-0.0351379,0.0870026,-6.02193e-06,-1.08365e-05,0.0658948,-0.006688551395794051,0.09089951605333213,-6.02191186827028e-06,0.0443994173891038,-1.0836441285300147e-05,-0.03452773154858324
93,195.4,207.167,622.085,-4.90549e-07,358.992,-0.0270554,-0.0465809,-0.00680918,0.0440366,-0.0356308,0.0882043,-6.12027e-06,-1.10137e-05,0.0668464,-0.006786050062276172,0.09221123799204745,-6.120251271224397e-06,0.04502060194254964,-1.1013639349410909e-05,-0.035003495568027954
94,198.1,207.629,623.475,-5.06689e-07,359.794,-0.027149,-0.046742,-0.00690726,0.0446307,-0.0361232,0.0894048,-6.21863e-06,-1.11909e-05,0.0677971,-0.006883459709438822,0.09352322494585619,-6.218610664410207e-06,0.04564163314121483,-1.1190837382102359e-05,-0.035478542880563735
95,200.8,208.085,624.847,-5.2294e-07,360.585,-0.0272411,-0.0469005,-0.00700526,0.0452241,-0.0366151,0.0906043,-6.317e-06,-1.13682e-05,0.068747,-0.006980780361597327,0.0948356930495593,-6.316980047826881e-06,0.04626230102026785,-1.1368135382272548e-05,-0.03595287431394045
96,203.5,208.537,626.204,-5.39299e-07,361.367,-0.0273318,-0.0470564,-0.00710318,0.0458171,-0.0371067,0.0918026,-6.41539e-06,-1.15455e-05,0.0696962,-0.007078012043043702,0.09614842102442522,-6.415369421475248e-06,0.046882918559686626,-1.1545433351023426e-05,-0.03642668340911004
97,206.2,208.982,627.544,-5.55764e-07,362.14,-0.027421,-0.04721,-0.00720102,0.0464094,-0.0375977,0.0929999,-6.51379e-06,-1.17228e-05,0.0706445,-0.007175154778045312,0.09746162552191406,-6.513768785354479e-06,0.04750317098197154,-1.172273128824397e-05,-0.03689968177695413
98,208.9,209.423,628.869,-5.72333e-07,362.904,-0.0275088,-0.0473612,-0.00729879,0.0470012,-0.0380884,0.094196,-6.6122e-06,-1.19001e-05,0.0715921,-0.007272218518124318,0.09877508472988783,-6.612178139464575e-06,0.04812326682682122,-1.1900029194045203e-05,-0.03737215917129699
99,211.7,209.859,630.179,-5.89004e-07,363.66,-0.0275953,-0.04751,-0.00739647,0.0475925,-0.0385786,0.095391,-6.71062e-06,-1.20774e-05,0.0725389,-0.007369183431976012,0.10008890580788665,-6.710597483805536e-06,0.04874320538126686,-1.2077327068538146e-05,-0.0378439236999385
100,214.4,210.289,631.474,-6.05776e-07,364.407,-0.0276805,-0.0476567,-0.00749408,0.0481832,-0.0390684,0.0965849,-6.80903e-06,-1.22548e-05,0.0734848,-0.0074660693973847,0.10140308629647099,-6.8090068185977515e-06,0.04936288099585995,-1.2254724910287784e-05,-0.03831507235238585
101,217.1,210.715,632.754,-6.22646e-07,365.145,-0.0277644,-0.0478012,-0.00759161,0.0487733,-0.0395577,0.0977777,-6.90745e-06,-1.24321e-05,0.07443,-0.007562866511248378,0.1027176237320746,-6.907426143620832e-06,0.049982292771405534,-1.243202272172006e-05,-0.03878550968560457
102,219.8,211.136,634.021,-6.39612e-07,365.875,-0.0278471,-0.0479436,-0.00768906,0.0493629,-0.0400466,0.0989694,-7.00587e-06,-1.26095e-05,0.0753743,-0.00765957479771906,0.10403251564701188,-7.005845458984972e-06,0.05060154486880286,-1.2609420500631074e-05,-0.03925533259235159
103,222.5,211.553,635.273,-6.56674e-07,366.598,-0.0279286,-0.048084,-0.00778642,0.049952,-0.040535,0.10016,-7.10428e-06,-1.27868e-05,0.0763179,-0.00775618435848735,0.10534775956948206,-7.104254764689344e-06,0.0512206365744432,-1.2786718249224727e-05,-0.039724445721162516
104,225.2,211.965,636.512,-6.73829e-07,367.312,-0.0280089,-0.0482223,-0.00788371,0.0505404,-0.041023,0.10135,-7.20269e-06,-1.29641e-05,0.0772607,-0.007852715063498383,0.10666390635539091,-7.202664060734776e-06,0.051839356806644865,-1.2964015966399067e-05,-0.0401929458683169
105,227.9,212.372,637.738,-6.91077e-07,368.019,-0.0280881,-0.0483588,-0.00798092,0.0511284,-0.0415106,0.102538,-7.30109e-06,-1.31414e-05,0.0782027,-0.00794915701343013,0.10797940432721798,-7.30106334712044e-06,0.05245802021766499,-1.3141313652154096e-05,-0.04066083370758611
106,230.6,212.776,638.951,-7.08416e-07,368.719,-0.0281662,-0.0484934,-0.00807804,0.0517158,-0.0419978,0.103725,-7.39948e-06,-1.33187e-05,0.0791438,-0.008045500312794829,0.1092953567434023,-7.399452623957359e-06,0.05307641566370269,-1.3318611306489814e-05,-0.04112810991167781
107,233.3,213.175,640.152,-7.25844e-07,369.411,-0.0282433,-0.0486262,-0.00817509,0.0523026,-0.0424845,0.104911,-7.49786e-06,-1.3496e-05,0.0800842,-0.0081417648256783,0.11061176151022245,-7.49783189113451e-06,0.05369454224501635,-1.349590892940622e-05,-0.041594679311710125
108,236.0,213.57,641.34,-7.43361e-07,370.096,-0.0283193,-0.0487572,-0.00827206,0.0528889,-0.0429707,0.106097,-7.59622e-06,-1.36733e-05,0.0810238,-0.00823794065558281,0.11192972845928706,-7.596191148762088e-06,0.05431250449306546,-1.3673206520903314e-05,-0.0420605427180577
109,238.7,213.961,642.516,-7.60965e-07,370.774,-0.0283943,-0.0488865,-0.00836895,0.0534746,-0.0434566,0.107281,-7.69457e-06,-1.38505e-05,0.0819625,-0.008334027826494395,0.11324703294815097,-7.694540396840921e-06,0.05493019620030548,-1.385040408230509e-05,-0.04252589243448157
110,241.4,214.348,643.68,-7.78656e-07,371.445,-0.0284684,-0.0490142,-0.00846575,0.0540598,-0.043942,0.108464,-7.7929e-06,-1.40277e-05,0.0829005,-0.008430016446676736,0.11456478348388921,-7.792869635481203e-06,0.05554772202155411,-1.4027601612287555e-05,-0.042990537587792255
111,244.1,214.731,644.832,-7.96432e-07,372.11,-0.0285415,-0.0491402,-0.00856248,0.0546445,-0.0444269,0.109645,-7.89122e-06,-1.42049e-05,0.0838377,-0.008525926372427328,0.11588186207500772,-7.891188864350696e-06,0.05616508124200004,-1.4204799110850708e-05,-0.043454478984433775
112,246.8,215.111,645.973,-8.14293e-07,372.768,-0.0286136,-0.0492646,-0.00865913,0.0552286,-0.0449115,0.110826,-7.98951e-06,-1.4382e-05,0.0847741,-0.00862174771100277,0.11720049705480884,-7.989478084002855e-06,0.05678216746844145,-1.4381896579540587e-05,-0.043917908645841774
113,249.5,215.487,647.103,-8.32237e-07,373.419,-0.0286849,-0.0493875,-0.00875569,0.0558121,-0.0453956,0.112006,-8.08779e-06,-1.45591e-05,0.0857096,-0.008717470573469721,0.11851957174234218,-8.087757293884223e-06,0.05739897980065645,-1.4558994016811155e-05,-0.04438063597407971
114,252.2,215.859,648.222,-8.50264e-07,374.065,-0.0287553,-0.0495089,-0.00885218,0.0563951,-0.0458792,0.113185,-8.18604e-06,-1.47362e-05,0.0866444,-0.008813114810303668,0.11983908401706467,-8.186006494437237e-06,0.058015623139948014,-1.4736091422773434e-05,-0.04484266177168017
115,254.9,216.227,649.33,-8.68372e-07,374.704,-0.0288248,-0.0496288,-0.00894858,0.0569776,-0.0463625,0.114362,-8.28427e-06,-1.49132e-05,0.0875784,-0.008908660620653874,0.12115791059614356,-8.2842356855517e-06,0.058632096770941056,-1.4913088798751417e-05,-0.04530417777891971
116,257.6,216.592,650.428,-8.86562e-07,375.337,-0.0288935,-0.0497473,-0.00904491,0.0575596,-0.0468453,0.115539,-8.38247e-06,-1.50902e-05,0.0885116,-0.009004127851123256,0.12247829034796931,-8.382434867226785e-06,0.05924839997809839,-1.5090086143532133e-05,-0.04576499367198006
117,260.3,216.954,651.516,-9.04833e-07,375.964,-0.0289614,-0.0498644,-0.00914115,0.058141,-0.0473276,0.116714,-8.48065e-06,-1.52671e-05,0.0894439,-0.009099496704636278,0.12379797750349919,-8.480614039352297e-06,0.05986442605927489,-1.5266983458439576e-05,-0.04622511024950038
118,263.0,217.312,652.593,-9.23183e-07,376.585,-0.0290285,-0.0499802,-0.00923731,0.0587218,-0.0478096,0.117888,-8.57879e-06,-1.5444e-05,0.0903755,-0.00919477711587735,0.12511809108413674,-8.578753202259648e-06,0.06048017411385587,-1.544388074203873e-05,-0.04668471897175974
119,265.8,217.667,653.661,-9.41612e-07,377.201,-0.0290948,-0.0500947,-0.0093334,0.0593022,-0.0482911,0.119061,-8.67691e-06,-1.56208e-05,0.0913063,-0.009289979015695615,0.12643862894902225,-8.676872355728449e-06,0.0610958554603549,-1.5620677995986654e-05,-0.04714362978792974
120,268.5,218.019,654.719,-9.6012e-07,377.811,-0.0291604,-0.0502079,-0.0094294,0.059882,-0.0487722,0.120234,-8.775e-06,-1.57976e-05,0.0922363,-0.009385082612664686,0.12776071671366185,-8.774961499757872e-06,0.06171125722508264,-1.579747521862629e-05,-0.04760193873258234
121,270.5,218.283,655.511,-1.09049e-06,378.268,-0.0292093,-0.0502924,-0.00950188,0.0603197,-0.0491354,0.121119,-8.84907e-06,-1.59311e-05,0.0929384,-0.00945687977991605,0.1287592267234614,-8.849030847080108e-06,0.06217606995921621,-1.5930973100708457e-05,-0.04794778689860568
