,Time,S11,S22,S33,S12,S13,S23,LE11,LE22,LE33,LE12,LE13,LE23,SDV_EPBAR,E11,E12,E13,E22,E23,E33
0,0.0002705,0.000519365,0.0015581,-7.79048e-12,0.000899567,2.21372e-21,3.68811e-20,2.50301e-10,6.7501e-09,-3.0004e-09,1.1258e-08,2.76762e-26,4.61603e-25,0.0,2.5030089112476617e-10,1.1258000087721598e-08,0.0,6.750100034480511e-09,0.0,-3.0004000395322805e-09
1,0.000541,0.00103873,0.00311619,4.33681e-19,0.00179913,-3.08331e-20,-2.03577e-20,5.00425e-10,1.35001e-08,-6.00057e-09,2.25162e-08,-1.63975e-24,4.6912e-25,0.0,5.00425034744012e-10,2.2516200237632233e-08,0.0,1.3500100148888805e-08,0.0,-6.000569929831556e-09
2,0.00094675,0.00181778,0.00545333,6.50521e-19,0.00314848,1.87371e-20,6.55005e-20,8.75688e-10,2.36252e-08,-1.05009e-08,3.94034e-08,-1.73568e-24,1.95724e-24,0.0,8.756879665838824e-10,3.9403400764470575e-08,0.0,2.3625200240573463e-08,0.0,-1.0500899927379237e-08
3,0.0015554,0.00298635,0.00895905,1.73472e-18,0.00517251,4.73565e-20,4.89771e-20,1.4375e-09,3.88125e-08,-1.725e-08,6.47354e-08,4.1359e-25,7.16359e-25,0.0,1.4374998968946784e-09,6.473540214990692e-08,0.0,3.8812500768869995e-08,0.0,-1.7249999872959165e-08
4,0.0024683,0.00473921,0.0142176,0.0,0.00820854,1.00168e-19,-5.78319e-20,2.28125e-09,6.15937e-08,-2.7375e-08,1.02732e-07,-7.41318e-35,-1.284e-34,0.0,2.281250077729169e-09,1.027320053470504e-07,0.0,6.159370191660685e-08,0.0,-2.7374999600482397e-08
5,0.0038377,0.00736849,0.0221055,-8.67362e-19,0.0127626,9.88226e-21,-8.20239e-20,3.54688e-09,9.57656e-08,-4.25625e-08,1.59728e-07,7.653e-32,1.32554e-31,0.0,3.5468799008953056e-09,1.597280128162737e-07,0.0,9.576560455748506e-08,0.0,-4.256249908074494e-08
6,0.0058918,0.0113124,0.0339373,-6.07153e-18,0.0195937,-4.73565e-20,-4.89771e-20,5.44671e-09,1.47024e-07,-6.53456e-08,2.45219e-07,-1.14621e-23,6.61761e-24,0.0,5.446709971934638e-09,2.452190299706558e-07,0.0,1.4702401074373483e-07,0.0,-6.534559782167548e-08
7,0.008973,0.0172283,0.0516849,7.80626e-18,0.0298403,6.7121e-20,-1.15071e-19,8.29297e-09,2.2391e-07,-9.95156e-08,3.7346e-07,1.78232e-31,3.08708e-31,0.0,8.292970088419338e-09,3.734600697580248e-07,0.0,2.2391002496569e-07,0.0,-9.951559509779884e-08
8,0.013595,0.0261021,0.0783064,9.54098e-18,0.0452102,-1.3116e-19,-4.58503e-19,1.25671e-08,3.39241e-07,-1.50777e-07,5.65816e-07,2.77687e-23,-3.13146e-23,0.0,1.2567100027283118e-08,5.658161601473921e-07,0.0,3.392410574676319e-07,0.0,-1.5077698867216327e-07
9,0.020527,0.0394129,0.118239,6.07153e-18,0.0682651,-4.56883e-19,3.48265e-20,1.89735e-08,5.12236e-07,-2.27663e-07,8.54355e-07,1.1462e-23,-6.61759e-24,0.0,1.8973500104380037e-08,8.543553648987512e-07,0.0,5.122361312892565e-07,0.0,-2.276629741393421e-07
10,0.030926,0.059379,0.178137,-8.67362e-19,0.102847,-1.54031e-18,-2.55477e-19,2.8587e-08,7.71729e-07,-3.42996e-07,1.28716e-06,-2.95414e-23,1.77334e-24,0.0,2.858700032248862e-08,1.2871608283671065e-06,0.0,7.717292977993395e-07,0.0,-3.429959412049044e-07
11,0.046525,0.0893282,0.267985,-4.94396e-17,0.154721,-5.5365e-19,3.95969e-19,4.30043e-08,1.16097e-06,-5.15992e-07,1.93637e-06,-9.16942e-23,5.29396e-23,0.0,4.300430100911967e-08,1.9363718748444114e-06,0.0,1.1609706738191505e-06,0.0,-5.159918669006558e-07
12,0.069922,0.134252,0.402756,-2.1684e-17,0.232531,2.20493e-19,-2.49317e-18,6.46307e-08,1.74483e-06,-7.75487e-07,2.91018e-06,-5.29397e-23,-9.16942e-23,0.0,6.463070212348043e-08,2.910184234483637e-06,0.0,1.744831522154655e-06,0.0,-7.754866993003873e-07
13,0.105,0.201637,0.604912,1.99493e-17,0.349246,-1.22407e-18,-2.88023e-18,9.70596e-08,2.62061e-06,-1.16471e-06,4.37091e-06,-1.05879e-22,-1.83388e-22,0.0,9.705960479777787e-08,4.370919552521002e-06,0.0,2.62061343381248e-06,0.0,-1.1647093217659332e-06
14,0.1577,0.302715,0.908146,-9.1073e-17,0.524319,2.72256e-18,-2.74454e-19,1.45719e-07,3.93429e-06,-1.74858e-06,6.56199e-06,1.03982e-22,-2.43423e-22,0.0,1.4571901063575865e-07,6.562011529931411e-06,0.0,3.934297739371928e-06,0.0,-1.748578471238993e-06
15,0.2366,0.454332,1.363,-7.80626e-18,0.786926,-1.38381e-17,-7.8084e-18,2.18705e-07,5.90479e-06,-2.62436e-06,9.8486e-06,-2.11758e-22,-3.66776e-22,0.0,2.1870502386889257e-07,9.848648497623458e-06,0.0,5.904807433232406e-06,0.0,-2.624356556402141e-06
16,0.3551,0.681756,2.04527,4.77049e-17,1.18084,-5.94481e-18,-2.59681e-18,3.28182e-07,8.86055e-06,-3.93804e-06,1.47785e-05,5.57568e-28,9.65736e-28,0.0,3.281820537548441e-07,1.4778609202625859e-05,0.0,8.860589254755524e-06,0.0,-3.938032245964784e-06
17,0.5328,1.02289,3.06867,7.13839e-16,1.7717,-5.94479e-18,-2.59677e-18,4.92389e-07,1.32942e-05,-5.90853e-06,2.21733e-05,8.36561e-28,1.44897e-27,0.0,4.923891212538223e-07,2.2173545829451413e-05,0.0,1.3294288368159712e-05,0.0,-5.908512544672284e-06
18,0.7993,1.53459,4.60377,-2.85362e-16,2.65799,-3.98145e-18,-3.30361e-17,7.38697e-07,1.99445e-05,-8.86424e-06,3.32654e-05,7.35553e-27,1.27402e-26,0.0,7.38697272906208e-07,3.326595329955495e-05,0.0,1.9944698892881974e-05,0.0,-8.864200712777048e-06
19,1.199,2.30213,6.90638,-1.61763e-15,3.9874,2.21215e-18,-5.61484e-17,1.10814e-06,2.99199e-05,-1.32977e-05,4.99034e-05,-4.23505e-22,-7.33532e-22,0.0,1.1081406139368255e-06,4.990464519538662e-05,0.0,2.992034760462836e-05,0.0,-1.3297611585971758e-05
20,1.799,3.45341,10.3602,-3.17194e-15,5.98148,6.53581e-17,-1.44564e-17,1.66234e-06,4.48827e-05,-1.99479e-05,7.48599e-05,-1.09041e-26,-1.88864e-26,0.0,1.6623413816585497e-06,7.486270207235357e-05,0.0,4.4883707243537074e-05,0.0,-1.994770104196686e-05
21,2.698,5.18029,15.5409,-2.8485e-14,8.97252,-6.87866e-17,2.39178e-17,2.49357e-06,6.73263e-05,-2.99228e-05,0.000112294,-4.23518e-22,-7.33555e-22,0.0,2.4935731088859825e-06,0.00011230030520725798,0.0,6.732856646629592e-05,0.0,-2.9922352317468537e-05
22,4.047,31.1929,93.5787,-1.03264e-09,54.0277,-8.08225e-16,-1.7395e-16,1.5015e-05,0.000405403,-0.000180179,0.000676171,-3.02527e-20,1.82072e-21,0.0,1.5015112725613733e-05,0.0006763996551444329,0.0,0.00040548518690219915,0.0,-0.00018016276873877857
23,6.071,70.3658,211.097,-9.04826e-07,121.877,1.29847e-16,-7.14917e-16,3.38711e-05,0.000914519,-0.000406453,0.00152533,-2.03309e-20,-3.52142e-20,0.0,3.3871673632113186e-05,0.0015264939075101402,0.0,0.0009149373000056915,0.0,-0.00040637040916957634
24,8.776,121.155,363.481,0.000226112,209.851,-0.000357087,-0.000618317,5.54914e-05,0.00159317,-0.000715528,0.00266346,-4.54056e-09,-7.86783e-09,2.97865e-05,5.549293967632707e-05,0.002667010160789962,-4.540560039067998e-09,0.0015944397695546453,-7.867829943108973e-09,-0.0007152720708858418
25,11.48,127.063,381.508,0.118156,220.285,-0.00681687,-0.0117805,-2.79441e-05,0.0022344,-0.00122701,0.00392472,-1.23444e-07,-2.1643e-07,0.000937293,-2.794370956726855e-05,0.0039324317991227264,-1.2344399236141612e-07,0.0022368981319422776,-2.1642997660720198e-07,-0.0012262575310236778
26,14.19,132.038,396.336,0.000269145,228.761,-0.0123881,-0.0214194,-0.000112685,0.00287452,-0.00174449,0.00518631,-2.61169e-07,-4.60177e-07,0.00186493,-0.00011267865128383736,0.00519978218594952,-2.611689658982286e-07,0.002878655394090268,-4.601768941459028e-07,-0.0017429692617526582
27,16.89,136.214,408.942,-8.90104e-06,236.016,-0.0168835,-0.0291811,-0.000199529,0.00351325,-0.00226406,0.0064492,-4.08519e-07,-7.22168e-07,0.00280592,-0.00019950909541288642,0.006470040868541194,-4.085189165836667e-07,0.0035194286964308485,-7.2216773927547e-07,-0.0022614989493134896
28,19.6,139.856,419.936,8.66882e-06,242.344,-0.0207092,-0.0357818,-0.000287543,0.00415092,-0.00278554,0.00771227,-5.66287e-07,-1.00359e-06,0.0037564,-0.0002875016634736882,0.007742086155068328,-5.662868396427712e-07,0.004159547000956554,-1.0035894963955627e-06,-0.0027816639832226597
29,22.3,143.091,429.703,3.983e-06,247.965,-0.0240232,-0.0414963,-0.000376429,0.00478763,-0.00330833,0.00897518,-7.33249e-07,-1.30209e-06,0.00471387,-0.0003763581594932175,0.009015577696433796,-7.33248731177305e-07,0.0047991090122851965,-1.3020891522774747e-06,-0.0033028635062889444
30,25.01,146.006,438.501,1.78155e-06,253.03,-0.0269355,-0.0465158,-0.000465985,0.00542346,-0.00383205,0.0102377,-9.08334e-07,-1.61561e-06,0.00567664,-0.0004658764458520537,0.01029028454571379,-9.083335874571219e-07,0.005438193582808948,-1.6156086949381532e-06,-0.0038247170661122043
31,27.71,148.662,446.516,7.08084e-07,257.643,-0.0295255,-0.0509778,-0.000556065,0.00605846,-0.00435642,0.0114996,-1.09062e-06,-1.94241e-06,0.00664351,-0.0005559104245105306,0.011565974583127803,-1.0906194052306972e-06,0.0060768495875553885,-1.942408113575489e-06,-0.004346944567040878
32,30.42,151.103,453.883,1.64987e-07,261.884,-0.0318517,-0.0549838,-0.000646565,0.00669266,-0.00488124,0.0127609,-1.27932e-06,-2.28102e-06,0.00761359,-0.0006463560218921138,0.012842667724143553,-1.2793191817017657e-06,0.006715105895246154,-2.2810173985199356e-06,-0.00486934610821399
33,33.12,153.363,460.704,-1.14959e-07,265.81,-0.0339586,-0.0586109,-0.000737403,0.00732609,-0.00540635,0.0140214,-1.47375e-06,-2.63015e-06,0.00858622,-0.0007371311852242268,0.01412016087772372,-1.473748914015971e-06,0.007352991451369029,-2.6301465411160407e-06,-0.005391761990972799
34,35.83,155.469,467.06,-2.60234e-07,269.469,-0.0358805,-0.0619185,-0.000828517,0.00795878,-0.00593163,0.015281,-1.67333e-06,-2.98872e-06,0.00956087,-0.0008281738745586908,0.01539835146780133,-1.6733286000158998e-06,0.007990535278065147,-2.9887155338359506e-06,-0.005914072614562227
35,38.53,157.442,473.013,-3.358e-07,272.896,-0.0376446,-0.0649536,-0.000919858,0.00859074,-0.00645698,0.0165397,-1.87754e-06,-3.35579e-06,0.0105371,-0.0009194350603213275,0.016677238071230338,-1.8775382374380811e-06,0.00862774630147145,-3.3557843693854394e-06,-0.006436178500342726
36,41.24,159.299,478.615,-3.75774e-07,276.121,-0.0392725,-0.0677538,-0.00101139,0.00922198,-0.00698234,0.0177975,-2.08595e-06,-3.73054e-06,0.0115147,-0.0010108787175172607,0.017956819261188528,-2.0859478243595575e-06,0.009264633473227812,-3.7305330415904336e-06,-0.006958020100251705
37,43.94,161.052,483.907,-3.98575e-07,279.167,-0.0407818,-0.0703496,-0.00110307,0.00985252,-0.00750763,0.0190543,-2.29818e-06,-4.11225e-06,0.0124933,-0.0011024618419216425,0.0192369916834787,-2.2981773591945753e-06,0.009901215869458913,-4.112241544729223e-06,-0.007479518141028985
38,46.65,162.715,488.924,-4.1432e-07,282.055,-0.0421872,-0.072766,-0.00119487,0.0104824,-0.00803281,0.0203101,-2.51387e-06,-4.5003e-06,0.0134726,-0.001194156427078652,0.020517753519674553,-2.5138668402480135e-06,0.01053753282793557,-4.5002898736434815e-06,-0.008000633196111773
39,49.35,164.296,493.694,-4.28592e-07,284.802,-0.0435006,-0.075024,-0.00128679,0.0111115,-0.00855783,0.0215649,-2.73274e-06,-4.89413e-06,0.0144526,-0.001285962440750965,0.021799102947295923,-2.732736266053415e-06,0.011173462000385603,-4.894118023734961e-06,-0.008521316007265911
40,52.06,165.804,498.243,-4.44449e-07,287.421,-0.0447323,-0.077141,-0.00137878,0.01174,-0.00908267,0.0228186,-2.9545e-06,-5.29326e-06,0.015433,-0.0013778299195565946,0.02308093583170967,-2.9544956354765617e-06,0.011809184276051488,-5.293245990745099e-06,-0.009041547148774809
41,54.76,167.245,502.591,-4.63508e-07,289.924,-0.0458907,-0.0791319,-0.00147085,0.0123678,-0.00960728,0.0240713,-3.17893e-06,-5.69724e-06,0.0164137,-0.001469768830283158,0.024363352393936166,-3.1789249471669834e-06,0.01244459751728666,-5.697223770750881e-06,-0.009561277522929457
42,57.47,168.625,506.757,-4.86563e-07,292.322,-0.0469832,-0.0810093,-0.00156296,0.012995,-0.0101316,0.0253228,-3.40581e-06,-6.10568e-06,0.0173946,-0.0015617392141151765,0.025646145669918186,-3.4058042002182987e-06,0.01307980194813596,-6.1056613603893695e-06,-0.010080448236210682
43,60.17,169.951,510.755,-5.13932e-07,294.624,-0.0480161,-0.0827841,-0.00165512,0.0136215,-0.0106557,0.0265733,-3.63496e-06,-6.51824e-06,0.0183756,-0.001653751044258911,0.02692951843666158,-3.6349533935053913e-06,0.013714695303633784,-6.5182187563017635e-06,-0.010599129141086294
44,62.88,171.225,514.6,-5.45661e-07,296.838,-0.0489949,-0.0844658,-0.00174731,0.0142473,-0.0111795,0.0278227,-3.86618e-06,-6.93459e-06,0.0193566,-0.0017457843426100794,0.028213366029580245,-3.866172526345579e-06,0.01434927649970108,-6.934565955796224e-06,-0.011117241611740214
45,65.58,172.453,518.304,-5.81647e-07,298.97,-0.0499244,-0.0860626,-0.00183952,0.0148725,-0.011703,0.0290709,-4.09934e-06,-7.35445e-06,0.0203376,-0.0018378291200460417,0.02949758326630114,-4.099331597728906e-06,0.014983645950595648,-7.354422956074025e-06,-0.01163478625662595
46,68.29,173.637,521.878,-6.21705e-07,301.028,-0.0508087,-0.0875817,-0.00193175,0.0154971,-0.0122262,0.0303181,-4.33428e-06,-7.77756e-06,0.0213184,-0.0019298853718270337,0.030782373680911856,-4.334270606975998e-06,0.01561780276241187,-7.777529754893209e-06,-0.012151763683368677
47,70.99,174.782,525.33,-6.65612e-07,303.015,-0.0516516,-0.0890294,-0.00202398,0.016121,-0.012749,0.0315641,-4.57088e-06,-8.20368e-06,0.022299,-0.002021933133651621,0.03206752900401577,-4.570869553521817e-06,0.016251644415899102,-8.20364634990245e-06,-0.012668075765576825
48,73.7,175.889,528.67,-7.13132e-07,304.938,-0.0524562,-0.0904115,-0.00211621,0.0167443,-0.0132715,0.0328089,-4.80902e-06,-8.63259e-06,0.0232794,-0.002113972406302289,0.033353046604278846,-4.8090084366902985e-06,0.016885271515235223,-8.632552739307187e-06,-0.013183821945566221
49,76.4,176.961,531.905,-7.64031e-07,306.8,-0.0532255,-0.0917328,-0.00220843,0.0173669,-0.0137936,0.0340527,-5.04858e-06,-9.0641e-06,0.0242594,-0.0022059932126222703,0.03463913077358849,-5.048567255916403e-06,0.01751858141419449,-9.064058921204321e-06,-0.013698904198206074
50,79.11,178.001,535.041,-8.18082e-07,308.606,-0.053962,-0.0929978,-0.00230064,0.0179889,-0.0143154,0.0352953,-5.28947e-06,-9.49801e-06,0.0252391,-0.0022979955561550636,0.03592557245817862,-5.289456010748594e-06,0.01815167484347957,-9.497964894022992e-06,-0.0142134218606631
51,81.81,179.01,538.086,-8.75074e-07,310.359,-0.0546682,-0.0942106,-0.00239283,0.0186103,-0.0148367,0.0365368,-5.5316e-06,-9.93417e-06,0.0262185,-0.002389969464342223,0.03721247273443762,-5.531584700735337e-06,0.018784550908455655,-9.934120656307499e-06,-0.014727178481549363
52,84.52,179.99,541.044,-9.34807e-07,312.062,-0.055346,-0.0953747,-0.002485,0.019231,-0.0153577,0.0377771,-5.77487e-06,-1.03724e-05,0.0271974,-0.0024819149434841536,0.03849972548914615,-5.774853325424267e-06,0.01941710677260855,-1.0372346206821703e-05,-0.015240371923060492
53,87.22,180.944,543.92,-9.97101e-07,313.718,-0.0559974,-0.0964934,-0.00257715,0.0198512,-0.0158783,0.0390163,-6.01922e-06,-1.08126e-05,0.0281759,-0.0025738319998787063,0.0397874320471705,-6.019201884477354e-06,0.0200495453611631,-1.0812541544003018e-05,-0.015752904361667874
54,89.93,181.872,546.72,-1.06179e-06,315.33,-0.0566241,-0.0975696,-0.00266926,0.0204706,-0.0163985,0.0402543,-6.26457e-06,-1.12546e-05,0.0291539,-0.002665700693135764,0.04107548602894884,-6.264550377665934e-06,0.020681559764214263,-1.1254536667171244e-05,-0.016264776551319193
55,92.63,182.776,549.448,-1.12872e-06,316.9,-0.0572276,-0.0986061,-0.00276135,0.0210895,-0.0169183,0.0414912,-6.51085e-06,-1.16983e-05,0.0301314,-0.00275754097990788,0.04236398900800986,-6.510828804429103e-06,0.021313455101394263,-1.1698231575207885e-05,-0.0167759892447783
56,95.34,183.657,552.106,-1.19774e-06,318.431,-0.0578093,-0.0996051,-0.0028534,0.0217078,-0.0174377,0.0427269,-6.75799e-06,-1.21436e-05,0.0311084,-0.0028493329234716702,0.043652834338313795,-6.757967164872092e-06,0.02194512847238239,-1.2143526266772398e-05,-0.017286543193626103
57,98.04,184.517,554.7,-1.26875e-06,319.924,-0.0583706,-0.100569,-0.00294541,0.0223254,-0.0179567,0.0439615,-7.00595e-06,-1.25903e-05,0.0320848,-0.002941076535619702,0.04494212384223317,-7.005925458436479e-06,0.022576476723999095,-1.2590220742514369e-05,-0.0177964391482629
58,100.7,185.356,557.232,-1.34161e-06,321.382,-0.0589125,-0.1015,-0.00303738,0.0229425,-0.0184753,0.0451949,-7.25465e-06,-1.30384e-05,0.0330607,-0.0030327718281383254,0.04623175060711637,-7.2546236851156465e-06,0.02320770341274847,-1.3038315000435396e-05,-0.01830567785791004
59,103.5,186.176,559.705,-1.41623e-06,322.806,-0.0594363,-0.102399,-0.00312931,0.0235589,-0.0189934,0.0464272,-7.50406e-06,-1.34878e-05,0.034036,-0.003124418812805674,0.0475218167043614,-7.504031844574044e-06,0.023838603064429087,-1.3487709040083118e-05,-0.018814161952033115
60,106.2,186.977,562.122,-1.4925e-06,324.198,-0.0599429,-0.10327,-0.0032212,0.0241747,-0.0195111,0.0476583,-7.75413e-06,-1.39384e-05,0.0350107,-0.0032160175013947745,0.04881221495457089,-7.754099936807535e-06,0.02446927704078372,-1.393830286100517e-05,-0.019321990397655142
61,108.9,187.761,564.486,-1.57034e-06,325.559,-0.0604331,-0.104112,-0.00331303,0.0247899,-0.0200284,0.0488883,-8.0048e-06,-1.43901e-05,0.0359847,-0.003307547971821756,0.05010304767834861,-8.004767961700132e-06,0.025099724445757143,-1.4389996462971233e-05,-0.019829163940275785
62,111.6,188.528,566.799,-1.64967e-06,326.891,-0.060908,-0.104927,-0.00340482,0.0254045,-0.0205453,0.0501171,-8.25604e-06,-1.48428e-05,0.0369582,-0.0033990301733537454,0.05139420742942136,-8.25600591902731e-06,0.02572994438315024,-1.4842689846195078e-05,-0.02033568332422242
63,114.3,189.279,569.064,-1.73042e-06,328.195,-0.0613682,-0.105718,-0.00349656,0.0260184,-0.0210617,0.0513447,-8.50781e-06,-1.52964e-05,0.037931,-0.003490454152643485,0.05268569150920088,-8.507773808674735e-06,0.026359833320634074,-1.5296283010668432e-05,-0.020841451376803266
64,117.0,190.014,571.282,-1.8125e-06,329.472,-0.0618145,-0.106484,-0.00358825,0.0266318,-0.0215778,0.0525713,-8.76007e-06,-1.5751e-05,0.0389031,-0.0035818199241743898,0.05397770801013402,-8.76003163075012e-06,0.026989595570729108,-1.575087595362401e-05,-0.021346664722229902
65,119.7,190.734,573.456,-1.89588e-06,330.723,-0.0622475,-0.107228,-0.00367989,0.0272446,-0.0220933,0.0537966,-9.01279e-06,-1.62064e-05,0.0398746,-0.0036731275024195487,0.055269938419043596,-9.012749384917917e-06,0.02761912766382757,-1.6206268677043667e-05,-0.02185103050511583
66,122.4,191.441,575.587,-1.98048e-06,331.95,-0.062668,-0.107951,-0.00377147,0.0278568,-0.0226085,0.0550208,-9.26592e-06,-1.66625e-05,0.0408455,-0.003764366939485231,0.05656259094883209,-9.265877071507056e-06,0.02824842870317701,-1.6662361181363217e-05,-0.022354843060941265
67,125.1,192.134,577.677,-2.06625e-06,333.154,-0.0630764,-0.108653,-0.00386299,0.0284684,-0.0231232,0.0562439,-9.51945e-06,-1.71194e-05,0.0418156,-0.003855538252559909,0.05785566327099989,-9.519404690183642e-06,0.028877497791890416,-1.7119253463926398e-05,-0.02285790754846606
68,127.8,192.814,579.728,-2.15314e-06,334.334,-0.0634734,-0.109335,-0.00395446,0.0290793,-0.0236374,0.0574658,-9.77333e-06,-1.75769e-05,0.042785,-0.003946651419351799,0.05914904713790148,-9.773282241165582e-06,0.02950623108232131,-1.7576745527159154e-05,-0.02336022485555711
69,130.5,193.481,581.741,-2.24111e-06,335.494,-0.0638594,-0.109998,-0.00404587,0.0296897,-0.0241512,0.0586866,-1.00276e-05,-1.8035e-05,0.0437538,-0.004037696494667009,0.06044284586870807,-1.0027549723790052e-05,0.030134833515719217,-1.803483737039535e-05,-0.023861893482319818
70,133.2,194.136,583.718,-2.33012e-06,336.632,-0.0642349,-0.110643,-0.00413722,0.0302995,-0.0246646,0.0599062,-1.02821e-05,-1.84937e-05,0.0447218,-0.004128673495654489,0.06173695094840004,-1.0282047139376083e-05,0.03076320130706489,-1.8493528992635788e-05,-0.024362914163192473
71,135.9,194.78,585.66,-2.42013e-06,337.75,-0.0646005,-0.111272,-0.00422851,0.0309087,-0.0251775,0.0611247,-1.05369e-05,-1.89529e-05,0.0456891,-0.004219582439449088,0.063031465946225,-1.0536844487041286e-05,0.031391333558958845,-1.8952720394871392e-05,-0.024863190117782374
72,138.6,195.413,587.568,-2.51109e-06,338.849,-0.0649564,-0.111883,-0.00431974,0.0315173,-0.02569,0.062342,-1.0792e-05,-1.94125e-05,0.0466557,-0.004310423343172443,0.06432628207967062,-1.0791941766563617e-05,0.03201922937387858,-1.94123115786482e-05,-0.02536281969183274
73,141.3,196.034,589.444,-2.60298e-06,339.929,-0.0653031,-0.112479,-0.00441091,0.0321253,-0.026202,0.0635582,-1.10473e-05,-1.98726e-05,0.0476216,-0.004401196223931758,0.06562150316822835,-1.1047238978822982e-05,0.03264688785418035,-1.987240254119893e-05,-0.025861706202305434
74,144.0,196.646,591.289,-2.69576e-06,340.991,-0.065641,-0.11306,-0.00450202,0.0327328,-0.0267136,0.0647733,-1.13028e-05,-2.03331e-05,0.0485867,-0.00449190109882025,0.06691712685348605,-1.1302736123597334e-05,0.03327441142953891,-2.0332893283958597e-05,-0.02635994789232088
75,146.7,197.247,593.103,-2.78941e-06,342.035,-0.0659704,-0.113627,-0.00459307,0.0333396,-0.0272248,0.0659872,-1.15585e-05,-2.07939e-05,0.0495511,-0.004582537984918478,0.06821304395152228,-1.1558433200775653e-05,0.033901592609919984,-2.0793683808362218e-05,-0.02685754549017605
76,149.4,197.839,594.888,-2.88389e-06,343.063,-0.0662917,-0.114179,-0.00468405,0.0339459,-0.0277355,0.0671999,-1.18143e-05,-2.12551e-05,0.0505148,-0.004673096946022803,0.0695092517066398,-1.1814230211459886e-05,0.03452863721488275,-2.1254874111975575e-05,-0.02735440245846832
77,152.1,198.422,596.645,-2.97918e-06,344.075,-0.0666052,-0.114718,-0.00477496,0.0345515,-0.0282457,0.0684116,-1.20704e-05,-2.17165e-05,0.0514777,-0.004763578001900859,0.0708059615199188,-1.2070327153002047e-05,0.03515533750327382,-2.1716264198556878e-05,-0.027850519672071194
78,154.8,198.995,598.375,-3.07525e-06,345.071,-0.0669112,-0.115244,-0.00486581,0.0351566,-0.0287555,0.0696221,-1.23265e-05,-2.21782e-05,0.0524398,-0.004853991123761059,0.07210295698446867,-1.232642402904105e-05,0.03578189954522526,-2.217795406556089e-05,-0.02834599516970704
79,157.6,199.559,600.078,-3.17209e-06,346.051,-0.0672099,-0.115758,-0.0049566,0.0357611,-0.0292649,0.0708314,-1.25828e-05,-2.26401e-05,0.0534012,-0.0049443363286242326,0.073400235331607,-1.2582720836928907e-05,0.03640821898947988,-2.2639843714866714e-05,-0.028840829674718793
80,160.3,200.116,601.756,-3.26967e-06,347.017,-0.0675016,-0.11626,-0.00504732,0.036365,-0.0297738,0.0720397,-1.28392e-05,-2.31022e-05,0.0543619,-0.005034603683843453,0.07469800872786103,-1.283911757787859e-05,0.037034294937533074,-2.3101933146252307e-05,-0.029334926842809583
81,163.0,200.664,603.409,-3.36797e-06,347.969,-0.0677866,-0.11675,-0.00513797,0.0369684,-0.0302822,0.0732468,-1.30957e-05,-2.35645e-05,0.0553217,-0.0051247932091175175,0.07599605997541214,-1.3095614251668053e-05,0.03766023025679255,-2.35642223593846e-05,-0.029828287543085752
82,165.7,201.203,605.038,-3.46696e-06,348.907,-0.0680651,-0.11723,-0.00522856,0.0375711,-0.0307902,0.0744527,-1.33523e-05,-2.40269e-05,0.0562808,-0.005214914871978227,0.07729438629265428,-1.335221085840832e-05,0.038285816579069376,-2.4026611356364747e-05,-0.030321009611012806
83,168.4,201.736,606.643,-3.56664e-06,349.831,-0.0683373,-0.117698,-0.00531908,0.0381733,-0.0312978,0.0756576,-1.36089e-05,-2.44895e-05,0.0572392,-0.0053049587424369715,0.07859320061225228,-1.3608807399312361e-05,0.03891126060010697,-2.4489200134647504e-05,-0.03081309376501007
84,171.1,202.26,608.226,-3.66698e-06,350.742,-0.0686035,-0.118156,-0.00540953,0.0387749,-0.0318049,0.0768613,-1.38656e-05,-2.49521e-05,0.0581967,-0.005394924840140702,0.07989228494488176,-1.3865503873056184e-05,0.03953645765490221,-2.4951788698990285e-05,-0.03130444385281794
85,173.8,202.778,609.787,-3.76797e-06,351.641,-0.0688639,-0.118604,-0.00549991,0.039376,-0.0323115,0.0780639,-1.41223e-05,-2.54148e-05,0.0591535,-0.0054848131847181625,0.08119174461524481,-1.4122200280741737e-05,0.04016151086051889,-2.5414477046736828e-05,-0.03179506073781213
86,176.5,203.288,611.327,-3.8696e-06,352.528,-0.0691186,-0.119043,-0.00559022,0.0399764,-0.0328177,0.0792653,-1.4379e-05,-2.58775e-05,0.0601095,-0.00557462379578022,0.08249146896531134,-1.4378896622702086e-05,0.04078621134796001,-2.587716518043237e-05,-0.03228504205333327
87,179.2,203.792,612.846,-3.97184e-06,353.402,-0.0693678,-0.119472,-0.00568047,0.0405763,-0.0333235,0.0804657,-1.46357e-05,-2.63403e-05,0.0610648,-0.005664366636276119,0.08379167195036064,-1.4635592898715188e-05,0.041410766312678815,-2.6339953097309632e-05,-0.03277438851291037
88,181.9,204.289,614.344,-4.07468e-06,354.265,-0.0696118,-0.119892,-0.00577065,0.0411756,-0.0338288,0.0816649,-1.48925e-05,-2.6803e-05,0.0620192,-0.0057540317806308305,0.08509213452487563,-1.4892389107235005e-05,0.04203507083909597,-2.6802640802792155e-05,-0.03326300415525618
89,184.6,204.779,615.824,-4.17812e-06,355.117,-0.0698507,-0.120303,-0.00586075,0.0417744,-0.0343336,0.082863,-1.51492e-05,-2.72658e-05,0.0629729,-0.005843609306839137,0.08639296251665307,-1.5149085251464633e-05,0.042659228293606466,-2.7265428291456395e-05,-0.03375088983805197
90,187.3,205.263,617.284,-4.28213e-06,355.957,-0.0700846,-0.120706,-0.00595079,0.0423726,-0.034838,0.08406,-1.54059e-05,-2.77285e-05,0.0639258,-0.005933119118464947,0.08769415350022602,-1.5405781329747015e-05,0.04328313363545444,-2.7728115568725897e-05,-0.03423814299364136
91,190.0,205.741,618.725,-4.3867e-06,356.787,-0.0703137,-0.121101,-0.00604076,0.0429702,-0.035342,0.0852558,-1.56626e-05,-2.81912e-05,0.0648779,-0.006022551292571121,0.08899559614645769,-1.566247734208215e-05,0.04390678596487074,-2.8190802631833378e-05,-0.03472476433069471
92,192.7,206.213,620.149,-4.49184e-06,357.607,-0.0705382,-0.121488,-0.00613065,0.0435672,-0.0358455,0.0864506,-1.59192e-05,-2.86538e-05,0.0658292,-0.006111895909781562,0.09029750569061723,-1.5919073290238117e-05,0.044530184382003846,-2.8653389483768166e-05,-0.03521065807783852
93,195.4,206.679,621.555,-4.59751e-06,358.416,-0.0707582,-0.121867,-0.00622048,0.0441637,-0.0363485,0.0876442,-1.61758e-05,-2.91163e-05,0.0667797,-0.0062011728682374034,0.09159966176555856,-1.6175669172446838e-05,0.04515343250225978,-2.9115876124641282e-05,-0.035695825087093125
94,198.1,207.139,622.943,-4.70372e-06,359.216,-0.0709738,-0.122239,-0.00631024,0.0447596,-0.0368511,0.0888368,-1.64324e-05,-2.95788e-05,0.0677294,-0.006290372247632625,0.09290228011911217,-1.6432264988819334e-05,0.045776425034877555,-2.9578362551574422e-05,-0.03618036259092983
95,200.8,207.594,624.315,-4.81044e-06,360.006,-0.0711852,-0.122603,-0.00639992,0.045355,-0.0373533,0.0900282,-1.66888e-05,-3.00411e-05,0.0686783,-0.00637948413121292,0.09420513985508072,-1.6688660742780748e-05,0.0463992657196155,-3.0040648770657263e-05,-0.036664271293191164
96,203.5,208.043,625.671,-4.91769e-06,360.786,-0.0713924,-0.12296,-0.00648953,0.0459498,-0.037855,0.0912185,-1.69452e-05,-3.05033e-05,0.0696265,-0.006468518476396401,0.09550834768332228,-1.6945056430905936e-05,0.04702184914081964,-3.0502834779122523e-05,-0.037147455611362123
97,206.2,208.487,627.011,-5.02543e-06,361.558,-0.0715957,-0.123311,-0.00657908,0.046544,-0.0383562,0.0924077,-1.72015e-05,-3.09653e-05,0.0705738,-0.00655748523702071,0.09681190114965466,-1.7201352055074004e-05,0.04764417439810287,-3.096482058007055e-05,-0.03762991639183855
98,208.9,208.926,628.335,-5.13367e-06,362.32,-0.0717951,-0.123655,-0.00666855,0.0471377,-0.038857,0.0935958,-1.74578e-05,-3.14272e-05,0.0715204,-0.006646364562740814,0.09811579779583357,-1.745764761351687e-05,0.04826634541763486,-3.1426706170734064e-05,-0.038111750668336386
99,211.7,209.36,629.644,-5.2424e-06,363.074,-0.0719907,-0.123992,-0.00675795,0.0477308,-0.0393574,0.0947828,-1.77139e-05,-3.1889e-05,0.0724661,-0.006735166408247117,0.09942003515955666,-1.7713743109770697e-05,0.04888825659663132,-3.1888491551224085e-05,-0.03859295913990124
100,214.4,209.789,630.938,-5.3516e-06,363.819,-0.0721826,-0.124323,-0.00684727,0.0483233,-0.0398573,0.0959687,-1.79699e-05,-3.23505e-05,0.0734111,-0.006823880861137055,0.1007246107744717,-1.796973854228945e-05,0.04950990703442093,-3.23499767281854e-05,-0.03907344641182753
101,217.1,210.214,632.218,-5.46127e-06,364.556,-0.072371,-0.124648,-0.00693653,0.0489153,-0.0403568,0.0971536,-1.82258e-05,-3.28119e-05,0.0743553,-0.006912527805159385,0.102029632373138,-1.8225633911073125e-05,0.05013140084340173,-3.281136169552834e-05,-0.03955330936959378
102,219.8,210.633,633.484,-5.57141e-06,365.285,-0.0725559,-0.124967,-0.00702571,0.0495068,-0.0408558,0.0983373,-1.84816e-05,-3.32731e-05,0.0752986,-0.007001087396998895,0.10333487720572943,-1.8481429216232748e-05,0.05075273730914476,-3.327254645657529e-05,-0.04003245271201217
103,222.5,211.048,634.736,-5.68201e-06,366.006,-0.0727375,-0.125281,-0.00711482,0.0500977,-0.0413544,0.0995199,-1.87373e-05,-3.3734e-05,0.0762412,-0.007089569587718558,0.10464045286624213,-1.873712445787934e-05,0.051373810579647294,-3.373343101498172e-05,-0.04051097322601238
104,225.2,211.459,635.974,-5.79305e-06,366.719,-0.0729157,-0.125588,-0.00720386,0.050688,-0.0418525,0.100701,-1.89929e-05,-3.41947e-05,0.077183,-0.007177974396601727,0.10594591449372714,-1.89927196360129e-05,0.051994619753833016,-3.4194115367869315e-05,-0.04098877570366266
105,227.9,211.865,637.199,-5.90454e-06,367.424,-0.0730908,-0.125891,-0.00729283,0.0512778,-0.0423502,0.101882,-1.92483e-05,-3.46552e-05,0.0781239,-0.007266301842914991,0.10725280818756988,-1.9248114752623557e-05,0.052615269192091585,-3.465459951546013e-05,-0.041465956833620865
106,230.6,212.267,638.412,-6.01646e-06,368.122,-0.0732628,-0.126188,-0.00738172,0.051867,-0.0428474,0.103061,-1.95036e-05,-3.51155e-05,0.0790641,-0.007354542019451404,0.10855902911435122,-1.950340980605425e-05,0.05323565285577936,-3.511488345808722e-05,-0.04194242150095129
107,233.3,212.665,639.611,-6.12881e-06,368.813,-0.0734317,-0.126479,-0.00747055,0.0524557,-0.0433442,0.104239,-1.97587e-05,-3.55755e-05,0.0800035,-0.007442714799231864,0.109865681117576,-1.9758504798184084e-05,0.05385587522915847,-3.557486719940606e-05,-0.04241826629631562
108,236.0,213.058,640.799,-6.24159e-06,369.496,-0.0735977,-0.126766,-0.0075593,0.0530439,-0.0438405,0.105417,-2.00137e-05,-3.60353e-05,0.0809421,-0.007530800349439315,0.111173873263827,-2.0013499727244977e-05,0.05447593559684516,-3.603465073631629e-05,-0.0428933961975152
109,238.7,213.448,641.974,-6.35479e-06,370.173,-0.0737608,-0.127048,-0.00764797,0.0536315,-0.0443364,0.106593,-2.02686e-05,-3.64947e-05,0.0818798,-0.007618798691908069,0.11248138240347116,-2.026839459334795e-05,0.05509572773369853,-3.649403407657292e-05,-0.04336790769749044
110,241.4,213.834,643.138,-6.4684e-06,370.843,-0.0739211,-0.127325,-0.00773658,0.0542185,-0.0448319,0.107768,-2.05233e-05,-3.69539e-05,0.0828168,-0.007706729694315517,0.11378931628847244,-2.052308939848313e-05,0.055715250738090916,-3.6953217213087086e-05,-0.043841801482345066
111,244.1,214.215,644.289,-6.58242e-06,371.506,-0.0740786,-0.127597,-0.00782511,0.054805,-0.0453269,0.108942,-2.07778e-05,-3.74129e-05,0.083753,-0.0077945735290709806,0.11509767280079486,-2.0777584142983585e-05,0.05633460934180534,-3.741220014619184e-05,-0.044314982668605896
112,246.8,214.593,645.43,-6.69684e-06,372.163,-0.0742335,-0.127865,-0.00791357,0.055391,-0.0458215,0.110115,-2.10322e-05,-3.78715e-05,0.0846884,-0.007882340139122146,0.1164064498186459,-2.1031978824859188e-05,0.05695380282885232,-3.787078288375323e-05,-0.044787547603236
113,249.5,214.968,646.559,-6.81166e-06,372.813,-0.0743858,-0.128129,-0.00800195,0.0559764,-0.0463156,0.111286,-2.12863e-05,-3.83298e-05,0.0856229,-0.00797001962328725,0.11771452750139266,-2.1286073448312237e-05,0.05757272472579267,-3.832906542255987e-05,-0.04525940149486174
114,252.2,215.339,647.677,-6.92688e-06,373.457,-0.0745355,-0.128388,-0.00809027,0.0565612,-0.0468093,0.112457,-2.15404e-05,-3.87878e-05,0.0865567,-0.008057631842141477,0.11902413784030075,-2.154016800726133e-05,0.05819137413066722,-3.878704776305586e-05,-0.045730640593400596
115,254.9,215.706,648.785,-7.04248e-06,374.095,-0.0746828,-0.128642,-0.00817851,0.0571456,-0.0473025,0.113627,-2.17942e-05,-3.92455e-05,0.0874897,-0.008145156975042145,0.12033416229643978,-2.1793962508120934e-05,0.058809961903451224,-3.924472990546324e-05,-0.04620117019932124
116,257.6,216.07,649.882,-7.15848e-06,374.727,-0.0748277,-0.128893,-0.00826667,0.0577293,-0.0477953,0.114795,-2.20479e-05,-3.97029e-05,0.0884219,-0.00823259504367635,0.12164347708899093,-2.2047656946799776e-05,0.05942816968460285,-3.970211185033712e-05,-0.04667108646576901
117,260.3,216.43,650.969,-7.27485e-06,375.352,-0.0749702,-0.12914,-0.00835477,0.0583126,-0.0482877,0.115963,-2.23013e-05,-4.016e-05,0.0893533,-0.00831996590331019,0.12295432205466716,-2.230105132783322e-05,0.06004631440035979,-4.015919359801057e-05,-0.04714039007076343
118,263.0,216.787,652.046,-7.3916e-06,375.972,-0.0751104,-0.129382,-0.00844279,0.0588953,-0.0487796,0.117129,-2.25546e-05,-4.06167e-05,0.0902839,-0.008407249738493605,0.12426445045060475,-2.2554345646907947e-05,0.06066418338640722,-4.0615875153027226e-05,-0.04760898645215905
119,265.8,217.141,653.113,-7.50872e-06,376.587,-0.0752483,-0.129621,-0.00853074,0.0594775,-0.0492711,0.118294,-2.28077e-05,-4.10731e-05,0.0912137,-0.008494456485906188,0.1255749817716505,-2.280743990634715e-05,0.06128188186855543,-4.107225651173163e-05,-0.048076971618542075
120,268.5,217.491,654.171,-7.62621e-06,377.196,-0.075384,-0.129856,-0.00861861,0.0600591,-0.0497622,0.119459,-2.30606e-05,-4.15292e-05,0.0921427,-0.00858157625035183,0.12688704075137336,-2.306033410637287e-05,0.0618993029396937,-4.1528337674678895e-05,-0.04854434624454751
121,270.5,217.754,654.963,-7.95649e-06,377.652,-0.0754849,-0.130031,-0.00868496,0.0604982,-0.0501329,0.120338,-2.32515e-05,-4.18734e-05,0.092844,-0.008647354680544006,0.12787800992734155,-2.3251229685938846e-05,0.062365685310370456,-4.187252332144009e-05,-0.04889698548967225
