,Time,S11,S22,S33,S12,S13,S23,LE11,LE22,LE33,LE12,LE13,LE23,SDV_EPBAR,E11,E12,E13,E22,E23,E33
0,0.0002705,0.000519365,0.0015581,-7.79048e-12,0.000899567,2.21372e-21,3.68811e-20,2.50301e-10,6.7501e-09,-3.0004e-09,1.1258e-08,2.76762e-26,4.61603e-25,0.0,2.5030089112476617e-10,1.1258000087721598e-08,0.0,6.750100034480511e-09,0.0,-3.0004000395322805e-09
1,0.000541,0.00103873,0.00311619,4.33681e-19,0.00179913,-3.08331e-20,-2.03577e-20,5.00425e-10,1.35001e-08,-6.00057e-09,2.25162e-08,-1.63975e-24,4.6912e-25,0.0,5.00425034744012e-10,2.2516200237632233e-08,0.0,1.3500100148888805e-08,0.0,-6.000569929831556e-09
2,0.00094675,0.00181778,0.00545333,6.50521e-19,0.00314848,1.87371e-20,6.55005e-20,8.75688e-10,2.36252e-08,-1.05009e-08,3.94034e-08,-1.73568e-24,1.95724e-24,0.0,8.756879665838824e-10,3.9403400764470575e-08,0.0,2.3625200240573463e-08,0.0,-1.0500899927379237e-08
3,0.0015554,0.00298635,0.00895905,1.73472e-18,0.00517251,4.73565e-20,4.89771e-20,1.4375e-09,3.88125e-08,-1.725e-08,6.47354e-08,4.1359e-25,7.16359e-25,0.0,1.4374998968946784e-09,6.473540214990692e-08,0.0,3.8812500768869995e-08,0.0,-1.7249999872959165e-08
4,0.0024683,0.00473921,0.0142176,0.0,0.00820854,1.00168e-19,-5.78319e-20,2.28125e-09,6.15937e-08,-2.7375e-08,1.02732e-07,-7.41318e-35,-1.284e-34,0.0,2.281250077729169e-09,1.027320053470504e-07,0.0,6.159370191660685e-08,0.0,-2.7374999600482397e-08
5,0.0038377,0.00736849,0.0221055,-8.67362e-19,0.0127626,9.88226e-21,-8.20239e-20,3.54688e-09,9.57656e-08,-4.25625e-08,1.59728e-07,7.653e-32,1.32554e-31,0.0,3.5468799008953056e-09,1.597280128162737e-07,0.0,9.576560455748506e-08,0.0,-4.256249908074494e-08
6,0.0058918,0.0113124,0.0339373,-6.07153e-18,0.0195937,-4.73565e-20,-4.89771e-20,5.44671e-09,1.47024e-07,-6.53456e-08,2.45219e-07,-1.14621e-23,6.61761e-24,0.0,5.446709971934638e-09,2.452190299706558e-07,0.0,1.4702401074373483e-07,0.0,-6.534559782167548e-08
7,0.008973,0.0172283,0.0516849,7.80626e-18,0.0298403,6.7121e-20,-1.15071e-19,8.29297e-09,2.2391e-07,-9.95156e-08,3.7346e-07,1.78232e-31,3.08708e-31,0.0,8.292970088419338e-09,3.734600697580248e-07,0.0,2.2391002496569e-07,0.0,-9.951559509779884e-08
8,0.013595,0.0261021,0.0783064,9.54098e-18,0.0452102,-1.3116e-19,-4.58503e-19,1.25671e-08,3.39241e-07,-1.50777e-07,5.65816e-07,2.77687e-23,-3.13146e-23,0.0,1.2567100027283118e-08,5.658161601473921e-07,0.0,3.392410574676319e-07,0.0,-1.5077698867216327e-07
9,0.020527,0.0394129,0.118239,6.07153e-18,0.0682651,-4.56883e-19,3.48265e-20,1.89735e-08,5.12236e-07,-2.27663e-07,8.54355e-07,1.1462e-23,-6.61759e-24,0.0,1.8973500104380037e-08,8.543553648987512e-07,0.0,5.122361312892565e-07,0.0,-2.276629741393421e-07
10,0.030926,0.059379,0.178137,-8.67362e-19,0.102847,-1.54031e-18,-2.55477e-19,2.8587e-08,7.71729e-07,-3.42996e-07,1.28716e-06,-2.95414e-23,1.77334e-24,0.0,2.858700032248862e-08,1.2871608283671065e-06,0.0,7.717292977993395e-07,0.0,-3.429959412049044e-07
11,0.046525,0.0893282,0.267985,-4.94396e-17,0.154721,-5.5365e-19,3.95969e-19,4.30043e-08,1.16097e-06,-5.15992e-07,1.93637e-06,-9.16942e-23,5.29396e-23,0.0,4.300430100911967e-08,1.9363718748444114e-06,0.0,1.1609706738191505e-06,0.0,-5.159918669006558e-07
12,0.069922,0.134252,0.402756,-2.1684e-17,0.232531,2.20493e-19,-2.49317e-18,6.46307e-08,1.74483e-06,-7.75487e-07,2.91018e-06,-5.29397e-23,-9.16942e-23,0.0,6.463070212348043e-08,2.910184234483637e-06,0.0,1.744831522154655e-06,0.0,-7.754866993003873e-07
13,0.105,0.201637,0.604912,1.99493e-17,0.349246,-1.22407e-18,-2.88023e-18,9.70596e-08,2.62061e-06,-1.16471e-06,4.37091e-06,-1.05879e-22,-1.83388e-22,0.0,9.705960479777787e-08,4.370919552521002e-06,0.0,2.62061343381248e-06,0.0,-1.1647093217659332e-06
14,0.1577,0.302715,0.908146,-9.1073e-17,0.524319,2.72256e-18,-2.74454e-19,1.45719e-07,3.93429e-06,-1.74858e-06,6.56199e-06,1.03982e-22,-2.43423e-22,0.0,1.4571901063575865e-07,6.562011529931411e-06,0.0,3.934297739371928e-06,0.0,-1.748578471238993e-06
15,0.2366,0.454332,1.363,-7.80626e-18,0.786926,-1.38381e-17,-7.8084e-18,2.18705e-07,5.90479e-06,-2.62436e-06,9.8486e-06,-2.11758e-22,-3.66776e-22,0.0,2.1870502386889257e-07,9.848648497623458e-06,0.0,5.904807433232406e-06,0.0,-2.624356556402141e-06
16,0.3551,0.681756,2.04527,4.77049e-17,1.18084,-5.94481e-18,-2.59681e-18,3.28182e-07,8.86055e-06,-3.93804e-06,1.47785e-05,5.57568e-28,9.65736e-28,0.0,3.281820537548441e-07,1.4778609202625859e-05,0.0,8.860589254755524e-06,0.0,-3.938032245964784e-06
17,0.5328,1.02289,3.06867,7.13839e-16,1.7717,-5.94479e-18,-2.59677e-18,4.92389e-07,1.32942e-05,-5.90853e-06,2.21733e-05,8.36561e-28,1.44897e-27,0.0,4.923891212538223e-07,2.2173545829451413e-05,0.0,1.3294288368159712e-05,0.0,-5.908512544672284e-06
18,0.7993,1.53459,4.60377,-2.85362e-16,2.65799,-3.98145e-18,-3.30361e-17,7.38697e-07,1.99445e-05,-8.86424e-06,3.32654e-05,7.35553e-27,1.27402e-26,0.0,7.38697272906208e-07,3.326595329955495e-05,0.0,1.9944698892881974e-05,0.0,-8.864200712777048e-06
19,1.199,2.30213,6.90638,-1.61763e-15,3.9874,2.21215e-18,-5.61484e-17,1.10814e-06,2.99199e-05,-1.32977e-05,4.99034e-05,-4.23505e-22,-7.33532e-22,0.0,1.1081406139368255e-06,4.990464519538662e-05,0.0,2.992034760462836e-05,0.0,-1.3297611585971758e-05
20,1.799,3.45341,10.3602,-3.17194e-15,5.98148,6.53581e-17,-1.44564e-17,1.66234e-06,4.48827e-05,-1.99479e-05,7.48599e-05,-1.09041e-26,-1.88864e-26,0.0,1.6623413816585497e-06,7.486270207235357e-05,0.0,4.4883707243537074e-05,0.0,-1.994770104196686e-05
21,2.698,5.18029,15.5409,-2.8485e-14,8.97252,-6.87866e-17,2.39178e-17,2.49357e-06,6.73263e-05,-2.99228e-05,0.000112294,-4.23518e-22,-7.33555e-22,0.0,2.4935731088859825e-06,0.00011230030520725798,0.0,6.732856646629592e-05,0.0,-2.9922352317468537e-05
22,4.047,31.1929,93.5787,-1.03264e-09,54.0277,-8.08225e-16,-1.7395e-16,1.5015e-05,0.000405403,-0.000180179,0.000676171,-3.02527e-20,1.82072e-21,0.0,1.5015112725613733e-05,0.0006763996551444329,0.0,0.00040548518690219915,0.0,-0.00018016276873877857
23,6.071,70.3658,211.097,-9.04826e-07,121.877,1.29847e-16,-7.14917e-16,3.38711e-05,0.000914519,-0.000406453,0.00152533,-2.03309e-20,-3.52142e-20,0.0,3.3871673632113186e-05,0.0015264939075101402,0.0,0.0009149373000056915,0.0,-0.00040637040916957634
24,8.776,121.27,363.817,0.000119559,210.048,-0.00013145,-0.000227617,5.5522e-05,0.0015932,-0.000714722,0.00266338,-1.6696e-09,-2.89299e-09,2.76021e-05,5.5523541374835617e-05,0.0026669299474322283,-1.6696000137983447e-09,0.0015944698173882,-2.8929899587026853e-09,-0.000714466647070533
25,11.48,127.235,381.874,0.0759094,220.497,-0.00273544,-0.00472711,-3.56468e-05,0.00223291,-0.00121687,0.00393174,-4.95438e-08,-8.68618e-08,0.000935826,-3.5646164660341206e-05,0.003939479429531101,-4.9543798730233846e-08,0.002235404800076557,-8.68617962002105e-08,-0.0012161299139280546
26,14.19,132.209,396.715,0.000133291,229.018,-0.00495295,-0.00856365,-0.000128721,0.00287132,-0.0017242,0.00520111,-1.04506e-07,-1.84139e-07,0.00186422,-0.00012871271580749966,0.005214659252815945,-1.0450599452482834e-07,0.002875446187527775,-1.8413898306146592e-07,-0.0017227144211143797
27,16.89,136.405,409.334,-5.03448e-06,236.294,-0.00675323,-0.0116718,-0.000223841,0.00350837,-0.00223375,0.00647169,-1.63503e-07,-2.89034e-07,0.00280605,-0.00022381594947240568,0.006492676634298533,-1.635029865942883e-07,0.003514531533567844,-2.890339582117818e-07,-0.0022312570370328633
28,19.6,140.064,420.339,5.34062e-06,242.64,-0.00828711,-0.0143182,-0.00032021,0.00414433,-0.0027451,0.00774255,-2.26713e-07,-4.01782e-07,0.00375741,-0.0003201587382496429,0.007772601047430161,-2.2671297428278336e-07,0.004152929611346057,-4.017819192903005e-07,-0.002741335658280941
29,22.3,143.314,430.115,2.43548e-06,248.277,-0.00961735,-0.0166119,-0.000417506,0.00477931,-0.0032577,0.00901332,-2.93643e-07,-5.21432e-07,0.00471578,-0.0004174188564981529,0.009054062284463704,-2.936429568389798e-07,0.004790749118475546,-5.214318640200943e-07,-0.0032523994527814404
30,25.01,146.243,438.921,1.09417e-06,253.356,-0.0107878,-0.0186291,-0.000515512,0.00541339,-0.00377118,0.0102837,-3.63867e-07,-6.47171e-07,0.00567948,-0.0005153791465190016,0.010336758967706361,-3.638669338057454e-07,0.005428068871177638,-6.47170790624152e-07,-0.0037640780311098965
31,27.71,148.91,446.943,4.51141e-07,257.981,-0.0118301,-0.0204245,-0.000614074,0.00604662,-0.00428527,0.0115536,-4.37015e-07,-7.78301e-07,0.00664729,-0.000613885495148625,0.011620600620645183,-4.370149044863325e-07,0.0060649377081747335,-7.783006971129325e-07,-0.004276101331928461
32,30.42,151.362,454.315,1.35325e-07,262.232,-0.0127674,-0.0220385,-0.000713077,0.00667904,-0.00479977,0.0128229,-5.12772e-07,-9.14229e-07,0.00761832,-0.0007128228210160348,0.012905465916266401,-5.127718685216109e-07,0.006701394528878524,-9.142285820606944e-07,-0.004788269511231125
33,33.12,153.632,461.142,-1.83622e-08,266.169,-0.0136176,-0.0235018,-0.000812436,0.00731068,-0.00531454,0.0140914,-5.90866e-07,-1.05445e-06,0.00859191,-0.0008121060632299004,0.0141911517736375,-5.90865825489395e-07,0.007337468261377378,-1.054449444093386e-06,-0.005300442816698614
34,35.83,155.747,467.502,-8.88822e-08,269.837,-0.0143941,-0.0248381,-0.000912084,0.00794157,-0.00582946,0.0153591,-6.71063e-07,-1.19852e-06,0.00956754,-0.0009116681778196245,0.015477657175898774,-6.710627747930076e-07,0.007973187910227386,-1.1985192818197987e-06,-0.005812501666697778
35,38.53,157.728,473.46,-1.15989e-07,273.272,-0.015108,-0.0260661,-0.00101197,0.00857172,-0.00634444,0.0166259,-7.5316e-07,-1.34607e-06,0.0105448,-0.0010114581310395332,0.016764879426439894,-7.531597163712433e-07,0.00860856238417651,-1.3460690940769737e-06,-0.006324356535767128
36,41.24,159.592,479.065,-1.20499e-07,276.505,-0.0157676,-0.0272006,-0.00111204,0.00920115,-0.00685941,0.0178917,-8.3698e-07,-1.49677e-06,0.0115233,-0.00111142191265301,0.01805271531019592,-8.369796496987547e-07,0.009243610709865457,-1.496768879838406e-06,-0.006835937946036763
37,43.94,161.353,484.361,-1.13627e-07,279.559,-0.0163802,-0.0282539,-0.00121228,0.00982986,-0.00737431,0.0191566,-9.22369e-07,-1.65033e-06,0.0125029,-0.0012115454854432217,0.019341264961215243,-9.223685746295729e-07,0.009878331767185111,-1.6503286381919224e-06,-0.007347186489355617
38,46.65,163.023,489.381,-1.01531e-07,282.454,-0.0169515,-0.0292359,-0.00131264,0.0104579,-0.00788908,0.0204205,-1.00919e-06,-1.80651e-06,0.0134832,-0.0013117788649432693,0.020630424899009014,-1.0091894907526822e-06,0.010512774961666471,-1.806508368229487e-06,-0.00785804288011338
39,49.35,164.61,494.155,-8.76164e-08,285.207,-0.0174862,-0.0301549,-0.00141312,0.0110852,-0.0084037,0.0216834,-1.09733e-06,-1.96508e-06,0.0144642,-0.001412122016078543,0.02192019331545758,-1.0973293979033016e-06,0.01114686848804114,-1.9650780692659353e-06,-0.008368487620285081
40,52.06,166.124,498.707,-7.37587e-08,287.832,-0.0179883,-0.0310179,-0.00151367,0.0117119,-0.00891812,0.0229453,-1.18667e-06,-2.12585e-06,0.0154456,-0.0015125249793661588,0.023210568398329023,-1.1866692959383585e-06,0.011780752837436959,-2.1258477403973686e-06,-0.008878471518678599
41,54.76,167.571,503.058,-6.09642e-08,290.341,-0.0184614,-0.0318308,-0.00161429,0.0123379,-0.00943231,0.024206,-1.27712e-06,-2.28864e-06,0.0164273,-0.001612987734736726,0.02450134343099153,-1.277119184517339e-06,0.012414325876384025,-2.288637381053782e-06,-0.009387965297879775
42,57.47,168.957,507.226,-4.97416e-08,292.744,-0.0189084,-0.0325986,-0.00171497,0.0129632,-0.00994625,0.0254657,-1.3686e-06,-2.4533e-06,0.0174092,-0.001713500279245439,0.02579272097669083,-1.368599063522602e-06,0.013047586522661803,-2.4532969906676527e-06,-0.009896949642084318
43,60.17,170.287,511.227,-4.03123e-08,295.052,-0.0193316,-0.0333257,-0.00181568,0.0135878,-0.0104599,0.0267244,-1.46102e-06,-2.61968e-06,0.0183913,-0.0018140326502394943,0.027084699210509156,-1.4610189327246559e-06,0.013680533694028219,-2.6196765686714585e-06,-0.01040538548368708
44,62.88,171.567,515.075,-3.27342e-08,297.271,-0.0197334,-0.0340157,-0.00191642,0.0142118,-0.0109733,0.0279819,-1.55432e-06,-2.78765e-06,0.0193733,-0.0019145848396915355,0.02837707062799244,-1.554318792007514e-06,0.014313267739544555,-2.7876461144993314e-06,-0.010913312962639199
45,65.58,172.8,518.781,-2.69742e-08,299.408,-0.0201156,-0.0346721,-0.00201718,0.0148351,-0.0114864,0.0292383,-1.64844e-06,-2.95711e-06,0.0203552,-0.0020151468597234823,0.029669935587226748,-1.6484386413662122e-06,0.014945686272087366,-2.9571056278099306e-06,-0.011420683164801382
46,68.29,173.989,522.357,-2.29491e-08,301.47,-0.0204798,-0.0352976,-0.00211795,0.0154578,-0.0119991,0.0304936,-1.74332e-06,-3.12794e-06,0.0213371,-0.0021157087264797036,0.030963291862598608,-1.7433184804627189e-06,0.015577889767059094,-3.1279351080382156e-06,-0.011927397873127576
47,70.99,175.138,525.811,-2.05522e-08,303.462,-0.0208276,-0.0358947,-0.00221872,0.0160799,-0.0125115,0.0317477,-1.83891e-06,-3.30006e-06,0.0223187,-0.0022162604601271285,0.03225703399836699,-1.8389083091818748e-06,0.016209877331633038,-3.3000545548445004e-06,-0.012433556585521033
48,73.7,176.249,529.153,-1.96676e-08,305.389,-0.0211602,-0.0364658,-0.00231948,0.0167013,-0.0130236,0.0330007,-1.93515e-06,-3.47338e-06,0.0233,-0.002316792084854913,0.033551262726936315,-1.9351481276297378e-06,0.01684154638865709,-3.473373967777249e-06,-0.012939159890417828
49,76.4,177.325,532.39,-2.01791e-08,307.256,-0.0214788,-0.0370128,-0.00242023,0.0173221,-0.0135353,0.0342526,-2.03201e-06,-3.64781e-06,0.0242811,-0.0024173036046996055,0.03484597580930249,-2.0320079354707588e-06,0.017472997602832052,-3.6478033467179927e-06,-0.013444109719870201
50,79.11,178.369,535.528,-2.19744e-08,309.066,-0.0217845,-0.0375375,-0.00252097,0.0179422,-0.0140467,0.0355034,-2.12945e-06,-3.82328e-06,0.0252619,-0.002517795023696645,0.03614117100205738,-2.129447732701628e-06,0.018104128270485464,-3.8232726913278725e-06,-0.01394850541718673
51,81.81,179.382,538.575,-2.49486e-08,310.823,-0.022078,-0.0380415,-0.00262168,0.0185617,-0.0145577,0.036753,-2.22742e-06,-3.99973e-06,0.0262422,-0.002618246398245816,0.03743674231371075,-2.227417519318209e-06,0.018735039182426583,-3.999722001046813e-06,-0.01445224901346831
52,84.52,180.366,541.534,-2.90036e-08,312.529,-0.0223604,-0.0385262,-0.00272237,0.0191806,-0.0150683,0.0380015,-2.3259e-06,-4.17709e-06,0.0272221,-0.002718667711220202,0.03873279097651561,-2.3258972950968015e-06,0.019365729445146806,-4.1770812759800435e-06,-0.014955341244745068
53,87.22,181.324,544.413,-3.40509e-08,314.189,-0.0226322,-0.0389928,-0.00282302,0.0197988,-0.0155785,0.0392488,-2.42485e-06,-4.35531e-06,0.0282016,-0.002819039026043968,0.04002921073080401,-2.4248470600340966e-06,0.019996096165367128,-4.355300515679339e-06,-0.01545778284589061
54,89.93,182.255,547.214,-4.00093e-08,315.805,-0.0228943,-0.0394427,-0.00292364,0.0204165,-0.0160883,0.040495,-2.52424e-06,-4.53433e-06,0.0291807,-0.002919370326584736,0.04132610305898554,-2.5242368141276117e-06,0.02062634238547445,-4.53431971991769e-06,-0.015959574550622246
55,92.63,183.163,549.943,-4.68048e-08,317.378,-0.0231472,-0.0398767,-0.00302422,0.0210335,-0.0165977,0.04174,-2.62405e-06,-4.71411e-06,0.0301592,-0.0030196516530849316,0.042623361433066664,-2.6240465571536475e-06,0.02125626314929807,-4.7140988885807644e-06,-0.01646071709150454
56,95.34,184.047,552.603,-5.43717e-08,318.913,-0.0233914,-0.040296,-0.00312476,0.0216499,-0.0171067,0.0429839,-2.72425e-06,-4.89459e-06,0.0311372,-0.003119883018592562,0.04392108758580404,-2.724246289220744e-06,0.021885959562400137,-4.894578021552576e-06,-0.016961211199948534
57,98.04,184.91,555.198,-6.26498e-08,320.409,-0.0236276,-0.0407014,-0.00322525,0.0222656,-0.0176153,0.0442266,-2.82482e-06,-5.07574e-06,0.0321146,-0.003220054468349054,0.04521917472073533,-2.8248160102162245e-06,0.022515328479041585,-5.075727118497575e-06,-0.017461057606216523
58,100.7,185.753,557.732,-7.15851e-08,321.87,-0.0238561,-0.0410936,-0.0033257,0.0228808,-0.0181235,0.0454682,-2.92573e-06,-5.25751e-06,0.0330915,-0.003320175985190521,0.04651772482115346,-2.925725720026584e-06,0.023144573445027516,-5.2574961793006025e-06,-0.017960257039420946
59,103.5,186.576,560.206,-8.11293e-08,323.297,-0.0240775,-0.0414735,-0.0034261,0.0234953,-0.0186313,0.0467086,-3.02697e-06,-5.43988e-06,0.0340678,-0.00342023761634358,0.04781663082198295,-3.0269654187620176e-06,0.023773488999923265,-5.439865203848981e-06,-0.018458810227528932
60,106.2,187.38,562.625,-9.12381e-08,324.692,-0.024292,-0.0418418,-0.00352645,0.0241092,-0.0191387,0.0479478,-3.12851e-06,-5.62279e-06,0.0350435,-0.0035202393778265284,0.04911589004564898,-3.1285051061979985e-06,0.02440217650070431,-5.622774192137747e-06,-0.018956717897361197
61,108.9,188.167,564.99,-1.01871e-07,326.056,-0.0245001,-0.042199,-0.00362674,0.0247226,-0.0196457,0.0491859,-3.23035e-06,-5.80623e-06,0.0360186,-0.003620171321848109,0.050415604851538065,-3.230344782445549e-06,0.025030737555736593,-5.8062131438330056e-06,-0.019453980774596036
62,111.6,188.936,567.305,-1.12995e-07,327.391,-0.0247021,-0.0425457,-0.00372698,0.0253353,-0.0201522,0.0504229,-3.33245e-06,-5.99015e-06,0.0369931,-0.0037200434302012697,0.05171577294291407,-3.332444447390337e-06,0.025658966326868038,-5.990132059041642e-06,-0.019950501578825164
63,114.3,189.69,569.571,-1.24574e-07,328.697,-0.0248983,-0.0428825,-0.00382716,0.0259474,-0.0206583,0.0516587,-3.4348e-06,-6.17454e-06,0.0379669,-0.0038198457570682853,0.05301628671706604,-3.4347941010315353e-06,0.026286964359347076,-6.174520937540784e-06,-0.020446379137575632
64,117.0,190.428,571.79,-1.36581e-07,329.977,-0.025089,-0.0432099,-0.00392728,0.0265589,-0.021164,0.0528933,-3.5374e-06,-6.35935e-06,0.0389401,-0.003919578321415762,0.054317143478290975,-3.537393743369144e-06,0.026914730758067495,-6.359329779326295e-06,-0.02094161417291307
65,119.7,191.151,573.965,-1.48989e-07,331.231,-0.0252745,-0.0435284,-0.00402734,0.0271698,-0.0216693,0.0541268,-3.64022e-06,-6.54458e-06,0.0399126,-0.004019241142194763,0.055618446088159246,-3.6402133744006804e-06,0.027542264627791857,-6.544558584287152e-06,-0.02143620740576757
66,122.4,191.86,576.098,-1.61773e-07,332.461,-0.0254551,-0.0438383,-0.00412734,0.0277801,-0.0221741,0.0553591,-3.74325e-06,-6.73019e-06,0.0408845,-0.004118834238342695,0.05692008654031966,-3.7432429940142953e-06,0.02816956507315438,-6.730167352309024e-06,-0.02193006174894574
67,125.1,192.556,578.189,-1.74912e-07,333.667,-0.0256309,-0.0441401,-0.00422728,0.0283898,-0.0226785,0.0565903,-3.84649e-06,-6.91617e-06,0.0418556,-0.00421835762878231,0.058222167947702186,-3.846482602321011e-06,0.028796631198662714,-6.916146083391084e-06,-0.02242327582675241
68,127.8,193.238,580.241,-1.88385e-07,334.85,-0.0258021,-0.0444342,-0.00432715,0.0289989,-0.0231825,0.0578203,-3.94991e-06,-7.10248e-06,0.0428261,-0.0043178013755997835,0.05952458203473965,-3.9499021990963e-06,0.029423462108699727,-7.102454777418998e-06,-0.022915850356527212
69,130.5,193.908,582.255,-2.02174e-07,336.012,-0.0259691,-0.0447209,-0.00442696,0.0296074,-0.023686,0.0590492,-4.05351e-06,-7.28911e-06,0.0437958,-0.0044171754564984456,0.06082743216590192,-4.053501784562208e-06,0.030050056907526157,-7.289083434502963e-06,-0.023407688395255755
70,133.2,194.566,584.233,-2.16263e-07,337.153,-0.026132,-0.0450005,-0.0045267,0.0302153,-0.0241891,0.0602769,-4.15727e-06,-7.47604e-06,0.0447649,-0.004516469935520462,0.06213060979627638,-4.157261358606057e-06,0.030676414699282173,-7.476012054530301e-06,-0.023898888415498365
71,135.9,195.212,586.176,-2.30635e-07,338.273,-0.0262909,-0.0452734,-0.00462638,0.0308226,-0.0246917,0.0615035,-4.26119e-06,-7.66326e-06,0.0457332,-0.004615694788348557,0.06343421854205089,-4.261180921116825e-06,0.031302534587989816,-7.66323063727814e-06,-0.02438935356996308
72,138.6,195.847,588.086,-2.45277e-07,339.374,-0.026446,-0.0455398,-0.00472599,0.0314294,-0.025194,0.0627289,-4.36525e-06,-7.85074e-06,0.0467008,-0.004714840080977223,0.06473814958883906,-4.365240472314902e-06,0.03192851887040149,-7.850709182966042e-06,-0.02487927974240567
73,141.3,196.471,589.963,-2.60176e-07,340.457,-0.0265975,-0.0458001,-0.00482552,0.0320355,-0.0256958,0.0639532,-4.46946e-06,-8.03846e-06,0.0476677,-0.004813895883350239,0.06604250680472412,-4.46945001197907e-06,0.032554160327179504,-8.038427691703376e-06,-0.02536847257108521
74,144.0,197.085,591.808,-2.75321e-07,341.521,-0.0267456,-0.0460544,-0.00492499,0.0326411,-0.0261971,0.0651763,-4.57379e-06,-8.22643e-06,0.0486338,-0.004912882121964501,0.06734718110571936,-4.5737795402178705e-06,0.03317966451022314,-8.226396163046878e-06,-0.02585693291297142
75,146.7,197.689,593.624,-2.90699e-07,342.568,-0.0268904,-0.046303,-0.00502439,0.033246,-0.026698,0.0663983,-4.67824e-06,-8.41461e-06,0.0495993,-0.005011788865735056,0.06865227661197815,-4.678229057031302e-06,0.03380482394969575,-8.414574597215285e-06,-0.026344758989034878
76,149.4,198.282,595.41,-3.06301e-07,343.598,-0.0270319,-0.0465461,-0.00512371,0.0338504,-0.0271985,0.0676191,-4.78281e-06,-8.60299e-06,0.0505639,-0.005110606187515354,0.06995768396979085,-4.782798562419366e-06,0.034429844447458446,-8.602952994429813e-06,-0.02683195150706308
77,152.1,198.867,597.168,-3.22118e-07,344.611,-0.0271704,-0.046784,-0.00522297,0.0344542,-0.0276985,0.0688388,-4.88748e-06,-8.79157e-06,0.0515278,-0.005209354007809752,0.07126350755155442,-4.887468056269384e-06,0.03505462178883367,-8.791531354246374e-06,-0.027318413905575323
78,154.8,199.443,598.898,-3.38141e-07,345.609,-0.027306,-0.0470169,-0.00532215,0.0350574,-0.0281981,0.0700574,-4.99224e-06,-8.98032e-06,0.052491,-0.005308012451526234,0.07256974499068258,-4.992227538802574e-06,0.03567915507700037,-8.98027967699555e-06,-0.02780424425546124
79,157.6,200.009,600.603,-3.54363e-07,346.592,-0.0274387,-0.0472449,-0.00542126,0.03566,-0.0286972,0.0712748,-5.0971e-06,-9.16924e-06,0.0534534,-0.005406591489247381,0.07387628652870415,-5.097087009797718e-06,0.036303443415034664,-9.169197962677345e-06,-0.02828934608992062
80,160.3,200.567,602.281,-3.70775e-07,347.56,-0.0275687,-0.0474683,-0.0055203,0.0362621,-0.0291959,0.072491,-5.20205e-06,-9.35832e-06,0.0544151,-0.0055050911426428595,0.07518312939844551,-5.202036469365012e-06,0.0369275895986676,-9.358276211068883e-06,-0.028773817380068678
81,163.0,201.117,603.935,-3.8737e-07,348.514,-0.027696,-0.0476871,-0.00561926,0.0368635,-0.0296942,0.0737062,-5.30708e-06,-9.54754e-06,0.0553759,-0.005603501489399032,0.07649048612635578,-5.307065917503628e-06,0.03755138540765057,-9.547494422390557e-06,-0.02925765882775999
82,165.7,201.659,605.565,-4.04143e-07,349.454,-0.0278209,-0.0479017,-0.00571814,0.0374644,-0.030192,0.0749202,-5.41217e-06,-9.73689e-06,0.056336,-0.005701822554098346,0.07779813916130451,-5.412155354211912e-06,0.03817503739261552,-9.736842596641537e-06,-0.02974077410782583
83,168.4,202.193,607.171,-4.21088e-07,350.38,-0.0279433,-0.048112,-0.00581696,0.0380647,-0.0306894,0.0761331,-5.51734e-06,-9.92637e-06,0.0572954,-0.005800074245297493,0.07910619363356841,-5.517324779491517e-06,0.038798440963423,-9.926320733710803e-06,-0.030223261042336302
84,171.1,202.72,608.755,-4.38199e-07,351.293,-0.0280633,-0.0483184,-0.00591569,0.0386645,-0.0311864,0.0773448,-5.62257e-06,-1.0116e-05,0.058254,-0.005898226758588754,0.08041453910942287,-5.62255419334079e-06,0.039421699164762236,-1.0115948833488986e-05,-0.030705120329646785
85,173.8,203.239,610.317,-4.5547e-07,352.194,-0.0281811,-0.0485208,-0.00601435,0.0392637,-0.0316828,0.0785554,-5.72786e-06,-1.03057e-05,0.0592118,-0.005996300001504085,0.08172328097208226,-5.727843595870752e-06,0.0400447072814929,-1.0305646896413556e-05,-0.031186158904263017
86,176.5,203.752,611.857,-4.72898e-07,353.082,-0.0282967,-0.0487195,-0.00611294,0.0398622,-0.0321789,0.0797649,-5.83319e-06,-1.04954e-05,0.0601688,-0.0060942939955936914,0.08303241682072904,-5.8331729869687265e-06,0.04066736034914542,-1.0495344923477923e-05,-0.03166666825063247
87,179.2,204.257,613.377,-4.90477e-07,353.958,-0.0284102,-0.0489146,-0.00621144,0.0404603,-0.0326745,0.0809732,-5.93858e-06,-1.06853e-05,0.061125,-0.006192188886232408,0.08434183581614807,-5.9385623666363685e-06,0.041289969670127435,-1.0685242912367166e-05,-0.03214645534878391
88,181.9,204.756,614.877,-5.08203e-07,354.823,-0.0285216,-0.0491062,-0.00630988,0.0410577,-0.0331697,0.0821804,-6.04401e-06,-1.08753e-05,0.0620805,-0.006290014512102204,0.08565164372132839,-6.043991734983045e-06,0.041912222146316847,-1.0875240864183233e-05,-0.03262561777368711
89,184.6,205.248,616.357,-5.26073e-07,355.677,-0.028631,-0.0492944,-0.00640823,0.0416546,-0.0336644,0.0833865,-6.14948e-06,-1.10653e-05,0.0630351,-0.00638774108339224,0.08696183812272862,-6.149461092008757e-06,0.042534325199901524,-1.106523877980603e-05,-0.03310405952824902
90,187.3,205.734,617.818,-5.44083e-07,356.519,-0.0287386,-0.0494793,-0.00650651,0.0422509,-0.0341587,0.0845915,-6.25499e-06,-1.12554e-05,0.063989,-0.006485388497725841,0.08827241660261786,-6.254970437602481e-06,0.04315617380375336,-1.125533665824463e-05,-0.03358187808903812
91,190.0,206.213,619.26,-5.62228e-07,357.351,-0.0288442,-0.0496611,-0.00660471,0.0428466,-0.0346525,0.0857954,-6.36053e-06,-1.14456e-05,0.0649421,-0.0065829468423822535,0.08958337673908057,-6.360509771874412e-06,0.04377776705965819,-1.144553449938801e-05,-0.034058977552085645
92,192.7,206.687,620.684,-5.80507e-07,358.172,-0.0289481,-0.0498398,-0.00670283,0.0434418,-0.035146,0.0869981,-6.46609e-06,-1.16358e-05,0.0658944,-0.006680416141716106,0.09089460701655527,-6.4660690949347455e-06,0.044399208509241284,-1.163573230433812e-05,-0.034535551842285406
93,195.4,207.154,622.091,-5.98916e-07,358.983,-0.0290503,-0.0500155,-0.00680087,0.0440364,-0.0356389,0.0881997,-6.57168e-06,-1.1826e-05,0.0668459,-0.00677779642005838,0.09220621383190819,-6.571658406562264e-06,0.04502039293845006,-1.1825930073094959e-05,-0.035011312008057294
94,198.1,207.616,623.481,-6.17452e-07,359.784,-0.0291508,-0.0501884,-0.00689884,0.0446305,-0.0361314,0.0894002,-6.67729e-06,-1.20163e-05,0.0677967,-0.0068750976329652325,0.09351819475059098,-6.677267706978185e-06,0.04564142401290905,-1.2016227804556578e-05,-0.03548645192408495
95,200.8,208.073,624.853,-6.36112e-07,360.576,-0.0292496,-0.0503585,-0.00699672,0.045224,-0.0366235,0.0905996,-6.78292e-06,-1.22067e-05,0.0687466,-0.0069722999412502595,0.0948305473338944,-6.782896996071486e-06,0.046262196394043054,-1.2206625498500934e-05,-0.035960972275784764
96,203.5,208.524,626.21,-6.54894e-07,361.358,-0.0293469,-0.0505259,-0.00709453,0.0458169,-0.0371152,0.0917979,-6.88856e-06,-1.2397e-05,0.0696957,-0.007069423230701366,0.09614326913895344,-6.8885362739523615e-06,0.046882709183124094,-1.239692315746499e-05,-0.03643487374749199
97,206.2,208.97,627.55,-6.73796e-07,362.131,-0.0294426,-0.0506906,-0.00719226,0.0464093,-0.0376064,0.0929951,-6.99421e-06,-1.25874e-05,0.0706441,-0.0071664575943074516,0.09745635771875416,-6.994185540620812e-06,0.047503066231659785,-1.2587320779022804e-05,-0.03690806071327435
98,208.9,209.41,628.875,-6.92815e-07,362.895,-0.0295369,-0.0508529,-0.00728991,0.0470011,-0.0380971,0.0941911,-7.09988e-06,-1.27778e-05,0.0715916,-0.007263403056284146,0.09876970074516356,-7.0998547959666425e-06,0.04812316201449973,-1.2777718364276325e-05,-0.03738053399708152
99,211.7,209.846,630.185,-7.1195e-07,363.65,-0.0296297,-0.0510127,-0.00738748,0.0475924,-0.0385874,0.0953861,-7.20554e-06,-1.29682e-05,0.0725384,-0.007360259640822653,0.10008351538545468,-7.205514040209415e-06,0.04874310050695163,-1.2968115913225553e-05,-0.03785239063615531
100,214.4,210.276,631.48,-7.31198e-07,364.397,-0.0297211,-0.05117,-0.00748497,0.0481831,-0.0390773,0.0965799,-7.31122e-06,-1.31586e-05,0.0734843,-0.007457027372090641,0.10139757929480697,-7.311193273129568e-06,0.04936277605957695,-1.315851342598151e-05,-0.03832363131015459
101,217.1,210.702,632.761,-7.50556e-07,365.136,-0.0298112,-0.0513251,-0.00758239,0.0487732,-0.0395668,0.0977726,-7.41689e-06,-1.3349e-05,0.0744295,-0.0075537161986948265,0.10271199988653446,-7.416862494946663e-06,0.04998218777318142,-1.3348910902544198e-05,-0.03879425669766756
102,219.8,211.123,634.027,-7.70025e-07,365.866,-0.0298999,-0.0514779,-0.00767972,0.0493628,-0.0400558,0.0989643,-7.52256e-06,-1.35394e-05,0.0753739,-0.007650306294863851,0.10402688509554014,-7.522531705661528e-06,0.050601439808653614,-1.353930834269157e-05,-0.03926417140263305
103,222.5,211.54,635.28,-7.89601e-07,366.588,-0.0299874,-0.0516286,-0.00777697,0.0499518,-0.0405443,0.100155,-7.62823e-06,-1.37298e-05,0.0763174,-0.007746807610124362,0.10534223284450084,-7.6282009051631405e-06,0.051220426330336855,-1.3729705746756693e-05,-0.03973337624229034
104,225.2,211.952,636.519,-8.09284e-07,367.303,-0.0300736,-0.0517771,-0.00787415,0.0505403,-0.0410325,0.101344,-7.73389e-06,-1.39202e-05,0.0772602,-0.007843230090116338,0.10665726639187278,-7.733860093561695e-06,0.05183925162271441,-1.3920103114517524e-05,-0.040202063992019865
105,227.9,212.359,637.745,-8.29071e-07,368.01,-0.0301586,-0.0519235,-0.00797124,0.0511282,-0.0415202,0.102533,-7.83954e-06,-1.41106e-05,0.0782022,-0.007939553914791175,0.107973864444046,-7.839509270857192e-06,0.05245780972608216,-1.4110500445974061e-05,-0.04067004331937629
106,230.6,212.763,638.958,-8.48962e-07,368.709,-0.0302424,-0.0520679,-0.00806826,0.0517156,-0.0420074,0.10372,-7.94518e-06,-1.4301e-05,0.0791433,-0.008035798950348227,0.10928981028048468,-7.945148437160654e-06,0.05307620504844057,-1.4300897741237328e-05,-0.041137315037637845
107,233.3,213.162,640.158,-8.68955e-07,369.401,-0.0303251,-0.0522104,-0.00816519,0.0523024,-0.0424942,0.104906,-8.05081e-06,-1.44913e-05,0.0800837,-0.00813194538054407,0.11060620846529745,-8.050777592361058e-06,0.0536943315061289,-1.4491195001631318e-05,-0.04160397579823294
108,236.0,213.557,641.346,-8.89048e-07,370.086,-0.0304067,-0.052351,-0.00826204,0.0528887,-0.0429806,0.106091,-8.15642e-06,-1.46816e-05,0.0810232,-0.008228003149961305,0.11192305690093107,-8.156386736457577e-06,0.05431229363058554,-1.4681492225832038e-05,-0.04207002627174117
109,238.7,213.948,642.522,-9.09242e-07,370.764,-0.0304872,-0.0524898,-0.00835882,0.0534745,-0.0434666,0.107275,-8.26202e-06,-1.48719e-05,0.081962,-0.008323982199315294,0.11324035348599182,-8.26198586956206e-06,0.05493009070729116,-1.4871789413839487e-05,-0.042535467127683635
110,241.4,214.335,643.686,-9.29534e-07,371.436,-0.0305666,-0.0526267,-0.00845551,0.0540597,-0.0439521,0.108458,-8.3676e-06,-1.50622e-05,0.0829,-0.00841986271805828,0.11455809611525036,-8.367564991784704e-06,0.055547616466787186,-1.5062086565653665e-05,-0.04300020333455057
111,244.1,214.718,644.839,-9.49923e-07,372.1,-0.030645,-0.0527619,-0.00855213,0.0546443,-0.0444372,0.10964,-8.47316e-06,-1.52524e-05,0.0838371,-0.008515664562660619,0.11587628267964578,-8.473124102903462e-06,0.05616487000900494,-1.5252283682709589e-05,-0.04346433135256034
112,246.8,215.097,645.98,-9.70409e-07,372.758,-0.0307225,-0.0528954,-0.00864866,0.0552284,-0.0449218,0.11082,-8.5787e-06,-1.54426e-05,0.0847735,-0.00861136792636319,0.11719379387193607,-8.578663203029357e-06,0.056781956112029075,-1.5442480763683264e-05,-0.04392775624066747
113,249.5,215.473,647.11,-9.9099e-07,373.41,-0.0307989,-0.0530273,-0.00874511,0.055812,-0.045406,0.112,-8.68421e-06,-1.56328e-05,0.0857091,-0.008706982748827974,0.11851286064504518,-8.684172292383607e-06,0.05739887406076383,-1.563267780846367e-05,-0.044390574363785795
114,252.2,215.845,648.229,-1.01167e-06,374.055,-0.0308745,-0.0531575,-0.00884149,0.056395,-0.0458898,0.113179,-8.7897e-06,-1.58229e-05,0.0866438,-0.008802518965866257,0.11983236500271754,-8.789661370744994e-06,0.05801551733839094,-1.582277481859684e-05,-0.04485278638580492
115,254.9,216.214,649.337,-1.03243e-06,374.694,-0.0309491,-0.0532862,-0.00893778,0.0569775,-0.0463732,0.114356,-8.89517e-06,-1.6013e-05,0.0875778,-0.008897956776387828,0.1211511836688608,-8.895130438113519e-06,0.05863199090773641,-1.6012871792647765e-05,-0.045314392969566075
116,257.6,216.579,650.435,-1.0533e-06,375.327,-0.0310228,-0.0534134,-0.00903399,0.0575594,-0.0468561,0.115532,-9.0006e-06,-1.6203e-05,0.088511,-0.008993306117112798,0.12247043302743754,-9.00055949470957e-06,0.05924818812843946,-1.6202868732051456e-05,-0.045775299354397725
117,260.3,216.94,651.523,-1.07425e-06,375.954,-0.0310956,-0.053539,-0.00913012,0.0581408,-0.0473386,0.116708,-9.10601e-06,-1.63929e-05,0.0894433,-0.009088567011807713,0.12379123473586251,-9.105968540423781e-06,0.05986421408641074,-1.6392765637140982e-05,-0.046235601715584496
118,263.0,217.298,652.6,-1.0953e-06,376.575,-0.0311676,-0.0536633,-0.00922618,0.0587217,-0.0478206,0.117882,-9.21139e-06,-1.65829e-05,0.0903749,-0.009183749392377427,0.12511134039584237,-9.211347575255324e-06,0.06048006806584394,-1.65827625044912e-05,-0.046695205382175864
119,265.8,217.653,653.668,-1.11644e-06,377.191,-0.0312387,-0.0537861,-0.00932215,0.0593021,-0.0483022,0.119055,-9.31674e-06,-1.67727e-05,0.0913057,-0.009278833465266145,0.12643187033752445,-9.316696599315222e-06,0.061095749350774664,-1.677255933907329e-05,-0.04715420643493862
120,268.5,218.005,654.726,-1.13766e-06,377.801,-0.0313091,-0.0539075,-0.00941804,0.0598819,-0.0487834,0.120227,-9.42206e-06,-1.69625e-05,0.0922357,-0.009373829163283554,0.12775282241627517,-9.422015612492451e-06,0.06171115105396208,-1.696235613757313e-05,-0.04761260553113433
121,270.5,218.269,655.519,-1.27222e-06,378.258,-0.0313616,-0.0539982,-0.00949044,0.0603196,-0.0491467,0.121112,-9.50158e-06,-1.71059e-05,0.0929378,-0.00944554790180252,0.1287513254365289,-9.501534860123506e-06,0.06217596374161438,-1.7105753694957038e-05,-0.04795854502783026
