,Time,S11,S22,S33,S12,S13,S23,LE11,LE22,LE33,LE12,LE13,LE23,SDV_EPBAR,E11,E12,E13,E22,E23,E33
0,0.0002705,0.000519365,0.0015581,-7.79048e-12,0.000899567,2.21372e-21,3.68811e-20,2.50301e-10,6.7501e-09,-3.0004e-09,1.1258e-08,2.76762e-26,4.61603e-25,0.0,2.5030089112476617e-10,1.1258000087721598e-08,0.0,6.750100034480511e-09,0.0,-3.0004000395322805e-09
1,0.000541,0.00103873,0.00311619,4.33681e-19,0.00179913,-3.08331e-20,-2.03577e-20,5.00425e-10,1.35001e-08,-6.00057e-09,2.25162e-08,-1.63975e-24,4.6912e-25,0.0,5.00425034744012e-10,2.2516200237632233e-08,0.0,1.3500100148888805e-08,0.0,-6.000569929831556e-09
2,0.00094675,0.00181778,0.00545333,6.50521e-19,0.00314848,1.87371e-20,6.55005e-20,8.75688e-10,2.36252e-08,-1.05009e-08,3.94034e-08,-1.73568e-24,1.95724e-24,0.0,8.756879665838824e-10,3.9403400764470575e-08,0.0,2.3625200240573463e-08,0.0,-1.0500899927379237e-08
3,0.0015554,0.00298635,0.00895905,1.73472e-18,0.00517251,4.73565e-20,4.89771e-20,1.4375e-09,3.88125e-08,-1.725e-08,6.47354e-08,4.1359e-25,7.16359e-25,0.0,1.4374998968946784e-09,6.473540214990692e-08,0.0,3.8812500768869995e-08,0.0,-1.7249999872959165e-08
4,0.0024683,0.00473921,0.0142176,0.0,0.00820854,1.00168e-19,-5.78319e-20,2.28125e-09,6.15937e-08,-2.7375e-08,1.02732e-07,-7.41318e-35,-1.284e-34,0.0,2.281250077729169e-09,1.027320053470504e-07,0.0,6.159370191660685e-08,0.0,-2.7374999600482397e-08
5,0.0038377,0.00736849,0.0221055,-8.67362e-19,0.0127626,9.88226e-21,-8.20239e-20,3.54688e-09,9.57656e-08,-4.25625e-08,1.59728e-07,7.653e-32,1.32554e-31,0.0,3.5468799008953056e-09,1.597280128162737e-07,0.0,9.576560455748506e-08,0.0,-4.256249908074494e-08
6,0.0058918,0.0113124,0.0339373,-6.07153e-18,0.0195937,-4.73565e-20,-4.89771e-20,5.44671e-09,1.47024e-07,-6.53456e-08,2.45219e-07,-1.14621e-23,6.61761e-24,0.0,5.446709971934638e-09,2.452190299706558e-07,0.0,1.4702401074373483e-07,0.0,-6.534559782167548e-08
7,0.008973,0.0172283,0.0516849,7.80626e-18,0.0298403,6.7121e-20,-1.15071e-19,8.29297e-09,2.2391e-07,-9.95156e-08,3.7346e-07,1.78232e-31,3.08708e-31,0.0,8.292970088419338e-09,3.734600697580248e-07,0.0,2.2391002496569e-07,0.0,-9.951559509779884e-08
8,0.013595,0.0261021,0.0783064,9.54098e-18,0.0452102,-1.3116e-19,-4.58503e-19,1.25671e-08,3.39241e-07,-1.50777e-07,5.65816e-07,2.77687e-23,-3.13146e-23,0.0,1.2567100027283118e-08,5.658161601473921e-07,0.0,3.392410574676319e-07,0.0,-1.5077698867216327e-07
9,0.020527,0.0394129,0.118239,6.07153e-18,0.0682651,-4.56883e-19,3.48265e-20,1.89735e-08,5.12236e-07,-2.27663e-07,8.54355e-07,1.1462e-23,-6.61759e-24,0.0,1.8973500104380037e-08,8.543553648987512e-07,0.0,5.122361312892565e-07,0.0,-2.276629741393421e-07
10,0.030926,0.059379,0.178137,-8.67362e-19,0.102847,-1.54031e-18,-2.55477e-19,2.8587e-08,7.71729e-07,-3.42996e-07,1.28716e-06,-2.95414e-23,1.77334e-24,0.0,2.858700032248862e-08,1.2871608283671065e-06,0.0,7.717292977993395e-07,0.0,-3.429959412049044e-07
11,0.046525,0.0893282,0.267985,-4.94396e-17,0.154721,-5.5365e-19,3.95969e-19,4.30043e-08,1.16097e-06,-5.15992e-07,1.93637e-06,-9.16942e-23,5.29396e-23,0.0,4.300430100911967e-08,1.9363718748444114e-06,0.0,1.1609706738191505e-06,0.0,-5.159918669006558e-07
12,0.069922,0.134252,0.402756,-2.1684e-17,0.232531,2.20493e-19,-2.49317e-18,6.46307e-08,1.74483e-06,-7.75487e-07,2.91018e-06,-5.29397e-23,-9.16942e-23,0.0,6.463070212348043e-08,2.910184234483637e-06,0.0,1.744831522154655e-06,0.0,-7.754866993003873e-07
13,0.105,0.201637,0.604912,1.99493e-17,0.349246,-1.22407e-18,-2.88023e-18,9.70596e-08,2.62061e-06,-1.16471e-06,4.37091e-06,-1.05879e-22,-1.83388e-22,0.0,9.705960479777787e-08,4.370919552521002e-06,0.0,2.62061343381248e-06,0.0,-1.1647093217659332e-06
14,0.1577,0.302715,0.908146,-9.1073e-17,0.524319,2.72256e-18,-2.74454e-19,1.45719e-07,3.93429e-06,-1.74858e-06,6.56199e-06,1.03982e-22,-2.43423e-22,0.0,1.4571901063575865e-07,6.562011529931411e-06,0.0,3.934297739371928e-06,0.0,-1.748578471238993e-06
15,0.2366,0.454332,1.363,-7.80626e-18,0.786926,-1.38381e-17,-7.8084e-18,2.18705e-07,5.90479e-06,-2.62436e-06,9.8486e-06,-2.11758e-22,-3.66776e-22,0.0,2.1870502386889257e-07,9.848648497623458e-06,0.0,5.904807433232406e-06,0.0,-2.624356556402141e-06
16,0.3551,0.681756,2.04527,4.77049e-17,1.18084,-5.94481e-18,-2.59681e-18,3.28182e-07,8.86055e-06,-3.93804e-06,1.47785e-05,5.57568e-28,9.65736e-28,0.0,3.281820537548441e-07,1.4778609202625859e-05,0.0,8.860589254755524e-06,0.0,-3.938032245964784e-06
17,0.5328,1.02289,3.06867,7.13839e-16,1.7717,-5.94479e-18,-2.59677e-18,4.92389e-07,1.32942e-05,-5.90853e-06,2.21733e-05,8.36561e-28,1.44897e-27,0.0,4.923891212538223e-07,2.2173545829451413e-05,0.0,1.3294288368159712e-05,0.0,-5.908512544672284e-06
18,0.7993,1.53459,4.60377,-2.85362e-16,2.65799,-3.98145e-18,-3.30361e-17,7.38697e-07,1.99445e-05,-8.86424e-06,3.32654e-05,7.35553e-27,1.27402e-26,0.0,7.38697272906208e-07,3.326595329955495e-05,0.0,1.9944698892881974e-05,0.0,-8.864200712777048e-06
19,1.199,2.30213,6.90638,-1.61763e-15,3.9874,2.21215e-18,-5.61484e-17,1.10814e-06,2.99199e-05,-1.32977e-05,4.99034e-05,-4.23505e-22,-7.33532e-22,0.0,1.1081406139368255e-06,4.990464519538662e-05,0.0,2.992034760462836e-05,0.0,-1.3297611585971758e-05
20,1.799,3.45341,10.3602,-3.17194e-15,5.98148,6.53581e-17,-1.44564e-17,1.66234e-06,4.48827e-05,-1.99479e-05,7.48599e-05,-1.09041e-26,-1.88864e-26,0.0,1.6623413816585497e-06,7.486270207235357e-05,0.0,4.4883707243537074e-05,0.0,-1.994770104196686e-05
21,2.698,5.18029,15.5409,-2.8485e-14,8.97252,-6.87866e-17,2.39178e-17,2.49357e-06,6.73263e-05,-2.99228e-05,0.000112294,-4.23518e-22,-7.33555e-22,0.0,2.4935731088859825e-06,0.00011230030520725798,0.0,6.732856646629592e-05,0.0,-2.9922352317468537e-05
22,4.047,31.1929,93.5787,-1.03264e-09,54.0277,-8.08225e-16,-1.7395e-16,1.5015e-05,0.000405403,-0.000180179,0.000676171,-3.02527e-20,1.82072e-21,0.0,1.5015112725613733e-05,0.0006763996551444329,0.0,0.00040548518690219915,0.0,-0.00018016276873877857
23,6.071,70.3658,211.097,-9.04826e-07,121.877,1.29847e-16,-7.14917e-16,3.38711e-05,0.000914519,-0.000406453,0.00152533,-2.03309e-20,-3.52142e-20,0.0,3.3871673632113186e-05,0.0015264939075101402,0.0,0.0009149373000056915,0.0,-0.00040637040916957634
24,8.776,121.251,363.761,0.000134346,210.015,-0.0001671,-0.000289349,5.55144e-05,0.0015932,-0.000714854,0.0026634,-2.12282e-09,-3.6783e-09,2.79677e-05,5.551594095276613e-05,0.0026669500007709956,-2.122820030869832e-09,0.0015944698173882,-3.678299997922352e-09,-0.0007145985527521326
25,11.48,127.206,381.812,0.0825021,220.461,-0.0034201,-0.0059103,-3.43556e-05,0.00223316,-0.00121857,0.00393056,-6.19424e-08,-1.086e-07,0.000936072,-3.435500985315976e-05,0.003938294781644203,-6.194239809964586e-08,0.0022356553589590877,-1.0859999410861576e-07,-0.001217827845063968
26,14.19,132.18,396.652,0.000151552,228.975,-0.00620525,-0.0107289,-0.000126034,0.00287186,-0.0017276,0.00519863,-1.30884e-07,-2.30616e-07,0.00186434,-0.00012602605804901135,0.005212166323552259,-1.3088399142269225e-07,0.002875987740414976,-2.3061597342888263e-07,-0.0017261085581153912
27,16.89,136.373,409.268,-5.65615e-06,236.248,-0.00846053,-0.0146227,-0.000219768,0.00350919,-0.00223883,0.00646792,-2.04788e-07,-3.62015e-07,0.00280603,-0.00021974385278200614,0.0064888821640602945,-2.0478797901901657e-07,0.0035153544158210703,-3.620149344740753e-07,-0.002236325689372709
28,19.6,140.029,420.272,5.85645e-06,242.591,-0.0103816,-0.0179371,-0.000314736,0.00414543,-0.00275188,0.00773748,-2.83959e-07,-5.03234e-07,0.00375724,-0.0003146864758210022,0.0077674916532952665,-2.8395895967925355e-07,0.004154034180176236,-5.032338733501618e-07,-0.002748097049104059
29,22.3,143.277,430.046,2.67468e-06,248.225,-0.0120473,-0.0208091,-0.000410623,0.00478071,-0.00326619,0.00900692,-3.67782e-07,-6.53085e-07,0.00471546,-0.00041053870591389874,0.009047604359130323,-3.6778193235331713e-07,0.004792155826508937,-6.530847866947909e-07,-0.003260861803987436
30,25.01,146.203,438.851,1.20124e-06,253.301,-0.0135125,-0.0233344,-0.000507213,0.00541508,-0.00378139,0.010276,-4.5572e-07,-8.10546e-07,0.00567901,-0.0005070843892315269,0.010328979404613747,-4.5571989615300623e-07,0.005429768046049777,-8.105456714702086e-07,-0.0037742495479474725
31,27.71,148.868,446.872,4.92887e-07,257.924,-0.014817,-0.0255815,-0.000604353,0.00604861,-0.0042972,0.0115446,-5.47314e-07,-9.74745e-07,0.00664666,-0.0006041704155093086,0.011611496076209926,-5.473138502409824e-07,0.006066939779392877,-9.74744524984139e-07,-0.0042879802471818
32,30.42,151.318,454.243,1.4336e-07,262.174,-0.0159898,-0.0276011,-0.000701932,0.00668133,-0.00481343,0.0128125,-6.42166e-07,-1.14494e-06,0.00761753,-0.0007016857033649293,0.012894931754198646,-6.421657937627501e-07,0.0067036998777116885,-1.1449393445550626e-06,-0.004801864010618995
33,33.12,153.587,461.069,-2.82942e-08,266.109,-0.0170533,-0.0294317,-0.000799863,0.00731327,-0.00532993,0.0140796,-7.39936e-07,-1.32049e-06,0.00859096,-0.0007995431948629728,0.014179184388654287,-7.399357262460882e-07,0.007340077268798817,-1.3204891281537456e-06,-0.005315751125085755
34,35.83,155.7,467.428,-1.08724e-07,269.775,-0.0180245,-0.0311029,-0.000898081,0.00794446,-0.00584659,0.015346,-8.4033e-07,-1.50085e-06,0.00956643,-0.0008976778459559576,0.015464354505722477,-8.403296469783328e-07,0.007976100956949894,-1.5008488737366932e-06,-0.005829531952679434
35,38.53,157.68,473.385,-1.41594e-07,273.209,-0.0189169,-0.0326383,-0.000996533,0.00857491,-0.00636331,0.0166114,-9.43095e-07,-1.68554e-06,0.0105435,-0.000996036625888097,0.01675013644257528,-9.430945553390302e-07,0.008611779850622447,-1.685538579487833e-06,-0.006343107018247918
36,41.24,159.543,478.99,-1.49782e-07,276.441,-0.0197415,-0.0340564,-0.00109518,0.00920464,-0.00688002,0.0178759,-1.04801e-06,-1.87417e-06,0.0115219,-0.0010945805092537064,0.018036630204366855,-1.04800945088801e-06,0.009247132976213157,-1.874168243709562e-06,-0.006856406846422969
37,43.94,161.303,484.285,-1.4562e-07,279.493,-0.020507,-0.0353727,-0.00119398,0.00983367,-0.00739665,0.0191395,-1.15488e-06,-2.06637e-06,0.0125013,-0.0011932674894823414,0.019323834374616045,-1.1548793331650486e-06,0.009882179410958924,-2.0663678650389983e-06,-0.0073693621055069825
38,46.65,162.971,489.305,-1.3588e-07,282.387,-0.0212206,-0.0365995,-0.00129291,0.010462,-0.00791318,0.020402,-1.26353e-06,-2.26183e-06,0.0134815,-0.0012920745519577892,0.020611543410802735,-1.2635292017115773e-06,0.010516918072537074,-2.261827442118225e-06,-0.00788195321315921
39,49.35,164.557,494.078,-1.24307e-07,285.139,-0.0218884,-0.0377474,-0.00139195,0.0110896,-0.00842953,0.0216635,-1.37382e-06,-2.46027e-06,0.0144623,-0.001390981686931969,0.021899857305954784,-1.3738190562939678e-06,0.01115131754405052,-2.460266973591807e-06,-0.008394101131450005
40,52.06,166.07,498.63,-1.12961e-07,287.763,-0.0225154,-0.0388249,-0.00149107,0.0117166,-0.0089457,0.022924,-1.48561e-06,-2.66144e-06,0.0154435,-0.001489958907435085,0.023188774245330723,-1.4856088964565473e-06,0.011785508218150387,-2.6614364583288364e-06,-0.008905806273486139
41,54.76,167.516,502.98,-1.02945e-07,290.271,-0.023106,-0.0398396,-0.00159026,0.0123429,-0.00946164,0.0241834,-1.59878e-06,-2.86512e-06,0.0164251,-0.001588996206574933,0.02447818996226525,-1.5987787219673422e-06,0.01241938796066866,-2.865115895533954e-06,-0.009417019522775516
42,57.47,168.901,507.148,-9.48131e-08,292.674,-0.0236637,-0.0407977,-0.0016895,0.0129685,-0.00997733,0.0254418,-1.71323e-06,-3.07113e-06,0.0174068,-0.0016880735982901518,0.025768204823628738,-1.7132285323739893e-06,0.013052955689098589,-3.0711252840820435e-06,-0.009927721566691194
43,60.17,170.231,511.148,-8.88043e-08,294.98,-0.0241917,-0.0417048,-0.00178878,0.0135935,-0.0104927,0.026699,-1.82885e-06,-3.27927e-06,0.0183886,-0.0017871810865659477,0.027058611590463633,-1.8288483276673873e-06,0.0136863116895376,-3.279264623179401e-06,-0.010437843654726442
44,62.88,171.509,514.996,-8.49774e-08,297.198,-0.0246927,-0.0425654,-0.00188809,0.0142178,-0.0110079,0.0279552,-1.94557e-06,-3.4894e-06,0.0193705,-0.001886308679350246,0.028349613326763334,-1.945568107397655e-06,0.014319353637408883,-3.4893939120372863e-06,-0.010947534769970013
45,65.58,172.741,518.702,-8.32897e-08,299.335,-0.0251692,-0.0433838,-0.00198741,0.0148414,-0.0115227,0.0292102,-2.0633e-06,-3.70137e-06,0.0203523,-0.001985436408407648,0.029641002268551597,-2.0632978714463235e-06,0.014952080450052696,-3.701363149977155e-06,-0.0114565679426899
46,68.29,173.93,522.277,-8.36452e-08,301.396,-0.0256232,-0.0441634,-0.00208675,0.0154644,-0.0120372,0.0304641,-2.18196e-06,-3.91505e-06,0.0213339,-0.002084574250896587,0.03093287889408236,-2.1819576194737067e-06,0.015584592603250735,-3.915042336211094e-06,-0.011965042722129837
47,70.99,175.078,525.731,-8.59209e-08,303.387,-0.0260565,-0.0449075,-0.00218609,0.0160868,-0.0125513,0.0317169,-2.30151e-06,-4.13032e-06,0.0223154,-0.002183702245521446,0.032225240971335056,-2.301507351476495e-06,0.01621688920397779,-4.130311470285086e-06,-0.012472860947806974
48,73.7,176.188,529.073,-8.99852e-08,305.314,-0.0264708,-0.0456189,-0.00228542,0.0167085,-0.0130652,0.0329686,-2.42187e-06,-4.34706e-06,0.0232966,-0.0022828104160886875,0.03351808626388775,-2.4218670672260245e-06,0.016848867674147616,-4.347050551523068e-06,-0.012980220767294215
49,76.4,177.264,532.309,-9.57045e-08,307.18,-0.0268676,-0.0463001,-0.00238475,0.0173296,-0.0135786,0.0342191,-2.54299e-06,-4.56519e-06,0.0242775,-0.0023819087427303653,0.034811309049784356,-2.542986766607136e-06,0.017480628678930632,-4.5651795795853545e-06,-0.013486826665090823
50,79.11,178.307,535.447,-1.02952e-07,308.989,-0.027248,-0.0469533,-0.00248405,0.0179501,-0.0140917,0.0354685,-2.66482e-06,-4.78461e-06,0.0252581,-0.002480967300853232,0.03610501030619728,-2.6648164493936477e-06,0.018112171324868864,-4.784598553797537e-06,-0.01399287673608085
51,81.81,179.319,538.493,-1.11607e-07,310.745,-0.0276133,-0.0475805,-0.00258334,0.0185699,-0.0146044,0.0367167,-2.78731e-06,-5.00523e-06,0.0262382,-0.002580006048749861,0.03739908404346681,-2.7873061154704004e-06,0.01874339284399751,-5.005217473819101e-06,-0.01449827301877038
52,84.52,180.303,541.453,-1.21558e-07,312.451,-0.0279645,-0.0481834,-0.0026826,0.0191891,-0.0151168,0.0379638,-2.91043e-06,-5.22698e-06,0.027218,-0.002679005043948135,0.038693631488456726,-2.9104257647238896e-06,0.019374394090671654,-5.22696633931119e-06,-0.01500311475217786
53,87.22,181.26,544.331,-1.32704e-07,314.11,-0.0283026,-0.0487638,-0.00278183,0.0198076,-0.0156287,0.0392098,-3.03413e-06,-5.44979e-06,0.0281973,-0.0027779642963331463,0.03998865038251753,-3.034125397038956e-06,0.020005072170507843,-5.449775149934943e-06,-0.015507205624669562
54,89.93,182.191,547.132,-1.44951e-07,315.725,-0.0286284,-0.0493231,-0.00288102,0.0204256,-0.0161403,0.0404546,-3.15838e-06,-5.67358e-06,0.0291762,-0.002876873844554484,0.04128403433421601,-3.158375012302095e-06,0.02063563012744929,-5.673563905239654e-06,-0.016010743322346088
55,92.63,183.097,549.861,-1.58217e-07,317.298,-0.0289427,-0.0498626,-0.00298018,0.0210429,-0.0166515,0.0416983,-3.28313e-06,-5.8983e-06,0.0301545,-0.002975743671697062,0.04257988494538578,-3.2831246105091694e-06,0.02126586300329092,-5.898282605110161e-06,-0.0165136300815526
56,95.34,183.982,552.521,-1.72424e-07,318.832,-0.0292461,-0.0503835,-0.0030793,0.0216596,-0.0171622,0.0429408,-3.40837e-06,-6.12389e-06,0.0311324,-0.0030745638183768964,0.04387609555651473,-3.40836419154833e-06,0.02189587190428277,-6.12387124898639e-06,-0.01701576833875229
57,98.04,184.844,555.116,-1.87503e-07,320.328,-0.0295394,-0.050887,-0.00317837,0.0222757,-0.0176726,0.0441821,-3.53406e-06,-6.3503e-06,0.0321096,-0.0031733243291566238,0.04517266350234239,-3.534053755194222e-06,0.022525655936012967,-6.350279836864203e-06,-0.017517355474666263
58,100.7,185.686,557.649,-2.03393e-07,321.788,-0.0298231,-0.051374,-0.0032774,0.0228911,-0.0181825,0.0454223,-3.66017e-06,-6.57747e-06,0.0330864,-0.00327203518709962,0.0464696907599742,-3.660163301555386e-06,0.02315511188840702,-6.577448368516592e-06,-0.018018195675049253
59,103.5,186.508,560.123,-2.20037e-07,323.215,-0.0300978,-0.0518455,-0.00337638,0.023506,-0.018692,0.0466614,-3.78668e-06,-6.80537e-06,0.0340625,-0.003370686438725734,0.047767175044173715,-3.7866728305191444e-06,0.023784443434861746,-6.805346843496984e-06,-0.018518387969545302
60,106.2,187.312,562.542,-2.37385e-07,324.609,-0.0303639,-0.0523024,-0.00347531,0.0241203,-0.0192012,0.0478993,-3.91356e-06,-7.03393e-06,0.035038,-0.0034692780997994666,0.049065009158853146,-3.913552342083015e-06,0.024413547427972082,-7.0339052620216336e-06,-0.019018031186432416
61,108.9,188.098,564.907,-2.5539e-07,325.972,-0.030622,-0.0527454,-0.00357419,0.0247339,-0.0197098,0.049136,-4.04079e-06,-7.26314e-06,0.036013,-0.003567810186074327,0.050363190420606996,-4.0407818360232994e-06,0.0250423204685144,-7.263113623423578e-06,-0.019516831760032827
62,111.6,188.867,567.221,-2.7401e-07,327.307,-0.0308724,-0.0531753,-0.00367301,0.0253469,-0.0202181,0.0503716,-4.16835e-06,-7.49293e-06,0.0369873,-0.0036662727499563452,0.05166182130763364,-4.168341312449364e-06,0.025670864039883945,-7.4929019280300935e-06,-0.02001508471273361
63,114.3,189.62,569.487,-2.93209e-07,328.613,-0.0311155,-0.0535927,-0.00377178,0.0259593,-0.020726,0.051606,-4.29622e-06,-7.72329e-06,0.0379609,-0.0037646757724836277,0.0529607942209962,-4.296210771248532e-06,0.026299177246889682,-7.723260175507285e-06,-0.020512692672969512
64,117.0,190.358,571.706,-3.12951e-07,329.892,-0.0313518,-0.0539984,-0.00387049,0.0265712,-0.0212334,0.0528393,-4.42438e-06,-7.95418e-06,0.0389339,-0.0038630093080066485,0.05426021188970975,-4.424370212419149e-06,0.026927361886937007,-7.954148365629798e-06,-0.02100955846719521
65,119.7,191.081,573.881,-3.33206e-07,331.146,-0.0315815,-0.0543927,-0.00396914,0.0271824,-0.0217404,0.0540714,-4.55282e-06,-8.18556e-06,0.0399063,-0.003961273375183594,0.055559966446147024,-4.5528096359603865e-06,0.027555211741892682,-8.185526498394324e-06,-0.021505780818056874
66,122.4,191.789,576.013,-3.53945e-07,332.375,-0.0318049,-0.0547764,-0.00406773,0.027793,-0.0222469,0.0553024,-4.68151e-06,-8.4174e-06,0.0408779,-0.004059467992658328,0.05686016087032164,-4.681499041758741e-06,0.028182828546092997,-8.41736457379838e-06,-0.022001262648706277
67,125.1,192.484,578.104,-3.75141e-07,333.581,-0.0320225,-0.0551499,-0.00416626,0.028403,-0.022753,0.0565322,-4.81044e-06,-8.64968e-06,0.0418489,-0.004157593179060393,0.058160687025782476,-4.810428429813385e-06,0.02881021140382356,-8.649642591618267e-06,-0.02249610257987289
68,127.8,193.166,580.156,-3.96772e-07,334.764,-0.0322343,-0.0555137,-0.00426472,0.0290124,-0.0232587,0.0577608,-4.9396e-06,-8.88237e-06,0.0428192,-0.0042556389955611396,0.05946154219756239,-4.939587800234513e-06,0.029437359419244746,-8.882330551851503e-06,-0.022990301332111773
69,130.5,193.836,582.17,-4.18815e-07,335.925,-0.0324407,-0.0558682,-0.00436313,0.0296213,-0.023764,0.0589883,-5.06897e-06,-9.11544e-06,0.0437888,-0.004353625376628645,0.06076282974244673,-5.068957152798426e-06,0.030064374702825747,-9.115398454495605e-06,-0.02348385962484445
70,133.2,194.493,584.148,-4.41251e-07,337.065,-0.032642,-0.0562138,-0.00446146,0.0302295,-0.0242688,0.0602147,-5.19853e-06,-9.34887e-06,0.0447577,-0.00445152247145586,0.062064547326911024,-5.198516487614491e-06,0.030691050408284237,-9.348826299437896e-06,-0.023976680574033016
71,135.9,195.139,586.091,-4.64061e-07,338.185,-0.0328383,-0.056551,-0.00455973,0.0308371,-0.0247732,0.0614399,-5.32828e-06,-9.58264e-06,0.0457258,-0.004549350213497783,0.06336658627648051,-5.32826580479373e-06,0.03131748858315753,-9.582594086676721e-06,-0.024468862597610164
72,138.6,195.773,588.0,-4.87229e-07,339.286,-0.0330299,-0.05688,-0.00465794,0.0314442,-0.0252771,0.062664,-5.45821e-06,-9.81673e-06,0.0466933,-0.004647108621308127,0.06466905032522607,-5.45819510400225e-06,0.03194379152549831,-9.816681816099404e-06,-0.024960308907450712
73,141.3,196.397,589.877,-5.10739e-07,340.368,-0.0332169,-0.0572013,-0.00475607,0.0320506,-0.0257806,0.0638869,-5.5883e-06,-1.00511e-05,0.04766,-0.004744777808322054,0.06597183052946742,-5.58828438546044e-06,0.0325697520127175,-1.0051049487813657e-05,-0.02545111782040299
74,144.0,197.011,591.722,-5.34576e-07,341.432,-0.0333996,-0.0575151,-0.00485414,0.0326565,-0.0262837,0.0651087,-5.71854e-06,-1.02858e-05,0.048626,-0.004842377702073297,0.06727503087498188,-5.718523649167473e-06,0.03319557559957187,-1.0285747101379528e-05,-0.02594129004986434
75,146.7,197.614,593.538,-5.58728e-07,342.478,-0.0335781,-0.0578218,-0.00495214,0.0332618,-0.0267863,0.0663293,-5.84892e-06,-1.05207e-05,0.0495912,-0.00493989837046771,0.06857854214876014,-5.848902895122521e-06,0.03382115819495435,-1.0520644657674438e-05,-0.026430728951186477
76,149.4,198.207,595.324,-5.83182e-07,343.508,-0.0337526,-0.0581216,-0.00505007,0.0338665,-0.0272885,0.0675488,-5.97944e-06,-1.07558e-05,0.0505557,-0.005037339834921162,0.06988246858845959,-5.979422123214562e-06,0.034446498902022116,-1.0755742156587367e-05,-0.026919532690215076
77,152.1,198.792,597.081,-6.07926e-07,344.521,-0.0339233,-0.0584148,-0.00514793,0.0344706,-0.0277902,0.0687671,-6.11008e-06,-1.09912e-05,0.0515195,-0.005134702116830647,0.07118670071162092,-6.110061333552963e-06,0.03507159682382599,-1.0991139597016364e-05,-0.027407604717558876
78,154.8,199.367,598.812,-6.32952e-07,345.519,-0.0340903,-0.0587017,-0.00524572,0.0350741,-0.0282915,0.0699843,-6.24083e-06,-1.12268e-05,0.0524824,-0.005231985237574843,0.07249134300795124,-6.240810526025875e-06,0.035696451063311097,-1.1226736979730312e-05,-0.027895043098675854
79,157.6,199.933,600.516,-6.58248e-07,346.501,-0.0342537,-0.0589825,-0.00534343,0.035677,-0.0287924,0.0712004,-6.37168e-06,-1.14625e-05,0.0534447,-0.005329179271805429,0.07379639310505848,-6.371659700854515e-06,0.03632106072331931,-1.146243430583116e-05,-0.028381848540986576
80,160.3,200.491,602.194,-6.83805e-07,347.469,-0.0344137,-0.0592574,-0.00544108,0.0362794,-0.0292928,0.0724153,-6.50264e-06,-1.16985e-05,0.0544062,-0.0054263041352510255,0.07510174111613543,-6.502618857928688e-06,0.036945528601139754,-1.1698431572781942e-05,-0.028867924637594355
81,163.0,201.04,603.848,-7.09616e-07,348.422,-0.0345703,-0.0595267,-0.00553865,0.0368812,-0.0297928,0.0736291,-6.63368e-06,-1.19346e-05,0.0553669,-0.005523339956786999,0.07640749190934382,-6.633657997245912e-06,0.03756975022970055,-1.193452878289758e-05,-0.02935336930399557
82,165.7,201.582,605.478,-7.35672e-07,349.361,-0.0347238,-0.0597906,-0.00563614,0.0374824,-0.0302923,0.0748417,-6.76481e-06,-1.21709e-05,0.0563268,-0.00562028676062587,0.0777135353281242,-6.764787118695992e-06,0.038193724711473864,-1.217082593485408e-05,-0.029838086227898297
83,168.4,202.116,607.084,-7.61966e-07,350.287,-0.0348743,-0.0600492,-0.00573357,0.038083,-0.0307914,0.0760533,-6.89601e-06,-1.24073e-05,0.057286,-0.0057171644566132995,0.07902008439512076,-6.89598622261034e-06,0.0388174511488355,-1.240722302975339e-05,-0.03032217322510311
84,171.1,202.642,608.668,-7.88491e-07,351.2,-0.0350217,-0.0603027,-0.00583092,0.0386831,-0.03129,0.0772636,-7.02728e-06,-1.26438e-05,0.0582444,-0.005813953179385822,0.08032681301057498,-7.027255308766911e-06,0.03944103258816689,-1.2643720067484487e-05,-0.030805534077658736
85,173.8,203.161,610.229,-8.15241e-07,352.101,-0.0351663,-0.0605513,-0.00592819,0.0392826,-0.0317882,0.0784729,-7.15862e-06,-1.28805e-05,0.059202,-0.005910652953090345,0.08163404248254058,-7.158594377165706e-06,0.040064364312218936,-1.288041704672338e-05,-0.03128826650194971
86,176.5,203.673,611.77,-8.42209e-07,352.989,-0.0353082,-0.0607953,-0.00602539,0.0398815,-0.032286,0.079681,-7.29001e-06,-1.31172e-05,0.0601589,-0.006007273741776897,0.08294155421269744,-7.289983427916091e-06,0.040687445423020385,-1.311711396989601e-05,-0.031770371197070824
87,179.2,204.178,613.289,-8.6939e-07,353.865,-0.0354474,-0.0610347,-0.00612252,0.0404798,-0.0327833,0.080888,-7.42145e-06,-1.3354e-05,0.0611149,-0.00610381556664874,0.08424945382726512,-7.42142246112909e-06,0.0413102750225125,-1.3353910835789407e-05,-0.032251752086195684
88,181.9,204.676,614.789,-8.96779e-07,354.729,-0.035584,-0.0612696,-0.00621957,0.0410776,-0.0332802,0.0820939,-7.55294e-06,-1.3591e-05,0.0620702,-0.00620026851089317,0.08555773891558771,-7.552911476582658e-06,0.041932956405842825,-1.3590907642746508e-05,-0.032732506737199074
89,184.6,205.168,616.269,-9.24371e-07,355.582,-0.0357182,-0.0615004,-0.00631654,0.0416748,-0.0337766,0.0832987,-7.68447e-06,-1.3828e-05,0.0630247,-0.0062966325985673866,0.086866407062826,-7.684440474498011e-06,0.04255538460596986,-1.3827904393637347e-05,-0.03321253916694833
90,187.3,205.654,617.73,-9.5216e-07,356.424,-0.0358499,-0.061727,-0.00641344,0.0422714,-0.0342726,0.0845023,-7.81603e-06,-1.4065e-05,0.0639784,-0.006392917789775798,0.08817534703242402,-7.815999454874323e-06,0.0431775587245109,-1.40649010883509e-05,-0.03369194684458898
91,190.0,206.133,619.172,-9.80143e-07,357.256,-0.0359793,-0.0619496,-0.00651026,0.0428675,-0.0347681,0.0857048,-7.94762e-06,-1.43022e-05,0.0649314,-0.006489114170533328,0.08948466495685925,-7.947588417711593e-06,0.04379958224295755,-1.4302097724017138e-05,-0.03417063388042041
92,192.7,206.606,620.596,-1.00832e-06,358.077,-0.0361064,-0.0621683,-0.00660701,0.043463,-0.0352632,0.0869062,-8.07924e-06,-1.45393e-05,0.0658835,-0.006585231698976846,0.09079435840866479,-8.079207363009822e-06,0.044421350007160854,-1.4539194304941105e-05,-0.034648697645135895
93,195.4,207.074,622.003,-1.03667e-06,358.888,-0.0362314,-0.0623834,-0.00670367,0.0440579,-0.0357579,0.0881065,-8.21088e-06,-1.47765e-05,0.0668349,-0.006681250529816052,0.0921044249562144,-8.210846290768181e-06,0.045042861118430144,-1.4776390828030728e-05,-0.03512613882959703
94,198.1,207.535,623.392,-1.06522e-06,359.689,-0.0363542,-0.0625948,-0.00680027,0.0446522,-0.0362521,0.0893056,-8.34254e-06,-1.50138e-05,0.0677854,-0.006777200486557389,0.09341475282224798,-8.342505201097694e-06,0.04566411467800302,-1.5013687293508049e-05,-0.035602861683867504
95,200.8,207.991,624.765,-1.09393e-06,360.48,-0.036475,-0.0628027,-0.00689678,0.0452461,-0.0367459,0.0905037,-8.47421e-06,-1.52511e-05,0.0687352,-0.006873051793559126,0.09472555811871852,-8.474174093997533e-06,0.046285319044087725,-1.525098370258604e-05,-0.03607896343157202
96,203.5,208.442,626.121,-1.12283e-06,361.262,-0.0365938,-0.0630072,-0.00699322,0.0458393,-0.0372392,0.0917006,-8.60589e-06,-1.54883e-05,0.0696842,-0.006968824338217772,0.09603661958745091,-8.605852969467698e-06,0.04690615961845346,-1.5488180056921763e-05,-0.03655434841556482
97,206.2,208.888,627.461,-1.1519e-06,362.034,-0.0367107,-0.0632084,-0.00708958,0.046432,-0.0377321,0.0928965,-8.73757e-06,-1.57256e-05,0.0706323,-0.0070645082121816305,0.09734815385642137,-8.737531827507361e-06,0.047526844821148995,-1.572547635342314e-05,-0.03702911376169904
98,208.9,209.328,628.786,-1.18113e-06,362.798,-0.0368257,-0.0634064,-0.00718586,0.0470241,-0.0382245,0.0940912,-8.86925e-06,-1.59629e-05,0.0715797,-0.007160103439302623,0.09865993913474269,-8.869210668338567e-06,0.04814726912445688,-1.596277259363621e-05,-0.03750316390535946
99,211.7,209.763,630.096,-1.21053e-06,363.553,-0.0369389,-0.0636014,-0.00728206,0.0476157,-0.0387165,0.0952848,-9.00094e-06,-1.62002e-05,0.0725263,-0.007255610043410687,0.09997208256951362,-9.000899491629077e-06,0.048767536505871734,-1.620006877744995e-05,-0.03797659587490343
100,214.4,210.193,631.391,-1.2401e-06,364.3,-0.0370503,-0.0637933,-0.00737819,0.0482067,-0.0392081,0.0964773,-9.13261e-06,-1.64375e-05,0.0734721,-0.00735103797480019,0.10128458170004695,-9.132568297820498e-06,0.049387541313320904,-1.6437364905086405e-05,-0.038449410353050606
101,217.1,210.619,632.671,-1.26983e-06,365.038,-0.03716,-0.0639822,-0.00747423,0.0487971,-0.0396992,0.0976687,-9.26428e-06,-1.66748e-05,0.0744171,-0.0074463674033207194,0.10259743406154409,-9.26423708669244e-06,0.0500072826473521,-1.667466097632353e-05,-0.03892151191359938
102,219.8,211.04,633.938,-1.29971e-06,365.768,-0.0372681,-0.0641684,-0.0075702,0.049387,-0.0401899,0.098859,-9.39594e-06,-1.69121e-05,0.0753613,-0.0075416182047580715,0.1039106371850993,-9.395895858244074e-06,0.05062686467113653,-1.6911956991272348e-05,-0.03939299743926916
103,222.5,211.456,635.19,-1.32976e-06,366.49,-0.0373745,-0.0643518,-0.00766609,0.0499764,-0.0406801,0.100048,-9.52759e-06,-1.71493e-05,0.0763047,-0.007636780476360405,0.10522396755289254,-9.527544612697447e-06,0.05124628667090536,-1.714915295158992e-05,-0.03986377159575161
104,225.2,211.868,636.429,-1.35995e-06,367.204,-0.0374794,-0.0645325,-0.00776191,0.0505652,-0.0411699,0.101236,-9.65921e-06,-1.73865e-05,0.0772473,-0.0077318641645229835,0.10653775386089515,-9.659163349939881e-06,0.05186544274615801,-1.7386348855730205e-05,-0.040333931168945125
105,227.9,212.275,637.655,-1.3903e-06,367.911,-0.0375827,-0.0647106,-0.00785764,0.0511534,-0.0416593,0.102423,-9.79082e-06,-1.76237e-05,0.0781891,-0.007826849446623263,0.10785199402195356,-9.790772070084053e-06,0.05248433199706648,-1.762354470347116e-05,-0.04080347683583452
106,230.6,212.678,638.868,-1.42081e-06,368.61,-0.0376846,-0.0648861,-0.0079533,0.0517411,-0.0421482,0.103609,-9.9224e-06,-1.78608e-05,0.0791301,-0.007921756190743201,0.1091666859450704,-9.922350773128308e-06,0.05310305883405353,-1.7860640496913938e-05,-0.041272313399572824
107,233.3,213.077,640.068,-1.45146e-06,369.302,-0.037785,-0.0650592,-0.00804887,0.0523283,-0.0426367,0.104794,-1.0054e-05,-1.80979e-05,0.0800703,-0.008016564578013252,0.11048182753541158,-1.0053949458743716e-05,0.05372162254273238,-1.8097736233957384e-05,-0.04174053750142914
108,236.0,213.472,641.256,-1.48226e-06,369.987,-0.037884,-0.0652299,-0.00814437,0.0529149,-0.0431248,0.105978,-1.01855e-05,-1.8335e-05,0.0810097,-0.00811129447267156,0.11179741669430654,-1.018544812791955e-05,0.05433991697454288,-1.833483191493457e-05,-0.04220814981500576
109,238.7,213.863,642.432,-1.5132e-06,370.664,-0.0379817,-0.0653983,-0.00823979,0.0535009,-0.0436124,0.10716,-1.0317e-05,-1.8572e-05,0.0819483,-0.00820593597753505,0.1131123382063608,-1.0316946779886926e-05,0.05495794122931108,-1.857182754150255e-05,-0.04267505528035287
110,241.4,214.249,643.596,-1.54429e-06,371.335,-0.038078,-0.0655644,-0.00833513,0.0540864,-0.0440996,0.108342,-1.04485e-05,-1.88089e-05,0.0828861,-0.008300489116179088,0.1144288148745578,-1.0448445414645846e-05,0.05557579996439488,-1.8808723113772352e-05,-0.04314135039470712
111,244.1,214.632,644.748,-1.57552e-06,372.0,-0.038173,-0.0657283,-0.00843039,0.0546714,-0.0445863,0.109522,-1.05799e-05,-1.90458e-05,0.0838231,-0.008394953912156389,0.11574461704671468,-1.0579844033076213e-05,0.05619349246481464,-1.904561862986487e-05,-0.04360694018900291
112,246.8,215.011,645.889,-1.60689e-06,372.657,-0.0382668,-0.0658901,-0.00852558,0.0552558,-0.0450726,0.110702,-1.07113e-05,-1.92826e-05,0.0847593,-0.008489340304101867,0.11706197278185626,-1.0711242634187101e-05,0.056810912334325,-1.928241409188125e-05,-0.04407192106472557
113,249.5,215.387,647.019,-1.63841e-06,373.309,-0.0383593,-0.0660498,-0.00862068,0.0558397,-0.0455585,0.11188,-1.08427e-05,-1.95194e-05,0.0856947,-0.008583628484364891,0.11837864715473834,-1.0842641218089533e-05,0.05742816441524479,-1.9519209497720347e-05,-0.04453629368981438
114,252.2,215.759,648.138,-1.67006e-06,373.954,-0.0384507,-0.0662074,-0.00871571,0.056423,-0.046044,0.113057,-1.0974e-05,-1.97561e-05,0.0866293,-0.008677838305699348,0.11969575378764064,-1.0973939785885456e-05,0.05804514218762247,-1.975590484959433e-05,-0.045000058731154646
115,254.9,216.127,649.246,-1.70185e-06,374.593,-0.0385408,-0.066363,-0.00881065,0.0570058,-0.046529,0.114234,-1.11053e-05,-1.99927e-05,0.0875631,-0.008771949964179626,0.12101441156772119,-1.11052383363619e-05,0.058661950617007186,-1.9992500147281156e-05,-0.0454631214008957
116,257.6,216.492,650.344,-1.73377e-06,375.226,-0.0386299,-0.0665167,-0.00890552,0.0575881,-0.0470135,0.115409,-1.12365e-05,-2.02292e-05,0.0884961,-0.008865983308744219,0.12233237765475424,-1.1236436870731836e-05,0.05927858898768901,-2.022899539111389e-05,-0.04592548250255557
117,260.3,216.853,651.432,-1.76584e-06,375.852,-0.0387179,-0.0666686,-0.00900031,0.0581698,-0.0474977,0.116583,-1.13677e-05,-2.04657e-05,0.0894283,-0.008959928449586041,0.12365076961077381,-1.1367635387893316e-05,0.0598949505942965,-2.0465490578991385e-05,-0.04638733356076308
118,263.0,217.211,652.509,-1.79803e-06,376.473,-0.0388047,-0.0668186,-0.00909501,0.058751,-0.0479814,0.117756,-1.14988e-05,-2.07021e-05,0.0903597,-0.00905377550063391,0.12496958529771107,-1.149873388905931e-05,0.06051114058704821,-2.070188571301479e-05,-0.04684848446918155
119,265.8,217.566,653.577,-1.83036e-06,377.089,-0.0388906,-0.0669668,-0.00918964,0.0593316,-0.0484647,0.118927,-1.16299e-05,-2.09384e-05,0.0912903,-0.009147544305117439,0.12628769628545755,-1.1629832373016846e-05,0.06112705213709435,-2.0938180793184102e-05,-0.0473090312965323
120,268.5,217.917,654.635,-1.86283e-06,377.699,-0.0389754,-0.0671133,-0.00928419,0.0599117,-0.0489475,0.120098,-1.1761e-05,-2.11746e-05,0.0922201,-0.00924122497597979,0.12760735168524717,-1.1760930839654904e-05,0.06174279051768905,-2.117437581972137e-05,-0.04776887947993835
121,270.5,218.181,655.427,-2.02385e-06,378.156,-0.0390387,-0.0672226,-0.00935558,0.0603497,-0.049312,0.120982,-1.18599e-05,-2.13529e-05,0.0929221,-0.009311952720271965,0.12860459730175755,-1.1859829671667654e-05,0.062207935719298835,-2.1352672028407405e-05,-0.04811590447422054
