,Time,S11,S22,S33,S12,S13,S23,LE11,LE22,LE33,LE12,LE13,LE23,SDV_EPBAR,E11,E12,E13,E22,E23,E33
0,0.0002705,0.000519365,0.0015581,-7.79048e-12,0.000899567,2.21372e-21,3.68811e-20,2.50301e-10,6.7501e-09,-3.0004e-09,1.1258e-08,2.76762e-26,4.61603e-25,0.0,2.5030089112476617e-10,1.1258000087721598e-08,0.0,6.750100034480511e-09,0.0,-3.0004000395322805e-09
1,0.000541,0.00103873,0.00311619,4.33681e-19,0.00179913,-3.08331e-20,-2.03577e-20,5.00425e-10,1.35001e-08,-6.00057e-09,2.25162e-08,-1.63975e-24,4.6912e-25,0.0,5.00425034744012e-10,2.2516200237632233e-08,0.0,1.3500100148888805e-08,0.0,-6.000569929831556e-09
2,0.00094675,0.00181778,0.00545333,6.50521e-19,0.00314848,1.87371e-20,6.55005e-20,8.75688e-10,2.36252e-08,-1.05009e-08,3.94034e-08,-1.73568e-24,1.95724e-24,0.0,8.756879665838824e-10,3.9403400764470575e-08,0.0,2.3625200240573463e-08,0.0,-1.0500899927379237e-08
3,0.0015554,0.00298635,0.00895905,1.73472e-18,0.00517251,4.73565e-20,4.89771e-20,1.4375e-09,3.88125e-08,-1.725e-08,6.47354e-08,4.1359e-25,7.16359e-25,0.0,1.4374998968946784e-09,6.473540214990692e-08,0.0,3.8812500768869995e-08,0.0,-1.7249999872959165e-08
4,0.0024683,0.00473921,0.0142176,0.0,0.00820854,1.00168e-19,-5.78319e-20,2.28125e-09,6.15937e-08,-2.7375e-08,1.02732e-07,-7.41318e-35,-1.284e-34,0.0,2.281250077729169e-09,1.027320053470504e-07,0.0,6.159370191660685e-08,0.0,-2.7374999600482397e-08
5,0.0038377,0.00736849,0.0221055,-8.67362e-19,0.0127626,9.88226e-21,-8.20239e-20,3.54688e-09,9.57656e-08,-4.25625e-08,1.59728e-07,7.653e-32,1.32554e-31,0.0,3.5468799008953056e-09,1.597280128162737e-07,0.0,9.576560455748506e-08,0.0,-4.256249908074494e-08
6,0.0058918,0.0113124,0.0339373,-6.07153e-18,0.0195937,-4.73565e-20,-4.89771e-20,5.44671e-09,1.47024e-07,-6.53456e-08,2.45219e-07,-1.14621e-23,6.61761e-24,0.0,5.446709971934638e-09,2.452190299706558e-07,0.0,1.4702401074373483e-07,0.0,-6.534559782167548e-08
7,0.008973,0.0172283,0.0516849,7.80626e-18,0.0298403,6.7121e-20,-1.15071e-19,8.29297e-09,2.2391e-07,-9.95156e-08,3.7346e-07,1.78232e-31,3.08708e-31,0.0,8.292970088419338e-09,3.734600697580248e-07,0.0,2.2391002496569e-07,0.0,-9.951559509779884e-08
8,0.013595,0.0261021,0.0783064,9.54098e-18,0.0452102,-1.3116e-19,-4.58503e-19,1.25671e-08,3.39241e-07,-1.50777e-07,5.65816e-07,2.77687e-23,-3.13146e-23,0.0,1.2567100027283118e-08,5.658161601473921e-07,0.0,3.392410574676319e-07,0.0,-1.5077698867216327e-07
9,0.020527,0.0394129,0.118239,6.07153e-18,0.0682651,-4.56883e-19,3.48265e-20,1.89735e-08,5.12236e-07,-2.27663e-07,8.54355e-07,1.1462e-23,-6.61759e-24,0.0,1.8973500104380037e-08,8.543553648987512e-07,0.0,5.122361312892565e-07,0.0,-2.276629741393421e-07
10,0.030926,0.059379,0.178137,-8.67362e-19,0.102847,-1.54031e-18,-2.55477e-19,2.8587e-08,7.71729e-07,-3.42996e-07,1.28716e-06,-2.95414e-23,1.77334e-24,0.0,2.858700032248862e-08,1.2871608283671065e-06,0.0,7.717292977993395e-07,0.0,-3.429959412049044e-07
11,0.046525,0.0893282,0.267985,-4.94396e-17,0.154721,-5.5365e-19,3.95969e-19,4.30043e-08,1.16097e-06,-5.15992e-07,1.93637e-06,-9.16942e-23,5.29396e-23,0.0,4.300430100911967e-08,1.9363718748444114e-06,0.0,1.1609706738191505e-06,0.0,-5.159918669006558e-07
12,0.069922,0.134252,0.402756,-2.1684e-17,0.232531,2.20493e-19,-2.49317e-18,6.46307e-08,1.74483e-06,-7.75487e-07,2.91018e-06,-5.29397e-23,-9.16942e-23,0.0,6.463070212348043e-08,2.910184234483637e-06,0.0,1.744831522154655e-06,0.0,-7.754866993003873e-07
13,0.105,0.201637,0.604912,1.99493e-17,0.349246,-1.22407e-18,-2.88023e-18,9.70596e-08,2.62061e-06,-1.16471e-06,4.37091e-06,-1.05879e-22,-1.83388e-22,0.0,9.705960479777787e-08,4.370919552521002e-06,0.0,2.62061343381248e-06,0.0,-1.1647093217659332e-06
14,0.1577,0.302715,0.908146,-9.1073e-17,0.524319,2.72256e-18,-2.74454e-19,1.45719e-07,3.93429e-06,-1.74858e-06,6.56199e-06,1.03982e-22,-2.43423e-22,0.0,1.4571901063575865e-07,6.562011529931411e-06,0.0,3.934297739371928e-06,0.0,-1.748578471238993e-06
15,0.2366,0.454332,1.363,-7.80626e-18,0.786926,-1.38381e-17,-7.8084e-18,2.18705e-07,5.90479e-06,-2.62436e-06,9.8486e-06,-2.11758e-22,-3.66776e-22,0.0,2.1870502386889257e-07,9.848648497623458e-06,0.0,5.904807433232406e-06,0.0,-2.624356556402141e-06
16,0.3551,0.681756,2.04527,4.77049e-17,1.18084,-5.94481e-18,-2.59681e-18,3.28182e-07,8.86055e-06,-3.93804e-06,1.47785e-05,5.57568e-28,9.65736e-28,0.0,3.281820537548441e-07,1.4778609202625859e-05,0.0,8.860589254755524e-06,0.0,-3.938032245964784e-06
17,0.5328,1.02289,3.06867,7.13839e-16,1.7717,-5.94479e-18,-2.59677e-18,4.92389e-07,1.32942e-05,-5.90853e-06,2.21733e-05,8.36561e-28,1.44897e-27,0.0,4.923891212538223e-07,2.2173545829451413e-05,0.0,1.3294288368159712e-05,0.0,-5.908512544672284e-06
18,0.7993,1.53459,4.60377,-2.85362e-16,2.65799,-3.98145e-18,-3.30361e-17,7.38697e-07,1.99445e-05,-8.86424e-06,3.32654e-05,7.35553e-27,1.27402e-26,0.0,7.38697272906208e-07,3.326595329955495e-05,0.0,1.9944698892881974e-05,0.0,-8.864200712777048e-06
19,1.199,2.30213,6.90638,-1.61763e-15,3.9874,2.21215e-18,-5.61484e-17,1.10814e-06,2.99199e-05,-1.32977e-05,4.99034e-05,-4.23505e-22,-7.33532e-22,0.0,1.1081406139368255e-06,4.990464519538662e-05,0.0,2.992034760462836e-05,0.0,-1.3297611585971758e-05
20,1.799,3.45341,10.3602,-3.17194e-15,5.98148,6.53581e-17,-1.44564e-17,1.66234e-06,4.48827e-05,-1.99479e-05,7.48599e-05,-1.09041e-26,-1.88864e-26,0.0,1.6623413816585497e-06,7.486270207235357e-05,0.0,4.4883707243537074e-05,0.0,-1.994770104196686e-05
21,2.698,5.18029,15.5409,-2.8485e-14,8.97252,-6.87866e-17,2.39178e-17,2.49357e-06,6.73263e-05,-2.99228e-05,0.000112294,-4.23518e-22,-7.33555e-22,0.0,2.4935731088859825e-06,0.00011230030520725798,0.0,6.732856646629592e-05,0.0,-2.9922352317468537e-05
22,4.047,31.1929,93.5787,-1.03264e-09,54.0277,-8.08225e-16,-1.7395e-16,1.5015e-05,0.000405403,-0.000180179,0.000676171,-3.02527e-20,1.82072e-21,0.0,1.5015112725613733e-05,0.0006763996551444329,0.0,0.00040548518690219915,0.0,-0.00018016276873877857
23,6.071,70.3658,211.097,-9.04826e-07,121.877,1.29847e-16,-7.14917e-16,3.38711e-05,0.000914519,-0.000406453,0.00152533,-2.03309e-20,-3.52142e-20,0.0,3.3871673632113186e-05,0.0015264939075101402,0.0,0.0009149373000056915,0.0,-0.00040637040916957634
24,8.776,121.243,363.748,0.000144157,210.004,-0.000441059,-0.000763732,5.55446e-05,0.00159318,-0.000714908,0.00266341,-5.60344e-09,-9.70936e-09,2.80728e-05,5.55461426299253e-05,0.0026669600274407124,-5.603439934276366e-09,0.0015944497854989415,-9.709359982679189e-09,-0.0007146525141623616
25,11.48,127.167,381.824,0.0869625,220.435,-0.00876253,-0.0151426,-3.25758e-05,0.00223236,-0.00121959,0.00393092,-1.58702e-07,-2.78242e-07,0.000936141,-3.257526941435884e-05,0.003938656199495405,-1.5870198744050157e-07,0.0022348535707554795,-2.782419612490372e-07,-0.0012188466023599354
26,14.19,132.129,396.677,0.0001626,228.938,-0.0162483,-0.0280936,-0.000122368,0.00287022,-0.00172967,0.00519935,-3.41637e-07,-6.0191e-07,0.00186438,-0.0001223605133415795,0.005212890076572663,-3.416369416253673e-07,0.0028743430251436664,-6.019098188758676e-07,-0.0017281749829318738
27,16.89,136.304,409.309,-6.29273e-06,236.2,-0.0221816,-0.0383375,-0.00021425,0.00350673,-0.00224194,0.00646899,-5.35649e-07,-9.46844e-07,0.00280602,-0.00021422705010776255,0.006489959107740306,-5.356488564922657e-07,0.003512885771085772,-9.468435517856477e-07,-0.0022394287295744997
28,19.6,139.947,420.325,6.1325e-06,242.535,-0.0272327,-0.047052,-0.000307362,0.00414216,-0.00275604,0.00773888,-7.43469e-07,-1.31753e-06,0.00375719,-0.00030731476913958833,0.007768902528771271,-7.434687235852167e-07,0.004150750601853215,-1.3175291320166593e-06,-0.0027522456083912683
29,22.3,143.182,430.111,2.76427e-06,248.162,-0.0316119,-0.0546028,-0.000401393,0.00477663,-0.0032714,0.00900865,-9.63519e-07,-1.7109e-06,0.00471537,-0.00040131245260710546,0.009049350012996005,-9.635185358458642e-07,0.004788056282876374,-1.7108985364000517e-06,-0.0032660548013695445
30,25.01,146.097,438.926,1.18297e-06,253.231,-0.0354639,-0.0612412,-0.000496129,0.0054102,-0.00378765,0.0102781,-1.19439e-06,-2.12428e-06,0.00567887,-0.0004960059483583024,0.010331101097698081,-1.1943892866961292e-06,0.005424861560753502,-2.1242777437091576e-06,-0.0037804859016254966
31,27.71,148.752,446.956,3.99622e-07,257.848,-0.038893,-0.0671481,-0.000591419,0.00604294,-0.00430453,0.0115469,-1.43487e-06,-2.55537e-06,0.00664647,-0.000591244146255443,0.011613822785326633,-1.434868970529024e-06,0.006061235396016329,-2.555366734990905e-06,-0.004295278789537393
32,30.42,151.193,454.336,-1.22343e-08,262.092,-0.0419761,-0.072457,-0.000687152,0.00667488,-0.00482182,0.0128151,-1.68391e-06,-3.00222e-06,0.0076173,-0.0006869159651314849,0.012897565284444745,-1.683908582239546e-06,0.006697206659788124,-3.002215493319582e-06,-0.00481021368795298
33,33.12,153.453,461.17,-2.42401e-07,266.022,-0.0447718,-0.077269,-0.000783243,0.00730604,-0.00533939,0.0140826,-1.94064e-06,-3.46316e-06,0.00859069,-0.0007829363452683813,0.014182226930771202,-1.940638116981752e-06,0.007332794226368344,-3.4631540032359354e-06,-0.00532516079357237
34,35.83,155.558,467.536,-3.81614e-07,269.684,-0.047325,-0.0816624,-0.000879627,0.00793646,-0.00585711,0.0153492,-2.20426e-06,-3.93676e-06,0.0095661,-0.000879240241579704,0.015467603996855983,-2.2042575705816247e-06,0.007968037180397403,-3.9367522509659025e-06,-0.005839990570990938
35,38.53,157.531,473.5,-4.75465e-07,273.113,-0.0496714,-0.0856988,-0.00097625,0.00856615,-0.00637489,0.0166149,-2.47413e-06,-4.42177e-06,0.0105431,-0.000975773623002385,0.016753695074280373,-2.474126939322474e-06,0.008602944450130101,-4.42176022397156e-06,-0.006354613498446016
36,41.24,159.387,479.112,-5.47722e-07,276.341,-0.0518396,-0.0894275,-0.00107307,0.00919512,-0.00689267,0.0178797,-2.74965e-06,-4.91712e-06,0.0115215,-0.0010724944662686697,0.018040498750911738,-2.7496462197129645e-06,0.009237524989241352,-4.917107910951124e-06,-0.006868970033414024
37,43.94,161.14,484.413,-6.11094e-07,279.389,-0.0538525,-0.0928885,-0.00117006,0.0098234,-0.00741037,0.0191435,-3.03032e-06,-5.42187e-06,0.0125008,-0.0011693757466966215,0.01932791167810821,-3.0303154086031014e-06,0.009871807974233926,-5.421855301723788e-06,-0.007382980904433789
38,46.65,162.802,489.438,-6.72467e-07,282.279,-0.0557294,-0.0961149,-0.00126718,0.010451,-0.00792796,0.0204063,-3.31569e-06,-5.9352e-06,0.0134809,-0.0012663774664444238,0.020615932049875108,-3.315684503069072e-06,0.010505802447574375,-5.93518238678481e-06,-0.007896616609528007
39,49.35,164.383,494.217,-7.35568e-07,285.028,-0.057486,-0.0991338,-0.00136441,0.0110779,-0.00844539,0.021668,-3.60537e-06,-6.45638e-06,0.0144617,-0.0013634796158658036,0.021904455865659367,-3.6053635006361162e-06,0.011139487142843185,-6.4563591576360935e-06,-0.008409827876292741
40,52.06,165.89,498.773,-8.0237e-07,287.648,-0.0591355,-0.101968,-0.00146173,0.0117041,-0.00896262,0.0229287,-3.899e-06,-6.98477e-06,0.0154429,-0.0014606621930487451,0.023193583243870775,-3.89899239894298e-06,0.01177286097834318,-6.984745606564147e-06,-0.008922575445376446
41,54.76,167.331,503.128,-8.73858e-07,290.153,-0.0606893,-0.104638,-0.00155912,0.0123297,-0.00947963,0.0241884,-4.19628e-06,-7.51978e-06,0.0164244,-0.001557905203832366,0.02448331236602108,-4.196271195633372e-06,0.01240602411294911,-7.519751726525747e-06,-0.009434839950298923
42,57.47,168.711,507.301,-9.50454e-07,292.553,-0.062157,-0.107159,-0.00165657,0.0129546,-0.00999638,0.0254469,-4.49692e-06,-8.06091e-06,0.0174061,-0.001655198645270528,0.02577343625481343,-4.4969098889069414e-06,0.013038874350880247,-8.06087751092921e-06,-0.009946582263946624
43,60.17,170.036,511.306,-1.03226e-06,294.856,-0.0635469,-0.109546,-0.00175407,0.0135788,-0.0105129,0.0267044,-4.80066e-06,-8.60768e-06,0.0183879,-0.0017525325182989882,0.027064157721940596,-4.800648476854796e-06,0.013671410610278878,-8.60764295407268e-06,-0.01045783260839539
44,62.88,171.31,515.158,-1.11922e-06,297.072,-0.064866,-0.111812,-0.0018516,0.0142024,-0.0110291,0.0279607,-5.10729e-06,-9.15969e-06,0.0193697,-0.0018498868462416551,0.028355269265190497,-5.107276957794227e-06,0.01430373323964007,-9.159648050149904e-06,-0.010968502459974605
45,65.58,172.537,518.868,-1.21114e-06,299.206,-0.0661207,-0.113967,-0.00194915,0.0148253,-0.0115449,0.029216,-5.41659e-06,-9.71656e-06,0.0203514,-0.0019472516407346152,0.029646974203683563,-5.41657533026374e-06,0.014935739853099594,-9.71651279435548e-06,-0.011478513363286424
46,68.29,173.721,522.447,-1.30783e-06,301.264,-0.0673164,-0.11602,-0.00204672,0.0154476,-0.0120605,0.0304701,-5.72837e-06,-1.02779e-05,0.021333,-0.002044626896863022,0.03093906450991235,-5.728353592915347e-06,0.01556753092541352,-1.0277847182549316e-05,-0.011988063668439186
47,70.99,174.865,525.905,-1.40904e-06,303.253,-0.068458,-0.11798,-0.00214429,0.0160693,-0.0125757,0.0317231,-6.04247e-06,-1.08435e-05,0.0223144,-0.0021419926525509947,0.03223164078766838,-6.042451744292521e-06,0.01619910556402404,-1.0843441209495985e-05,-0.01249695631603509
48,73.7,175.971,529.25,-1.51454e-06,305.177,-0.0695497,-0.119854,-0.00224187,0.0166903,-0.0130906,0.0329749,-6.35873e-06,-1.1413e-05,0.0232956,-0.002239358886332199,0.033524597448341575,-6.358709783271799e-06,0.016830361193165277,-1.1412934871946057e-05,-0.013005290751296639
49,76.4,177.043,532.49,-1.6241e-06,307.041,-0.0705954,-0.121649,-0.00233944,0.0173107,-0.0136051,0.0342257,-6.67701e-06,-1.19862e-05,0.0242764,-0.002336705642946968,0.034818138826962386,-6.676987708842397e-06,0.017461398476774637,-1.1986128165775156e-05,-0.01351296891779774
50,79.11,178.082,535.632,-1.7375e-06,308.848,-0.0715983,-0.123371,-0.002437,0.0179305,-0.0141193,0.0354752,-6.99717e-06,-1.25627e-05,0.025257,-0.0024340329262424465,0.03611195223302155,-6.997145519882508e-06,0.01809221652186843,-1.256262108961792e-05,-0.0140200901571359
51,81.81,179.091,538.682,-1.85454e-06,310.601,-0.0725617,-0.125024,-0.00253454,0.0185496,-0.0146331,0.0367236,-7.31909e-06,-1.31425e-05,0.0262371,-0.002531330765377815,0.03740624212184174,-7.319063215494026e-06,0.01872271256302871,-1.3142413637701189e-05,-0.014526556512464706
52,84.52,180.071,541.644,-1.97503e-06,312.306,-0.0734881,-0.126615,-0.00263205,0.0191681,-0.0151465,0.0379709,-7.64266e-06,-1.37253e-05,0.0272168,-0.0026285891934032524,0.03870100623942063,-7.642630795001715e-06,0.01935298745316638,-1.3725205808445828e-05,-0.015032368725246048
53,87.22,181.024,544.526,-2.09879e-06,313.963,-0.0743801,-0.128146,-0.00272955,0.019786,-0.0156595,0.0392171,-7.96778e-06,-1.43108e-05,0.0281961,-0.0027258281654799488,0.039996242327375864,-7.967748257287077e-06,0.019983040298894084,-1.4310697600938838e-05,-0.01553752753577653
54,89.93,181.952,547.33,-2.22566e-06,315.576,-0.0752399,-0.129621,-0.00282701,0.0204033,-0.0161721,0.040462,-8.29435e-06,-1.4899e-05,0.0291749,-0.002823017770140601,0.04129173986458046,-8.294315602008773e-06,0.020612870206671463,-1.4898889010406258e-05,-0.016042033683189127
55,92.63,182.856,550.062,-2.3555e-06,317.147,-0.0760695,-0.131045,-0.00292444,0.0210199,-0.0166843,0.0417059,-8.62228e-06,-1.54896e-05,0.0301532,-0.002920167990769329,0.042587808582621234,-8.622242828271176e-06,0.02124237415856456,-1.5489480036712244e-05,-0.016545887905454748
56,95.34,183.736,552.725,-2.48816e-06,318.678,-0.0768708,-0.13242,-0.00302184,0.021636,-0.0171961,0.0429485,-8.95149e-06,-1.60826e-05,0.031131,-0.003017278837032178,0.043884133433396366,-8.951449935512557e-06,0.02187175544628106,-1.608247067563795e-05,-0.017049090939384448
57,98.04,184.596,555.323,-2.62352e-06,320.172,-0.0776455,-0.13375,-0.00311919,0.0222514,-0.0177075,0.04419,-9.2819e-06,-1.66777e-05,0.0321082,-0.0031143303808767175,0.04518092039899879,-9.281856923282206e-06,0.022500808864466926,-1.667756092793571e-05,-0.01755164352063021
58,100.7,185.435,557.859,-2.76148e-06,321.631,-0.0783951,-0.135037,-0.00321651,0.0228662,-0.0182185,0.0454304,-9.61344e-06,-1.72749e-05,0.0330849,-0.0032113425735542656,0.04647816719879905,-9.61339379101922e-06,0.023129635643301505,-1.727475078971974e-05,-0.018053546383688168
59,103.5,186.254,560.336,-2.90191e-06,323.056,-0.0791211,-0.136283,-0.00331378,0.0234804,-0.0187291,0.0466696,-9.94605e-06,-1.7874e-05,0.034061,-0.0033082954908805196,0.047775766770234984,-9.946000538163524e-06,0.02375823488858053,-1.7873840260973495e-05,-0.018554800261899373
60,106.2,187.055,562.757,-3.04473e-06,324.448,-0.0798248,-0.13749,-0.003411,0.024094,-0.0192393,0.0479076,-1.02796e-05,-1.84749e-05,0.0350365,-0.0034051891483160013,0.04907371643456426,-1.0279547165037428e-05,0.024386605705959852,-1.8474729340134388e-05,-0.019055405887451582
61,108.9,187.838,565.125,-3.18984e-06,325.81,-0.0805073,-0.138662,-0.00350818,0.024707,-0.019749,0.0491445,-1.06142e-05,-1.90775e-05,0.0360113,-0.0035020335262899716,0.05037211854567003,-1.061414366954061e-05,0.025014747200955867,-1.9077318025639833e-05,-0.019555265946912814
62,111.6,188.604,567.442,-3.33716e-06,327.142,-0.0811698,-0.139799,-0.0036053,0.0253194,-0.0202584,0.0503802,-1.09496e-05,-1.96817e-05,0.0369856,-0.003598808709314838,0.051670865638187236,-1.0949540053317719e-05,0.025642658478951086,-1.9681506316593378e-05,-0.02005457730903859
63,114.3,189.355,569.71,-3.48662e-06,328.447,-0.0818133,-0.140903,-0.00370238,0.0259312,-0.0207673,0.0516148,-1.12859e-05,-2.02875e-05,0.0379592,-0.0036955346418128254,0.052970060316755996,-1.128583631448965e-05,0.026270338645193236,-2.0287294210108442e-05,-0.020553144663422618
64,117.0,190.09,571.932,-3.63814e-06,329.725,-0.0824388,-0.141977,-0.0037994,0.0265423,-0.0212757,0.0528482,-1.16229e-05,-2.08946e-05,0.0389322,-0.00379219141214604,0.05426959484734972,-1.1622832454372123e-05,0.026897684115024578,-2.089438170937985e-05,-0.021050968887035393
65,119.7,190.81,574.109,-3.79165e-06,330.977,-0.0830471,-0.143021,-0.00389636,0.0271529,-0.0217838,0.0540804,-1.19607e-05,-2.1503e-05,0.0399045,-0.003888779038622947,0.05556946652859551,-1.1960628471086032e-05,0.027524899310256812,-2.1502768812187156e-05,-0.021548246545656458
66,122.4,191.516,576.244,-3.9471e-06,332.205,-0.0836391,-0.144037,-0.00399327,0.0277629,-0.0222914,0.0553115,-1.22991e-05,-2.21127e-05,0.0408761,-0.003985307499684176,0.05686977834154505,-1.2299024366391187e-05,0.0281518807087211,-2.211245551608787e-05,-0.022044782624191628
67,125.1,192.208,578.337,-4.10442e-06,333.409,-0.0842156,-0.145027,-0.00409012,0.0283723,-0.0227985,0.0565414,-1.26383e-05,-2.27236e-05,0.041847,-0.004081766851533275,0.05817042214888457,-1.2638220136973466e-05,0.02877862741515025,-2.2723341820962695e-05,-0.022540577995382116
68,127.8,192.888,580.392,-4.26357e-06,334.59,-0.0847773,-0.145991,-0.00418691,0.0289811,-0.0233053,0.0577702,-1.2978e-05,-2.33356e-05,0.0428172,-0.0041781571124377415,0.05947150118286593,-1.2977915786138716e-05,0.029405138534154496,-2.33353277270254e-05,-0.02303582892326872
69,130.5,193.554,582.408,-4.42449e-06,335.75,-0.0853248,-0.146931,-0.00428364,0.0295893,-0.0238116,0.0589979,-1.33183e-05,-2.39487e-05,0.0437868,-0.0042744783006508635,0.06077301311449257,-1.3318211311785788e-05,0.0300314131702224,-2.3948413232166565e-05,-0.023530340686868212
70,133.2,194.209,584.388,-4.58714e-06,336.888,-0.0858588,-0.147847,-0.00438031,0.0301969,-0.0243174,0.0602243,-1.36591e-05,-2.45627e-05,0.0447556,-0.00437073043441194,0.062074743195505544,-1.3659006714905608e-05,0.03065745042772372,-2.4562398339367242e-05,-0.02402411415471195
71,135.9,194.853,586.333,-4.75146e-06,338.007,-0.0863798,-0.148742,-0.00447692,0.0308039,-0.0248229,0.0614497,-1.40005e-05,-2.51776e-05,0.0457237,-0.004466913531945171,0.06337700732008922,-1.400040199350805e-05,0.0312832494109101,-2.5177283046851073e-05,-0.024517345290334114
72,138.6,195.485,588.245,-4.91743e-06,339.106,-0.0868886,-0.149615,-0.00457346,0.0314103,-0.0253278,0.0626738,-1.43423e-05,-2.57934e-05,0.0466911,-0.0045630176570919945,0.0646794841330447,-1.4342197149685987e-05,0.03190880922391881,-2.5793067353063748e-05,-0.02500974216664542
73,141.3,196.106,590.124,-5.085e-06,340.187,-0.0873854,-0.150468,-0.00466994,0.0320162,-0.0258324,0.0638969,-1.46846e-05,-2.641e-05,0.0476578,-0.004659052784339535,0.0659824903010715,-1.468449218178236e-05,0.03253423222419216,-2.6409651258996192e-05,-0.025501598145048265
74,144.0,196.717,591.971,-5.25414e-06,341.249,-0.0878709,-0.151302,-0.00476635,0.0326214,-0.0263365,0.0651187,-1.50273e-05,-2.70274e-05,0.0486237,-0.00475500897941783,0.06728570367865472,-1.5027187090677074e-05,0.03315931107131442,-2.7027034763094093e-05,-0.02599271899201383
75,146.7,197.318,593.789,-5.42481e-06,342.295,-0.0883455,-0.152117,-0.0048627,0.0332261,-0.0268402,0.0663395,-1.53704e-05,-2.76455e-05,0.0495889,-0.0048508962148609,0.06858944170547776,-1.5370281876037062e-05,0.03378425143839636,-2.7645117866681446e-05,-0.026483202920709825
76,149.4,197.91,595.577,-5.59697e-06,343.323,-0.0888096,-0.152914,-0.00495898,0.0338302,-0.0273434,0.0675591,-1.57139e-05,-2.82642e-05,0.0505534,-0.004946704558285608,0.06989348843463827,-1.571377653730721e-05,0.03440894917564363,-2.8263800571304287e-05,-0.026972953341459993
77,152.1,198.492,597.337,-5.77061e-06,344.335,-0.0892637,-0.153694,-0.0050552,0.0344337,-0.0278462,0.0687775,-1.60577e-05,-2.88836e-05,0.0515171,-0.005042443980275757,0.07119784111123839,-1.6057571075811516e-05,0.035033403386576456,-2.8883182872863067e-05,-0.02746206836669829
78,154.8,199.065,599.069,-5.94568e-06,345.331,-0.0897081,-0.154457,-0.00515135,0.0350366,-0.0283485,0.0699948,-1.64018e-05,-2.95036e-05,0.05248,-0.005138104550331146,0.07250260422617427,-1.640166549121691e-05,0.03565761317461136,-2.9503164773125867e-05,-0.027950451502064877
79,157.6,199.629,600.775,-6.12217e-06,346.312,-0.0901433,-0.155205,-0.00524742,0.0356389,-0.0288504,0.071211,-1.67462e-05,-3.0124e-05,0.0534422,-0.005233676341762639,0.07380777540715133,-1.6746059783190326e-05,0.03628157764306317,-3.01235462768501e-05,-0.028438200759540844
80,160.3,200.184,602.456,-6.30004e-06,347.279,-0.0905695,-0.155937,-0.00534343,0.0362407,-0.0293518,0.072426,-1.70909e-05,-3.0745e-05,0.0544036,-0.005329179271805429,0.07511324476630965,-1.7090753951398696e-05,0.036905399585684284,-3.074452737727995e-05,-0.028925219739818542
81,163.0,200.732,604.111,-6.47927e-06,348.231,-0.0909871,-0.156654,-0.00543937,0.0368419,-0.0298528,0.0736398,-1.74359e-05,-3.13665e-05,0.0553643,-0.005424603412776952,0.07641900953112635,-1.7435747995619977e-05,0.037528974539764226,-3.136600807651657e-05,-0.029411606354708186
82,165.7,201.271,605.743,-6.65985e-06,349.169,-0.0913964,-0.157358,-0.00553524,0.0374425,-0.0303534,0.0748526,-1.7781e-05,-3.19884e-05,0.0563242,-0.005519948785594253,0.07772528246968102,-1.7780841918946244e-05,0.038152301608254335,-3.198788837655009e-05,-0.029897361309957682
83,168.4,201.803,607.351,-6.84174e-06,350.094,-0.0917977,-0.158047,-0.00563104,0.0380425,-0.0308535,0.0760642,-1.81265e-05,-3.26107e-05,0.0572833,-0.0056152154111563934,0.07903184577814004,-1.8126335715962227e-05,0.038775379894012696,-3.261016827693641e-05,-0.030382388348446865
84,171.1,202.327,608.937,-7.02492e-06,351.006,-0.0921913,-0.158724,-0.00572677,0.038642,-0.0313532,0.0772747,-1.84721e-05,-3.32333e-05,0.0582417,-0.005710403310343781,0.0803388047047533,-1.8471929391861153e-05,0.039398312439632655,-3.323274777999874e-05,-0.030866785232348093
85,173.8,202.845,610.5,-7.20938e-06,351.905,-0.0925775,-0.159387,-0.00582243,0.0392409,-0.0318524,0.078484,-1.88179e-05,-3.38563e-05,0.0591992,-0.005805512504017729,0.08164604868704628,-1.8817722944430848e-05,0.040020994532493415,-3.385572688197058e-05,-0.03135045579894247
86,176.5,203.354,612.043,-7.3951e-06,352.791,-0.0929565,-0.160039,-0.00591802,0.0398392,-0.0323512,0.0796922,-1.91638e-05,-3.44797e-05,0.060156,-0.005900543013021897,0.08295368322602714,-1.916361637555042e-05,0.04064342527511178,-3.4479105581963765e-05,-0.03183349771092203
87,179.2,203.858,613.564,-7.58205e-06,353.666,-0.0933285,-0.160678,-0.00601353,0.040437,-0.0328496,0.0808993,-1.951e-05,-3.51033e-05,0.0611121,-0.0059954849181358405,0.08426170591531745,-1.950980968123961e-05,0.04126570789648487,-3.510268388640103e-05,-0.032315911668118646
88,181.9,204.354,615.065,-7.77023e-06,354.53,-0.0936939,-0.161306,-0.00610897,0.0410342,-0.0333475,0.0821053,-1.98562e-05,-3.57271e-05,0.0620673,-0.006090348182108296,0.08557011434435124,-1.985600286691369e-05,0.04188773749679209,-3.572646179472727e-05,-0.03279760164902712
89,184.6,204.844,616.547,-7.95962e-06,355.382,-0.0940527,-0.161923,-0.00620434,0.0416308,-0.0338449,0.0833101,-2.02026e-05,-3.63512e-05,0.0630218,-0.006185132825724637,0.08687879741049143,-2.0202395928814454e-05,0.04250951317822582,-3.6350539303176e-05,-0.033278568495596184
90,187.3,205.327,618.01,-8.15019e-06,356.223,-0.0944053,-0.162529,-0.00629964,0.0422268,-0.0343419,0.0845138,-2.05492e-05,-3.69755e-05,0.0639754,-0.006279838869751586,0.08818786112087085,-2.054898886660883e-05,0.043131034042900085,-3.697481641462552e-05,-0.03375890967238382
91,190.0,205.805,619.454,-8.34194e-06,357.053,-0.0947518,-0.163125,-0.00639486,0.0428223,-0.0348385,0.0857164,-2.08958e-05,-3.76e-05,0.0649283,-0.006374456398682504,0.08949730305227366,-2.0895581684277076e-05,0.04375240356808652,-3.7599293128853795e-05,-0.03423862587444915
92,192.7,206.276,620.88,-8.53485e-06,357.873,-0.0950925,-0.163711,-0.00649001,0.0434172,-0.0353346,0.0869179,-2.12425e-05,-3.82246e-05,0.0658804,-0.006468995371393116,0.09080712077731778,-2.124227437971804e-05,0.04437351660472366,-3.8223869449294234e-05,-0.03471762126752154
93,195.4,206.742,622.288,-8.72891e-06,358.683,-0.0954275,-0.164287,-0.00658508,0.0440116,-0.0358303,0.0881182,-2.15892e-05,-3.88494e-05,0.0668317,-0.006563445874227414,0.09211720265273571,-2.158896695492185e-05,0.04499447675406709,-3.884864537184729e-05,-0.03519599316838806
94,198.1,207.202,623.679,-8.9241e-06,359.482,-0.0957569,-0.164854,-0.00668008,0.0446054,-0.0363255,0.0893174,-2.19361e-05,-3.94744e-05,0.0677822,-0.00665781786412889,0.0934276551924551,-2.1935859405464164e-05,0.04561517874254606,-3.947362089606887e-05,-0.035673645836009626
95,200.8,207.656,625.053,-9.12042e-06,360.273,-0.0960811,-0.165411,-0.00677501,0.0451986,-0.0368203,0.0905156,-2.2283e-05,-4.00994e-05,0.0687319,-0.006752111361767343,0.09473858543037239,-2.2282751735769324e-05,0.04623562167175499,-4.009859602982502e-05,-0.036150676488934
96,203.5,208.105,626.411,-9.31785e-06,361.054,-0.0964001,-0.16596,-0.00686986,0.0457913,-0.0373146,0.0917125,-2.26299e-05,-4.07245e-05,0.0696809,-0.00684631645625744,0.09604966250082914,-2.2629643945726308e-05,0.04685590932880834,-4.072367076879413e-05,-0.03662698947909182
97,206.2,208.549,627.753,-9.51638e-06,361.825,-0.096714,-0.1665,-0.00696464,0.0463834,-0.0378086,0.0929084,-2.29769e-05,-4.13497e-05,0.070629,-0.006940443101651428,0.09736121237715034,-2.297663603301192e-05,0.04747593625357904,-4.134884511297621e-05,-0.037102778216794974
98,208.9,208.987,629.08,-9.716e-06,362.588,-0.0970231,-0.167032,-0.00705934,0.046975,-0.038302,0.0941032,-2.33239e-05,-4.19749e-05,0.0715763,-0.0070344813889067215,0.09867312313311616,-2.332362799994936e-05,0.04809580635696409,-4.197401906624876e-05,-0.03757775451973322
99,211.7,209.421,630.391,-9.9167e-06,363.342,-0.0973275,-0.167556,-0.00715397,0.047566,-0.038795,0.0952969,-2.3671e-05,-4.26002e-05,0.0725229,-0.007128441270150887,0.09998539231223647,-2.3670719844104404e-05,0.048715414054561146,-4.259929262440121e-05,-0.03805211174809042
100,214.4,209.85,631.688,-1.01185e-05,364.087,-0.0976273,-0.168072,-0.00724852,0.0481565,-0.0392876,0.0964895,-2.4018e-05,-4.32255e-05,0.0734686,-0.0072223128381804225,0.10129801745390177,-2.4017711570123446e-05,0.04933486338097426,-4.322456579153311e-05,-0.03852585058638791
101,217.1,210.273,632.97,-1.03213e-05,364.825,-0.0979227,-0.16858,-0.007343,0.0487464,-0.0397798,0.0976809,-2.4365e-05,-4.38508e-05,0.0744135,-0.007316106043202764,0.10261088583229516,-2.436470317579431e-05,0.049954048627615544,-4.3849838567755484e-05,-0.03899897171806732
102,219.8,210.693,634.238,-1.05252e-05,365.554,-0.0982137,-0.169081,-0.0074374,0.0493357,-0.0402715,0.0988713,-2.47121e-05,-4.44761e-05,0.0753577,-0.007409810979849718,0.10392421536944241,-2.4711794658571762e-05,0.050572968895417514,-4.447511095295731e-05,-0.039471379772635595
103,222.5,211.107,635.492,-1.07301e-05,366.275,-0.0985006,-0.169575,-0.00753173,0.0499245,-0.0407627,0.100061,-2.50591e-05,-4.51013e-05,0.076301,-0.007503437596411144,0.10523833555786255,-2.505878602332423e-05,0.05119172840442654,-4.5100282951682225e-05,-0.03994307557291854
104,225.2,211.517,636.732,-1.09361e-05,366.988,-0.0987834,-0.170062,-0.00762598,0.0505128,-0.0412535,0.101249,-2.54061e-05,-4.57266e-05,0.0772436,-0.0075969759893517175,0.10655213894519844,-2.5405777267728524e-05,0.051810326441017907,-4.572555455495397e-05,-0.04041415589885888
105,227.9,211.923,637.96,-1.11431e-05,367.694,-0.0990622,-0.170542,-0.00772015,0.0511005,-0.0417439,0.102436,-2.57531e-05,-4.63518e-05,0.0781853,-0.007690426181951371,0.10786639619148963,-2.5752768391784642e-05,0.052428657048518845,-4.6350725771859835e-05,-0.04088462142922944
106,230.6,212.324,639.174,-1.13511e-05,368.392,-0.0993372,-0.171016,-0.00781425,0.0516876,-0.0422339,0.103622,-2.61e-05,-4.69769e-05,0.0791263,-0.007783798119629037,0.10918110520571278,-2.60996593979268e-05,0.05304671932750127,-4.697579660273288e-05,-0.041354472841732104
107,233.3,212.722,640.376,-1.15601e-05,369.083,-0.0996085,-0.171483,-0.00790827,0.0522742,-0.0427234,0.104807,-2.64469e-05,-4.76019e-05,0.0800664,-0.007877081901590643,0.1104962638930056,-2.6446550283831805e-05,0.05366461774494646,-4.76007670475731e-05,-0.041823614995366354
108,236.0,213.115,641.565,-1.17701e-05,369.767,-0.0998761,-0.171944,-0.00800222,0.0528603,-0.0432124,0.10599,-2.67937e-05,-4.82269e-05,0.0810058,-0.00797028747134576,0.11181075834335652,-2.6793341052044894e-05,0.05428235158662531,-4.822573710172584e-05,-0.04229204870625691
109,238.7,213.504,642.742,-1.19812e-05,370.444,-0.10014,-0.172399,-0.00809609,0.0534458,-0.043701,0.107173,-2.71405e-05,-4.88518e-05,0.0819444,-0.008063404929924523,0.11312680876081571,-2.714013169990981e-05,0.05489981464815141,-4.885060677028985e-05,-0.04275987051308483
110,241.4,213.889,643.908,-1.21932e-05,371.114,-0.100401,-0.172848,-0.00818989,0.0540307,-0.0441892,0.108355,-2.74872e-05,-4.94766e-05,0.0828821,-0.008156444218931136,0.11444330254332091,-2.7486822230415875e-05,0.05551700602976317,-4.947537605315411e-05,-0.04322708108891915
111,244.1,214.271,645.062,-1.24062e-05,371.777,-0.100658,-0.173292,-0.0082836,0.0546152,-0.044677,0.109535,-2.78339e-05,-5.01012e-05,0.0838191,-0.008249385523710462,0.11575912182101722,-2.7833512640573765e-05,0.05613413605846884,-5.009994495586145e-05,-0.04369368110576777
112,246.8,214.648,646.204,-1.26203e-05,372.434,-0.100912,-0.17373,-0.00837725,0.0551991,-0.0451643,0.110715,-2.81805e-05,-5.07258e-05,0.0847552,-0.008342258619905674,0.11707649468189474,-2.818010293348383e-05,0.05675099285432883,-5.0724513468325405e-05,-0.04415957565053974
113,249.5,215.022,647.336,-1.28352e-05,373.084,-0.101163,-0.174162,-0.00847081,0.0557824,-0.0456512,0.111893,-2.8527e-05,-5.13502e-05,0.0856906,-0.008435033778099843,0.11839318617165473,-2.8526593109035048e-05,0.05736757551731242,-5.1348881601076535e-05,-0.044624861070227895
114,252.2,215.393,648.456,-1.30512e-05,373.728,-0.101411,-0.17459,-0.0085643,0.0563652,-0.0461376,0.11307,-2.88734e-05,-5.19745e-05,0.0866251,-0.00852773085359948,0.11971030992705467,-2.8872983167449462e-05,0.05798398894574941,-5.197314934901609e-05,-0.04508944254242975
115,254.9,215.759,649.566,-1.32681e-05,374.366,-0.101656,-0.175012,-0.00865771,0.0569475,-0.0466236,0.114246,-2.92198e-05,-5.25986e-05,0.0875589,-0.008620339952885026,0.12102786382137332,-2.9219373105848767e-05,0.058600232424389054,-5.259721671790896e-05,-0.04555341631859411
116,257.6,216.123,650.665,-1.3486e-05,374.998,-0.101898,-0.175429,-0.00875105,0.0575292,-0.0471092,0.115422,-2.9566e-05,-5.32226e-05,0.0884918,-0.008712871011862133,0.12234696807050138,-2.9565562930100597e-05,0.05921619931619149,-5.322118370254536e-05,-0.04601678306507828
117,260.3,216.483,651.754,-1.37049e-05,375.624,-0.102137,-0.175841,-0.00884431,0.0581104,-0.0475943,0.116596,-2.99122e-05,-5.38464e-05,0.089424,-0.008805314138821574,0.12366537716572767,-2.9911752634559363e-05,0.05983199470403955,-5.3844950308579165e-05,-0.04647944809513749
118,263.0,216.839,652.832,-1.39247e-05,376.245,-0.102373,-0.176249,-0.00893749,0.058691,-0.048079,0.117769,-3.02582e-05,-5.447e-05,0.0903554,-0.008897669356753624,0.12498420999738036,-3.0257742225314743e-05,0.06044751182749497,-5.446851653645446e-05,-0.046941507517498704
119,265.8,217.192,653.901,-1.41455e-05,376.859,-0.102606,-0.176652,-0.0090306,0.0592712,-0.0485633,0.11894,-3.06042e-05,-5.50934e-05,0.0912859,-0.008989946598726206,0.12630233812068092,-3.060373169627706e-05,0.06106296199868688,-5.509188238650431e-05,-0.0474029619951869
120,268.5,217.543,654.961,-1.43672e-05,377.468,-0.102837,-0.17705,-0.00912363,0.0598507,-0.0490472,0.120111,-3.09501e-05,-5.57167e-05,0.0922157,-0.009082135975738925,0.12762201067610235,-3.094962105054666e-05,0.06167802618280005,-5.571514785351894e-05,-0.0478638121901801
121,270.5,217.805,655.754,-1.47476e-05,377.924,-0.10301,-0.177348,-0.00919387,0.0602883,-0.0494124,0.120995,-3.12112e-05,-5.61874e-05,0.0929177,-0.009151735602140443,0.12861926925688993,-3.121071293554767e-05,0.062142718154245546,-5.618582151756257e-05,-0.04821146883999983
