,Time,S11,S22,S33,S12,S13,S23,LE11,LE22,LE33,LE12,LE13,LE23,SDV_EPBAR,E11,E12,E13,E22,E23,E33
0,0.0002705,0.000519365,0.0015581,-7.79048e-12,0.000899567,2.21372e-21,3.68811e-20,2.50301e-10,6.7501e-09,-3.0004e-09,1.1258e-08,2.76762e-26,4.61603e-25,0.0,2.5030089112476617e-10,1.1258000087721598e-08,0.0,6.750100034480511e-09,0.0,-3.0004000395322805e-09
1,0.000541,0.00103873,0.00311619,4.33681e-19,0.00179913,-3.08331e-20,-2.03577e-20,5.00425e-10,1.35001e-08,-6.00057e-09,2.25162e-08,-1.63975e-24,4.6912e-25,0.0,5.00425034744012e-10,2.2516200237632233e-08,0.0,1.3500100148888805e-08,0.0,-6.000569929831556e-09
2,0.00094675,0.00181778,0.00545333,6.50521e-19,0.00314848,1.87371e-20,6.55005e-20,8.75688e-10,2.36252e-08,-1.05009e-08,3.94034e-08,-1.73568e-24,1.95724e-24,0.0,8.756879665838824e-10,3.9403400764470575e-08,0.0,2.3625200240573463e-08,0.0,-1.0500899927379237e-08
3,0.0015554,0.00298635,0.00895905,1.73472e-18,0.00517251,4.73565e-20,4.89771e-20,1.4375e-09,3.88125e-08,-1.725e-08,6.47354e-08,4.1359e-25,7.16359e-25,0.0,1.4374998968946784e-09,6.473540214990692e-08,0.0,3.8812500768869995e-08,0.0,-1.7249999872959165e-08
4,0.0024683,0.00473921,0.0142176,0.0,0.00820854,1.00168e-19,-5.78319e-20,2.28125e-09,6.15937e-08,-2.7375e-08,1.02732e-07,-7.41318e-35,-1.284e-34,0.0,2.281250077729169e-09,1.027320053470504e-07,0.0,6.159370191660685e-08,0.0,-2.7374999600482397e-08
5,0.0038377,0.00736849,0.0221055,-8.67362e-19,0.0127626,9.88226e-21,-8.20239e-20,3.54688e-09,9.57656e-08,-4.25625e-08,1.59728e-07,7.653e-32,1.32554e-31,0.0,3.5468799008953056e-09,1.597280128162737e-07,0.0,9.576560455748506e-08,0.0,-4.256249908074494e-08
6,0.0058918,0.0113124,0.0339373,-6.07153e-18,0.0195937,-4.73565e-20,-4.89771e-20,5.44671e-09,1.47024e-07,-6.53456e-08,2.45219e-07,-1.14621e-23,6.61761e-24,0.0,5.446709971934638e-09,2.452190299706558e-07,0.0,1.4702401074373483e-07,0.0,-6.534559782167548e-08
7,0.008973,0.0172283,0.0516849,7.80626e-18,0.0298403,6.7121e-20,-1.15071e-19,8.29297e-09,2.2391e-07,-9.95156e-08,3.7346e-07,1.78232e-31,3.08708e-31,0.0,8.292970088419338e-09,3.734600697580248e-07,0.0,2.2391002496569e-07,0.0,-9.951559509779884e-08
8,0.013595,0.0261021,0.0783064,9.54098e-18,0.0452102,-1.3116e-19,-4.58503e-19,1.25671e-08,3.39241e-07,-1.50777e-07,5.65816e-07,2.77687e-23,-3.13146e-23,0.0,1.2567100027283118e-08,5.658161601473921e-07,0.0,3.392410574676319e-07,0.0,-1.5077698867216327e-07
9,0.020527,0.0394129,0.118239,6.07153e-18,0.0682651,-4.56883e-19,3.48265e-20,1.89735e-08,5.12236e-07,-2.27663e-07,8.54355e-07,1.1462e-23,-6.61759e-24,0.0,1.8973500104380037e-08,8.543553648987512e-07,0.0,5.122361312892565e-07,0.0,-2.276629741393421e-07
10,0.030926,0.059379,0.178137,-8.67362e-19,0.102847,-1.54031e-18,-2.55477e-19,2.8587e-08,7.71729e-07,-3.42996e-07,1.28716e-06,-2.95414e-23,1.77334e-24,0.0,2.858700032248862e-08,1.2871608283671065e-06,0.0,7.717292977993395e-07,0.0,-3.429959412049044e-07
11,0.046525,0.0893282,0.267985,-4.94396e-17,0.154721,-5.5365e-19,3.95969e-19,4.30043e-08,1.16097e-06,-5.15992e-07,1.93637e-06,-9.16942e-23,5.29396e-23,0.0,4.300430100911967e-08,1.9363718748444114e-06,0.0,1.1609706738191505e-06,0.0,-5.159918669006558e-07
12,0.069922,0.134252,0.402756,-2.1684e-17,0.232531,2.20493e-19,-2.49317e-18,6.46307e-08,1.74483e-06,-7.75487e-07,2.91018e-06,-5.29397e-23,-9.16942e-23,0.0,6.463070212348043e-08,2.910184234483637e-06,0.0,1.744831522154655e-06,0.0,-7.754866993003873e-07
13,0.105,0.201637,0.604912,1.99493e-17,0.349246,-1.22407e-18,-2.88023e-18,9.70596e-08,2.62061e-06,-1.16471e-06,4.37091e-06,-1.05879e-22,-1.83388e-22,0.0,9.705960479777787e-08,4.370919552521002e-06,0.0,2.62061343381248e-06,0.0,-1.1647093217659332e-06
14,0.1577,0.302715,0.908146,-9.1073e-17,0.524319,2.72256e-18,-2.74454e-19,1.45719e-07,3.93429e-06,-1.74858e-06,6.56199e-06,1.03982e-22,-2.43423e-22,0.0,1.4571901063575865e-07,6.562011529931411e-06,0.0,3.934297739371928e-06,0.0,-1.748578471238993e-06
15,0.2366,0.454332,1.363,-7.80626e-18,0.786926,-1.38381e-17,-7.8084e-18,2.18705e-07,5.90479e-06,-2.62436e-06,9.8486e-06,-2.11758e-22,-3.66776e-22,0.0,2.1870502386889257e-07,9.848648497623458e-06,0.0,5.904807433232406e-06,0.0,-2.624356556402141e-06
16,0.3551,0.681756,2.04527,4.77049e-17,1.18084,-5.94481e-18,-2.59681e-18,3.28182e-07,8.86055e-06,-3.93804e-06,1.47785e-05,5.57568e-28,9.65736e-28,0.0,3.281820537548441e-07,1.4778609202625859e-05,0.0,8.860589254755524e-06,0.0,-3.938032245964784e-06
17,0.5328,1.02289,3.06867,7.13839e-16,1.7717,-5.94479e-18,-2.59677e-18,4.92389e-07,1.32942e-05,-5.90853e-06,2.21733e-05,8.36561e-28,1.44897e-27,0.0,4.923891212538223e-07,2.2173545829451413e-05,0.0,1.3294288368159712e-05,0.0,-5.908512544672284e-06
18,0.7993,1.53459,4.60377,-2.85362e-16,2.65799,-3.98145e-18,-3.30361e-17,7.38697e-07,1.99445e-05,-8.86424e-06,3.32654e-05,7.35553e-27,1.27402e-26,0.0,7.38697272906208e-07,3.326595329955495e-05,0.0,1.9944698892881974e-05,0.0,-8.864200712777048e-06
19,1.199,2.30213,6.90638,-1.61763e-15,3.9874,2.21215e-18,-5.61484e-17,1.10814e-06,2.99199e-05,-1.32977e-05,4.99034e-05,-4.23505e-22,-7.33532e-22,0.0,1.1081406139368255e-06,4.990464519538662e-05,0.0,2.992034760462836e-05,0.0,-1.3297611585971758e-05
20,1.799,3.45341,10.3602,-3.17194e-15,5.98148,6.53581e-17,-1.44564e-17,1.66234e-06,4.48827e-05,-1.99479e-05,7.48599e-05,-1.09041e-26,-1.88864e-26,0.0,1.6623413816585497e-06,7.486270207235357e-05,0.0,4.4883707243537074e-05,0.0,-1.994770104196686e-05
21,2.698,5.18029,15.5409,-2.8485e-14,8.97252,-6.87866e-17,2.39178e-17,2.49357e-06,6.73263e-05,-2.99228e-05,0.000112294,-4.23518e-22,-7.33555e-22,0.0,2.4935731088859825e-06,0.00011230030520725798,0.0,6.732856646629592e-05,0.0,-2.9922352317468537e-05
22,4.047,31.1929,93.5787,-1.03264e-09,54.0277,-8.08225e-16,-1.7395e-16,1.5015e-05,0.000405403,-0.000180179,0.000676171,-3.02527e-20,1.82072e-21,0.0,1.5015112725613733e-05,0.0006763996551444329,0.0,0.00040548518690219915,0.0,-0.00018016276873877857
23,6.071,70.3658,211.097,-9.04826e-07,121.877,1.29847e-16,-7.14917e-16,3.38711e-05,0.000914519,-0.000406453,0.00152533,-2.03309e-20,-3.52142e-20,0.0,3.3871673632113186e-05,0.0015264939075101402,0.0,0.0009149373000056915,0.0,-0.00040637040916957634
24,8.776,121.266,363.806,0.00012313,210.042,-0.000151385,-0.000262137,5.55233e-05,0.0015932,-0.00071475,0.00266339,-1.92288e-09,-3.33185e-09,2.7673e-05,5.552484144688563e-05,0.002666939974101723,-1.9228799663650875e-09,0.0015944698173882,-3.3318500181067634e-09,-0.0007144946270649655
25,11.48,127.227,381.863,0.0776207,220.489,-0.00312833,-0.00540606,-3.52845e-05,0.00223293,-0.00121728,0.0039315,-5.66595e-08,-9.93373e-08,0.000935873,-3.5283877509395545e-05,0.003939238484084839,-5.665949842637019e-08,0.0022354248447846725,-9.933729505640088e-08,-0.0012165394152309217
26,14.19,132.201,396.705,0.000138153,229.008,-0.00568447,-0.00982848,-0.000127969,0.00287136,-0.00172502,0.0052006,-1.19878e-07,-2.11222e-07,0.00186425,-0.00012796081231669643,0.0052141465934705256,-1.1987799286572454e-07,0.002875486302546415,-2.1122197768619344e-07,-0.0017235330081529776
27,16.89,136.395,409.324,-5.2152e-06,236.284,-0.00775219,-0.0133984,-0.000222704,0.00350843,-0.00223498,0.00647092,-1.87615e-07,-3.31655e-07,0.00280605,-0.00022267920330487634,0.0064919016352358305,-1.8761498243868857e-07,0.0035145917444414643,-3.31654944951687e-07,-0.002232484291831871
28,19.6,140.053,420.33,5.47445e-06,242.629,-0.00951372,-0.0164375,-0.000318685,0.00414442,-0.00274675,0.00774151,-2.60187e-07,-4.61103e-07,0.00375738,-0.0003186342253292951,0.007771552964470185,-2.6018696619445336e-07,0.004153019985113859,-4.611028936452044e-07,-0.002742981133719624
29,22.3,143.303,430.106,2.49708e-06,248.265,-0.0110413,-0.0190715,-0.00041559,0.00477942,-0.00325978,0.00901201,-3.37031e-07,-5.98475e-07,0.00471572,-0.0004155036544377655,0.009052740424507988,-3.3703094315384874e-07,0.004790859645463996,-5.984748209231228e-07,-0.00325447268563428
30,25.01,146.23,438.912,1.12082e-06,253.342,-0.0123854,-0.0213879,-0.000513205,0.00541353,-0.00377368,0.0102822,-4.17655e-07,-7.42838e-07,0.00567939,-0.0005130733328388981,0.010335243463704513,-4.1765491276546385e-07,0.00542820963111712,-7.428377241103234e-07,-0.003766568617801336
31,27.71,148.897,446.934,4.60058e-07,257.967,-0.0135822,-0.0234495,-0.000611373,0.00604679,-0.00428819,0.0115518,-5.01637e-07,-8.9339e-07,0.00664717,-0.0006111861496078674,0.011618779705202975,-5.016368741506128e-07,0.0060651087392287195,-8.933896009644116e-07,-0.004279008841467702
32,30.42,151.347,454.307,1.34613e-07,262.218,-0.0146585,-0.0253028,-0.000709983,0.00667924,-0.00480311,0.0128208,-5.88614e-07,-1.04945e-06,0.00761817,-0.0007097310217069053,0.012903338817021437,-5.886138267907626e-07,0.006701595869177623,-1.0494494493418216e-06,-0.00479159351285996
33,33.12,153.617,461.134,-2.47121e-08,266.154,-0.0156346,-0.026983,-0.000808948,0.00731091,-0.0053183,0.014089,-6.78273e-07,-1.21043e-06,0.00859173,-0.0008086208897775116,0.014188717717794175,-6.782727699494728e-07,0.007337699949021559,-1.2104292674841588e-06,-0.005304182880002228
34,35.83,155.731,467.494,-9.88642e-08,269.821,-0.0165262,-0.0285172,-0.000908202,0.00794183,-0.00583365,0.0153564,-7.70346e-07,-1.37584e-06,0.00956732,-0.0009077897093874299,0.015474915389925847,-7.703457033381156e-07,0.007973449983290415,-1.3758390535745235e-06,-0.005816667303588763
35,38.53,157.712,473.452,-1.28609e-07,273.256,-0.0173457,-0.0299269,-0.00100769,0.00857201,-0.00634905,0.0166229,-8.646e-07,-1.54524e-06,0.0105445,-0.001007182450930455,0.016761829136377138,-8.645996262268696e-07,0.008608854880701955,-1.54523880613322e-06,-0.00632893736992457
36,41.24,159.575,479.058,-1.3529e-07,276.488,-0.018103,-0.0312294,-0.00110737,0.00920147,-0.00686445,0.0178885,-9.60832e-07,-1.71825e-06,0.011523,-0.0011067570921009517,0.018049457546719383,-9.608315384435073e-07,0.009243933667872684,-1.7182485237965395e-06,-0.006840943480295514
37,43.94,161.336,484.354,-1.30412e-07,279.542,-0.0188062,-0.0324385,-0.00120722,0.00983022,-0.00737977,0.0191531,-1.05886e-06,-1.89456e-06,0.0125026,-0.0012064916030769535,0.01933769727303125,-1.0588594394622675e-06,0.009878695323449982,-1.894558205317587e-06,-0.00735260635892121
38,46.65,163.005,489.374,-1.20287e-07,282.436,-0.0194619,-0.0335657,-0.00130719,0.0104583,-0.00789498,0.0204167,-1.15854e-06,-2.07386e-06,0.0134829,-0.0013063359993062962,0.020626546510763344,-1.158539328915964e-06,0.010513179166857123,-2.07385784956049e-06,-0.007863896500392209
39,49.35,164.592,494.148,-1.08405e-07,285.189,-0.0200756,-0.0346206,-0.00140726,0.0110856,-0.00841002,0.0216793,-1.25972e-06,-2.2559e-06,0.0144638,-0.0014062702739678912,0.021916003451254218,-1.2597192065033624e-06,0.011147272946869569,-2.2558974555053624e-06,-0.008374754711639287
40,52.06,166.105,498.7,-9.66863e-08,287.814,-0.020652,-0.0356111,-0.00150742,0.0117123,-0.00892486,0.0229409,-1.36229e-06,-2.44047e-06,0.0154452,-0.0015062844131455977,0.02320606628173283,-1.362289072104339e-06,0.01178115754981901,-2.440467022024606e-06,-0.008885151655268486
41,54.76,167.551,503.051,-8.61595e-08,290.322,-0.021195,-0.036544,-0.00160765,0.0123383,-0.00943948,0.0242014,-1.46613e-06,-2.62736e-06,0.0164269,-0.00160635842296597,0.024496630735651115,-1.4661289252648757e-06,0.012414730842195354,-2.627356548545734e-06,-0.00939506796070555
42,57.47,168.937,507.22,-7.73431e-08,292.726,-0.0217079,-0.0374252,-0.00170793,0.0129637,-0.00995385,0.0254608,-1.57114e-06,-2.81638e-06,0.0174088,-0.001706472317548946,0.025787694604672673,-1.5711387657546538e-06,0.013048093046581943,-2.8163760340538246e-06,-0.009904474396672969
43,60.17,170.267,511.221,-7.04596e-08,295.033,-0.0221936,-0.0382596,-0.00180826,0.0135884,-0.010468,0.0267191,-1.67724e-06,-3.00738e-06,0.0183908,-0.0018066260828834002,0.02707925567602887,-1.6772385934560319e-06,0.013681141902530891,-3.0073754778703332e-06,-0.010413401167601144
44,62.88,171.547,515.069,-6.55665e-08,297.251,-0.0226547,-0.0390514,-0.00190861,0.0142124,-0.0109818,0.0279763,-1.78435e-06,-3.20021e-06,0.0193727,-0.001906789762159411,0.028371311732521942,-1.7843484080293237e-06,0.014313876327687991,-3.200204879316715e-06,-0.010921720163748372
45,65.58,172.779,518.775,-6.26245e-08,299.388,-0.0230932,-0.0398046,-0.00200897,0.0148358,-0.0114953,0.0292324,-1.8924e-06,-3.39475e-06,0.0203547,-0.002006953370444986,0.02966386055252812,-1.8923982093577152e-06,0.014946396734316636,-3.394744237827929e-06,-0.011429481481568748
46,68.29,173.968,522.351,-6.1546e-08,301.45,-0.0235111,-0.0405223,-0.00210935,0.0154585,-0.0120084,0.0304874,-2.00132e-06,-3.59086e-06,0.0213364,-0.0021071268846728497,0.030956899910004276,-2.001317997324392e-06,0.01557860067183059,-3.590853552837281e-06,-0.0119365869055984
47,70.99,175.116,525.806,-6.22178e-08,303.442,-0.0239102,-0.0412075,-0.00220973,0.0160806,-0.0125213,0.0317413,-2.11104e-06,-3.78844e-06,0.022318,-0.002207290343987922,0.032250427574489926,-2.1110377717015183e-06,0.01621058867879621,-3.788432823892407e-06,-0.012443234689243687
48,73.7,176.227,529.148,-6.45186e-08,305.369,-0.0242918,-0.0418627,-0.0023101,0.016702,-0.0130338,0.0329941,-2.22152e-06,-3.9874e-06,0.0232994,-0.002307433772474221,0.033544441311113005,-2.2215175323747616e-06,0.016842258177988567,-3.987392050319727e-06,-0.012949227859640255
49,76.4,177.303,532.385,-6.83261e-08,307.235,-0.0246573,-0.0424902,-0.00241046,0.0173228,-0.0135459,0.0342457,-2.33271e-06,-4.18763e-06,0.0242804,-0.0024075571741445367,0.03483883539670396,-2.3327072792289627e-06,0.01747370983417973,-4.1876212318880945e-06,-0.013454567156882646
50,79.11,178.347,535.523,-7.35224e-08,309.045,-0.0250079,-0.0430921,-0.00251081,0.017943,-0.0140577,0.0354961,-2.44456e-06,-4.38906e-06,0.0252611,-0.002507660553010882,0.03613360719911696,-2.44455701203794e-06,0.018104942754113784,-4.389050368036607e-06,-0.013959351923971242
51,81.81,179.359,538.57,-7.99971e-08,310.801,-0.0253446,-0.0436702,-0.00261113,0.0185625,-0.0145691,0.0367455,-2.55702e-06,-4.5916e-06,0.0262414,-0.002607723965239561,0.03742896156732134,-2.5570167307975566e-06,0.018735854170783606,-4.591589458646794e-06,-0.014463484193788956
52,84.52,180.343,541.529,-8.76481e-08,312.508,-0.0256685,-0.0442261,-0.00271142,0.0191815,-0.0150801,0.0379937,-2.67006e-06,-4.79519e-06,0.0272213,-0.0027077474208432317,0.03872468889234404,-2.670056435394308e-06,0.01936664687471601,-4.795178503047559e-06,-0.014966964703139851
53,87.22,181.3,544.408,-9.63817e-08,314.168,-0.0259803,-0.0447614,-0.00281169,0.0197998,-0.0155908,0.0392407,-2.78364e-06,-4.99977e-06,0.0282008,-0.002807740901752287,0.04002078652831531,-2.783636125713862e-06,0.019997116161973416,-4.9997575011229145e-06,-0.015469892640686322
54,89.93,182.232,547.209,-1.06112e-07,315.783,-0.0262809,-0.0452773,-0.00291192,0.0204174,-0.016101,0.0404866,-2.89773e-06,-5.20526e-06,0.0291798,-0.002907684473125949,0.04131735595645769,-2.897725801531692e-06,0.020627260949595883,-5.205246452644197e-06,-0.015972071784667863
55,92.63,183.139,549.938,-1.16763e-07,317.356,-0.0265709,-0.0457751,-0.00301211,0.0210345,-0.0166109,0.0417313,-3.0123e-06,-5.41162e-06,0.0301583,-0.003007578147961487,0.04261429064928013,-3.0122954630673604e-06,0.021257284406071886,-5.411605357164007e-06,-0.01647369972435342
56,95.34,184.023,552.599,-1.28264e-07,318.89,-0.026851,-0.046256,-0.00311226,0.0216509,-0.0171203,0.0429749,-3.12731e-06,-5.61878e-06,0.0311362,-0.0031074219392486224,0.04391169233829473,-3.1273051099844906e-06,0.02188698144887069,-5.618764214676553e-06,-0.01697458043656519
57,98.04,184.886,555.194,-1.40551e-07,320.387,-0.0271218,-0.0467208,-0.00321237,0.0222667,-0.0176293,0.0442173,-3.24275e-06,-5.82671e-06,0.0321137,-0.0032072158599701917,0.04520945422761069,-3.2427447422822553e-06,0.02251645324652163,-5.826693024735263e-06,-0.017474813055121552
58,100.7,185.728,557.727,-1.53569e-07,321.847,-0.0273838,-0.0471706,-0.00331243,0.0228819,-0.018138,0.0454586,-3.35858e-06,-6.03535e-06,0.0330905,-0.0033069499561712012,0.04650767829921865,-3.3585743599573448e-06,0.023145698904677436,-6.035331787335174e-06,-0.01797449651245764
59,103.5,186.551,560.202,-1.67265e-07,323.274,-0.0276376,-0.0476062,-0.00341245,0.0234965,-0.0186462,0.0466987,-3.47478e-06,-6.24467e-06,0.0340668,-0.003406634209744075,0.047806257488685944,-3.4747739630081043e-06,0.02377471752884741,-6.244650502140736e-06,-0.018473435082301037
60,106.2,187.355,562.621,-1.81592e-07,324.669,-0.0278836,-0.0480284,-0.00351241,0.0241104,-0.019154,0.0479377,-3.59133e-06,-6.45462e-06,0.0350425,-0.0035062487037729184,0.049105294028669366,-3.5913235512108344e-06,0.024403405784053644,-6.45459916903679e-06,-0.018971727744751754
61,108.9,188.141,564.986,-1.9651e-07,326.033,-0.0281221,-0.0484379,-0.00361232,0.0247238,-0.0196614,0.0491755,-3.7082e-06,-6.66516e-06,0.0360175,-0.0036058034211262635,0.05040468058605385,-3.708193124674075e-06,0.025031967593359683,-6.6651377879090035e-06,-0.01946937522625114
62,111.6,188.911,567.301,-2.11979e-07,327.367,-0.0283537,-0.0488354,-0.00371217,0.0253365,-0.0201683,0.0504122,-3.82539e-06,-6.87626e-06,0.036992,-0.0037052884147839027,0.05170451964434908,-3.825382683175782e-06,0.02566019711836609,-6.87623635853285e-06,-0.01996628024873126
63,114.3,189.664,569.567,-2.27965e-07,328.674,-0.0285786,-0.0492215,-0.00381197,0.0259487,-0.0206749,0.0516477,-3.94287e-06,-7.08789e-06,0.0379658,-0.0038047136655974256,0.05300470360161946,-3.942862226935517e-06,0.026288298533268195,-7.08786488101687e-06,-0.020462639592719767
64,117.0,190.402,571.787,-2.44438e-07,329.953,-0.0287972,-0.0495968,-0.0039117,0.0265602,-0.021181,0.052882,-4.06062e-06,-7.30001e-06,0.0389389,-0.003904059267552662,0.05430522976188201,-4.060611755729582e-06,0.02691606574808514,-7.299983355024686e-06,-0.020958258023998866
65,119.7,191.125,573.962,-2.61367e-07,331.207,-0.0290098,-0.0499617,-0.00401138,0.0271712,-0.0216867,0.0541152,-4.17863e-06,-7.5126e-06,0.0399114,-0.004003345162433947,0.05560620098520652,-4.178621269557148e-06,0.027543703187969282,-7.512571780443622e-06,-0.021453234267624577
66,122.4,191.834,576.094,-2.78729e-07,332.437,-0.0292167,-0.050317,-0.004111,0.0277815,-0.0221919,0.0553472,-4.29689e-06,-7.72563e-06,0.0408832,-0.0041025614071456,0.05690750926612487,-4.296880768417388e-06,0.028171004511553077,-7.725600157382218e-06,-0.021947471238901728
67,125.1,192.529,578.185,-2.96498e-07,333.643,-0.0294182,-0.0506628,-0.00421055,0.0283912,-0.0226967,0.0565781,-4.41537e-06,-7.93907e-06,0.0418543,-0.004201698062548553,0.058209257716005824,-4.415360252307821e-06,0.028798071514954504,-7.939038485615946e-06,-0.02244106756122699
68,127.8,193.211,580.238,-3.14654e-07,334.826,-0.0296145,-0.0509998,-0.00431005,0.0290004,-0.0232011,0.0578079,-4.53406e-06,-8.1529e-06,0.0428247,-0.004300775064428719,0.0595114440113782,-4.534049721116595e-06,0.029425006245050955,-8.152866765254174e-06,-0.022934023952695504
69,130.5,193.881,582.252,-3.33176e-07,335.987,-0.0298058,-0.0513283,-0.00440947,0.0296089,-0.0237051,0.0590364,-4.65296e-06,-8.3671e-06,0.0437945,-0.0043997625606221336,0.06081385366167291,-4.652949174954735e-06,0.030051601983770437,-8.367064995962181e-06,-0.02342634113027331
70,133.2,194.538,584.23,-3.52047e-07,337.128,-0.0299924,-0.0516487,-0.00450883,0.0302169,-0.0242086,0.0602639,-4.77204e-06,-8.58163e-06,0.0447635,-0.00449868048588975,0.06211680218809845,-4.7720286138197565e-06,0.030678063782864973,-8.581593177958702e-06,-0.023917922201594277
71,135.9,195.184,586.173,-3.7125e-07,338.248,-0.0301745,-0.0519614,-0.00460813,0.0308242,-0.0247117,0.0614902,-4.8913e-06,-8.79649e-06,0.0457318,-0.004597528859014655,0.06342007496099944,-4.8912880376006385e-06,0.031304184673365265,-8.796451311021691e-06,-0.024408865587771
72,138.6,195.819,588.083,-3.9077e-07,339.349,-0.0303522,-0.0522666,-0.00470735,0.031431,-0.0252143,0.0627153,-5.01073e-06,-9.01165e-06,0.0466994,-0.004696287792689713,0.06472366924847117,-5.010717446296553e-06,0.03193016995735287,-9.011609395148668e-06,-0.024899074492109485
73,141.3,196.443,589.96,-4.10592e-07,340.431,-0.0305258,-0.0525647,-0.00480651,0.0320372,-0.0257165,0.0639393,-5.13032e-06,-9.22709e-06,0.0476662,-0.004794977215689666,0.06602768891686406,-5.130306839906673e-06,0.03255591567074423,-9.22704743056002e-06,-0.025388647234894535
74,144.0,197.057,591.805,-4.30705e-07,341.496,-0.0306954,-0.052856,-0.0049056,0.0326428,-0.0262183,0.0651621,-5.25005e-06,-9.4428e-06,0.0486323,-0.004893587195685112,0.0673320248833571,-5.250036218540366e-06,0.03318142091714593,-9.442755416921855e-06,-0.025877584527085662
75,146.7,197.66,593.621,-4.51095e-07,342.542,-0.0308612,-0.0531408,-0.00500462,0.0332478,-0.0267196,0.0663838,-5.36992e-06,-9.65876e-06,0.0495977,-0.0049921177543525985,0.0686367812663089,-5.369905581975587e-06,0.03380668480005378,-9.65871335434354e-06,-0.026365789715108057
76,149.4,198.254,595.407,-4.71752e-07,343.572,-0.0310233,-0.0534193,-0.00510357,0.0338522,-0.0272205,0.0676043,-5.48991e-06,-9.87495e-06,0.0505623,-0.005090568913349358,0.06994184871324949,-5.489894930432726e-06,0.034431706422854313,-9.87490124282342e-06,-0.026853360968624895
77,152.1,198.838,597.165,-4.92667e-07,344.586,-0.0311819,-0.0536917,-0.00520244,0.034456,-0.0277209,0.0688237,-5.61003e-06,-1.00914e-05,0.0515262,-0.005188930746203524,0.07124733159471908,-5.610014263801588e-06,0.03505648488882973,-1.009134908203091e-05,-0.02734020172907925
78,154.8,199.414,598.896,-5.13828e-07,345.584,-0.0313371,-0.0539584,-0.00530125,0.0350593,-0.028221,0.070042,-5.73026e-06,-1.0308e-05,0.0524893,-0.0052872231717392415,0.07255322754379434,-5.730243582080519e-06,0.03568112286926439,-1.0307946872734064e-05,-0.027826507283355117
79,157.6,199.98,600.6,-5.35229e-07,346.566,-0.0314891,-0.0542195,-0.00539998,0.035662,-0.0287205,0.0712591,-5.85059e-06,-1.05248e-05,0.0534517,-0.005385426316317554,0.07385942680335478,-5.850572885379712e-06,0.03630551602399401,-1.0524744614492931e-05,-0.02831198668439283
80,160.3,200.538,602.279,-5.5686e-07,347.534,-0.0316379,-0.0544753,-0.00549864,0.036264,-0.0292196,0.0724751,-5.97102e-06,-1.07417e-05,0.0544133,-0.0054835501496288686,0.0751660341225957,-5.971002173477125e-06,0.03692955976295953,-1.0741642308187416e-05,-0.028796835167835044
81,163.0,201.088,603.933,-5.78713e-07,348.488,-0.0317838,-0.0547258,-0.00559722,0.0368656,-0.0297183,0.07369,-6.09154e-06,-1.09589e-05,0.0553742,-0.00558158474905035,0.07647304712173697,-6.091521446593973e-06,0.03755356426784795,-1.0958839951502597e-05,-0.02928105343627596
82,165.7,201.63,605.563,-6.00783e-07,349.427,-0.0319267,-0.0549714,-0.00569573,0.0374665,-0.0302166,0.0749037,-6.21214e-06,-1.11762e-05,0.0563343,-0.005679540082267565,0.07778035563872288,-6.212120704729429e-06,0.038177217562483046,-1.117613754653135e-05,-0.029764642191204116
83,168.4,202.164,607.169,-6.23062e-07,350.353,-0.0320668,-0.0552123,-0.00579417,0.0380668,-0.0307144,0.0761163,-6.33282e-06,-1.13936e-05,0.0572936,-0.005777416170801741,0.07908806480179797,-6.332799947772472e-06,0.038800622442439536,-1.1393535093162654e-05,-0.030247505157757537
84,171.1,202.69,608.753,-6.45544e-07,351.267,-0.0322042,-0.0554485,-0.00589253,0.0386666,-0.0312117,0.0773277,-6.45356e-06,-1.16111e-05,0.0582521,-0.005875203094907411,0.08039606417876533,-6.453539175832468e-06,0.039423881952622475,-1.1611032591396508e-05,-0.030729643179887134
85,173.8,203.209,610.315,-6.68224e-07,352.167,-0.032339,-0.0556802,-0.00599081,0.0392658,-0.0317086,0.078538,-6.57438e-06,-1.18288e-05,0.0592099,-0.0059729008789995985,0.08170445915074387,-6.57435838880005e-06,0.0400468913776717,-1.1828730040019941e-05,-0.0312111539789256
86,176.5,203.721,611.855,-6.91095e-07,353.055,-0.0324713,-0.0559076,-0.00608902,0.0398645,-0.0322051,0.0797472,-6.69525e-06,-1.20466e-05,0.0601669,-0.00607051948676407,0.08301324731660187,-6.695227586894781e-06,0.04066975388682659,-1.204652744002388e-05,-0.03169203825157574
87,179.2,204.227,613.375,-7.14154e-07,353.932,-0.0326012,-0.0561309,-0.00618716,0.0404625,-0.0327011,0.0809553,-6.81617e-06,-1.22645e-05,0.0611231,-0.00616805893964234,0.08432242627100295,-6.816146770005638e-06,0.04129226051058055,-1.2264424791297301e-05,-0.03217219991066744
88,181.9,204.725,614.875,-7.37395e-07,354.796,-0.0327287,-0.0563501,-0.00628522,0.04106,-0.0331967,0.0821622,-6.93715e-06,-1.24824e-05,0.0620785,-0.006265509321712326,0.08563188504121699,-6.937125938022426e-06,0.0419146185471837,-1.24823220951642e-05,-0.03265173652940234
89,184.6,205.217,616.355,-7.60814e-07,355.65,-0.0328539,-0.0565655,-0.0063832,0.0416569,-0.0336919,0.083368,-7.05817e-06,-1.27005e-05,0.0630331,-0.0063628706572993465,0.08694172951472834,-7.058145091165535e-06,0.042536723031606716,-1.2700419348976588e-05,-0.0331306488010078
90,187.3,205.703,617.816,-7.84408e-07,356.492,-0.0329769,-0.056777,-0.0064811,0.0422533,-0.0341866,0.0845727,-7.17922e-06,-1.29186e-05,0.063987,-0.00646014297070463,0.08825195727350388,-7.179194229434138e-06,0.04315867738157464,-1.2918516555271431e-05,-0.03360884077850823
91,190.0,206.182,619.258,-8.08171e-07,357.323,-0.0330978,-0.056985,-0.00657893,0.0428491,-0.0346808,0.0857763,-7.30032e-06,-1.31368e-05,0.06494,-0.006557336220632259,0.08956256589532896,-7.300293352718867e-06,0.04378037650733768,-1.3136713712613712e-05,-0.03408631329621825
92,192.7,206.656,620.683,-8.321e-07,358.145,-0.0332167,-0.0571894,-0.00667668,0.0434443,-0.0351746,0.0869787,-7.42144e-06,-1.3355e-05,0.0658923,-0.006654440494967995,0.09087344386646246,-7.421412461128263e-06,0.04440181951052602,-1.3354910822438448e-05,-0.034563163730650937
93,195.4,207.123,622.089,-8.56193e-07,358.956,-0.0333335,-0.0573905,-0.00677435,0.044039,-0.035668,0.0881801,-7.54259e-06,-1.35733e-05,0.0668438,-0.006751455817944452,0.0921848067999067,-7.542561554774174e-06,0.04502310999500381,-1.35732078831996e-05,-0.03503939277030066
94,198.1,207.585,623.479,-8.80445e-07,359.757,-0.0334484,-0.0575882,-0.00687194,0.0446331,-0.0361609,0.0893803,-7.66376e-06,-1.37917e-05,0.0677945,-0.006848382213770821,0.09349643395503615,-7.66373063343373e-06,0.04564414268414585,-1.379160489489717e-05,-0.035514904654073365
95,200.8,208.041,624.852,-9.04853e-07,360.548,-0.0335615,-0.0577827,-0.00696946,0.0452266,-0.0366534,0.0905794,-7.78495e-06,-1.401e-05,0.0687444,-0.006945229637180139,0.09480843198020406,-7.784919697328974e-06,0.04626491667929011,-1.4009901860401186e-05,-0.03598979661178758
96,203.5,208.492,626.208,-9.29416e-07,361.33,-0.0336727,-0.0579742,-0.0070669,0.0458196,-0.0371455,0.0917774,-7.90616e-06,-1.42284e-05,0.0696935,-0.007041988179851688,0.09612079843226162,-7.906128746348884e-06,0.04688553577025467,-1.4228298776841619e-05,-0.03646406932850221
97,206.2,208.938,627.549,-9.54129e-07,362.103,-0.0337822,-0.0581626,-0.00716426,0.046412,-0.0376371,0.0929742,-8.02738e-06,-1.44469e-05,0.0706418,-0.007138657865925713,0.09743342112056652,-8.027347780714678e-06,0.04750589449375653,-1.4446795643996424e-05,-0.036937627181962696
98,208.9,209.378,628.874,-9.78992e-07,362.867,-0.03389,-0.0583481,-0.00726154,0.0470038,-0.0381283,0.09417,-8.1486e-06,-1.46653e-05,0.0715893,-0.007235238719519699,0.09874651694906755,-8.148566800203483e-06,0.04812599195085765,-1.4665192464957677e-05,-0.03741056725589964
99,211.7,209.814,630.184,-1.004e-06,363.622,-0.0339961,-0.0585308,-0.00735874,0.0475951,-0.038619,0.0953647,-8.26984e-06,-1.48837e-05,0.072536,-0.007331730764726707,0.10005997385012089,-8.269805804927977e-06,0.04874593211714573,-1.4883589238290362e-05,-0.0378827940202352
100,214.4,210.244,631.479,-1.02915e-06,364.369,-0.0341006,-0.0587107,-0.00745586,0.0481859,-0.0391093,0.0965582,-8.39107e-06,-1.51022e-05,0.073482,-0.007428134025616817,0.10137367922665286,-8.391034795107721e-06,0.04936571427946346,-1.510208596233742e-05,-0.03835440446157956
101,217.1,210.67,632.76,-1.05445e-06,365.107,-0.0342035,-0.058888,-0.00755291,0.048776,-0.0395992,0.0977507,-8.5123e-06,-1.53207e-05,0.0744271,-0.007524458450991145,0.10268785075817077,-8.5122637705215e-06,0.04998512772742347,-1.5320582638644886e-05,-0.03882539925923845
102,219.8,211.091,634.026,-1.07988e-06,365.837,-0.034305,-0.0590627,-0.00764987,0.0493657,-0.0400886,0.098942,-8.63353e-06,-1.55391e-05,0.0753714,-0.00762068421439932,0.10400226557051129,-8.633492731169312e-06,0.05060448655724681,-1.55389792687588e-05,-0.03929568302101771
103,222.5,211.507,635.279,-1.10545e-06,366.56,-0.0344049,-0.0592348,-0.00774676,0.0499548,-0.0405776,0.100132,-8.75476e-06,-1.57576e-05,0.0763149,-0.007716831188390616,0.10531681026550621,-8.75472167716218e-06,0.0512235799963463,-1.575747584969811e-05,-0.03976535258845215
104,225.2,211.919,636.518,-1.13116e-06,367.274,-0.0345035,-0.0594046,-0.00784357,0.0505433,-0.0410661,0.101321,-8.87597e-06,-1.5976e-05,0.0772577,-0.007812889472186946,0.10663181356745444,-8.875930608720495e-06,0.051842407145202385,-1.5975872384443868e-05,-0.04023431266088928
105,227.9,212.326,637.744,-1.157e-06,367.981,-0.0346006,-0.0595719,-0.00794029,0.0511313,-0.0415542,0.102509,-8.99718e-06,-1.61944e-05,0.0781996,-0.007908849168831389,0.10794727339039345,-8.997139525512843e-06,0.05246107235034936,-1.6194268871450035e-05,-0.040702659983417044
106,230.6,212.73,638.957,-1.18297e-06,368.68,-0.0346964,-0.059737,-0.00803694,0.0517187,-0.0420419,0.103696,-9.11837e-06,-1.64128e-05,0.0791407,-0.008004730145036332,0.1092631876445107,-9.118328427759614e-06,0.053079469589736306,-1.6412665310716612e-05,-0.041170395229632395
107,233.3,213.129,640.157,-1.20908e-06,369.372,-0.0347909,-0.0598998,-0.00813351,0.0523056,-0.0425291,0.104882,-9.23954e-06,-1.66312e-05,0.0800811,-0.008100522502837881,0.11057955423614652,-9.239497315571832e-06,0.05369770333338475,-1.663106170235462e-05,-0.04163742323581621
108,236.0,213.523,641.346,-1.23531e-06,370.057,-0.0348841,-0.0600604,-0.00823,0.0528919,-0.0430159,0.106067,-9.3607e-06,-1.68495e-05,0.0810206,-0.008196226266119266,0.11189637106779671,-9.3606561888393e-06,0.05431566743532312,-1.6849358048021124e-05,-0.04210384060298711
109,238.7,213.914,642.522,-1.26167e-06,370.735,-0.034976,-0.0602189,-0.00832641,0.0534777,-0.0435022,0.107251,-9.48184e-06,-1.70678e-05,0.0819593,-0.008291841458740512,0.11321363603811885,-9.48179504745017e-06,0.054933466488982674,-1.7067654345948036e-05,-0.04256955225833503
110,241.4,214.301,643.686,-1.28816e-06,371.406,-0.0350668,-0.0603754,-0.00842274,0.0540629,-0.0439882,0.108433,-9.60295e-06,-1.72861e-05,0.0828973,-0.008387368104538107,0.11453023251114391,-9.602903891847703e-06,0.05555099422456422,-1.728595059624638e-05,-0.043034750403631694
111,244.1,214.684,644.838,-1.31478e-06,372.071,-0.0351564,-0.0605298,-0.00851899,0.0546476,-0.0444737,0.109615,-9.72404e-06,-1.75043e-05,0.0838344,-0.008482806227324668,0.11584838612128712,-9.723992721699659e-06,0.056168355358826805,-1.750414680068424e-05,-0.04349924426730145
112,246.8,215.064,645.979,-1.34152e-06,372.729,-0.0352448,-0.0606823,-0.00861516,0.0552317,-0.0449587,0.110795,-9.84511e-06,-1.77225e-05,0.0847707,-0.008578155850889724,0.11716586437620946,-9.845061537117061e-06,0.05678544349823844,-1.772234295738251e-05,-0.0439630346555715
113,249.5,215.439,647.109,-1.36838e-06,373.38,-0.0353321,-0.0608329,-0.00871124,0.0558154,-0.0454433,0.111975,-9.96615e-06,-1.79406e-05,0.0857063,-0.008673407085732943,0.11848489817306151,-9.966100338099082e-06,0.05740246922304726,-1.7940439068442338e-05,-0.044426217930605416
114,252.2,215.811,648.228,-1.39537e-06,374.025,-0.0354183,-0.0609816,-0.00880725,0.0563984,-0.0459275,0.113153,-1.00872e-05,-1.81587e-05,0.086641,-0.0087685797830801,0.11980324973972745,-1.0087149124315964e-05,0.058019114597265276,-1.8158535131762576e-05,-0.04488879475699614
115,254.9,216.179,649.337,-1.42247e-06,374.664,-0.0355035,-0.0611285,-0.00890319,0.0569809,-0.0464113,0.11433,-1.02081e-05,-1.83767e-05,0.087575,-0.008863673963794949,0.12112203411703137,-1.0208047897530825e-05,0.05863559026262455,-1.8376531149444375e-05,-0.04535076579828723
116,257.6,216.544,650.435,-1.4497e-06,375.297,-0.0355876,-0.0612737,-0.00899904,0.0575629,-0.0468946,0.115506,-1.03291e-05,-1.85946e-05,0.0885081,-0.008958669827895949,0.12244124917557042,-1.0329046654988794e-05,0.05925189550358567,-1.8594427121487733e-05,-0.04581203629818176
117,260.3,216.906,651.522,-1.47705e-06,375.924,-0.0356708,-0.0614172,-0.00909481,0.0581444,-0.0473775,0.116681,-1.045e-05,-1.88126e-05,0.0894404,-0.009053577311369243,0.1237608927821432,-1.0449945398893767e-05,0.05986802960444937,-1.881242304413444e-05,-0.046272702429064116
118,263.0,217.264,652.6,-1.50451e-06,376.546,-0.035753,-0.061559,-0.0091905,0.0587253,-0.0478599,0.117855,-1.05709e-05,-1.90304e-05,0.090372,-0.009148396437862805,0.12508096279975112,-1.057084412825482e-05,0.060483885800960646,-1.9030218923132836e-05,-0.046732669524429116
119,265.8,217.619,653.668,-1.5321e-06,377.161,-0.0358342,-0.0616992,-0.00928611,0.0593057,-0.048342,0.119028,-1.06917e-05,-1.92482e-05,0.0913027,-0.009243127231001624,0.1264014570876062,-1.0691642843951854e-05,0.06109956930234839,-1.9248014754613685e-05,-0.047192128942859624
120,268.5,217.97,654.726,-1.5598e-06,377.771,-0.0359145,-0.0618378,-0.00938164,0.0598855,-0.0488236,0.1202,-1.08125e-05,-1.94659e-05,0.0922327,-0.009337769714387156,0.12772237350113214,-1.0812441545104967e-05,0.06171497322098585,-1.9465710540567116e-05,-0.04765089073485418
121,270.5,218.234,655.519,-1.70516e-06,378.228,-0.0359744,-0.0619413,-0.00945376,0.0603233,-0.0491871,0.121085,-1.09037e-05,-1.96303e-05,0.0929348,-0.009409213698134189,0.12872084956216812,-1.0903640554893457e-05,0.0621798937999507,-1.9630107326973345e-05,-0.047997006725679414
