,Time,S11,S22,S33,S12,S13,S23,LE11,LE22,LE33,LE12,LE13,LE23,SDV_EPBAR,E11,E12,E13,E22,E23,E33
0,0.0002705,0.000519365,0.0015581,-7.79048e-12,0.000899567,2.21372e-21,3.68811e-20,2.50301e-10,6.7501e-09,-3.0004e-09,1.1258e-08,2.76762e-26,4.61603e-25,0.0,2.5030089112476617e-10,1.1258000087721598e-08,0.0,6.750100034480511e-09,0.0,-3.0004000395322805e-09
1,0.000541,0.00103873,0.00311619,4.33681e-19,0.00179913,-3.08331e-20,-2.03577e-20,5.00425e-10,1.35001e-08,-6.00057e-09,2.25162e-08,-1.63975e-24,4.6912e-25,0.0,5.00425034744012e-10,2.2516200237632233e-08,0.0,1.3500100148888805e-08,0.0,-6.000569929831556e-09
2,0.00094675,0.00181778,0.00545333,6.50521e-19,0.00314848,1.87371e-20,6.55005e-20,8.75688e-10,2.36252e-08,-1.05009e-08,3.94034e-08,-1.73568e-24,1.95724e-24,0.0,8.756879665838824e-10,3.9403400764470575e-08,0.0,2.3625200240573463e-08,0.0,-1.0500899927379237e-08
3,0.0015554,0.00298635,0.00895905,1.73472e-18,0.00517251,4.73565e-20,4.89771e-20,1.4375e-09,3.88125e-08,-1.725e-08,6.47354e-08,4.1359e-25,7.16359e-25,0.0,1.4374998968946784e-09,6.473540214990692e-08,0.0,3.8812500768869995e-08,0.0,-1.7249999872959165e-08
4,0.0024683,0.00473921,0.0142176,0.0,0.00820854,1.00168e-19,-5.78319e-20,2.28125e-09,6.15937e-08,-2.7375e-08,1.02732e-07,-7.41318e-35,-1.284e-34,0.0,2.281250077729169e-09,1.027320053470504e-07,0.0,6.159370191660685e-08,0.0,-2.7374999600482397e-08
5,0.0038377,0.00736849,0.0221055,-8.67362e-19,0.0127626,9.88226e-21,-8.20239e-20,3.54688e-09,9.57656e-08,-4.25625e-08,1.59728e-07,7.653e-32,1.32554e-31,0.0,3.5468799008953056e-09,1.597280128162737e-07,0.0,9.576560455748506e-08,0.0,-4.256249908074494e-08
6,0.0058918,0.0113124,0.0339373,-6.07153e-18,0.0195937,-4.73565e-20,-4.89771e-20,5.44671e-09,1.47024e-07,-6.53456e-08,2.45219e-07,-1.14621e-23,6.61761e-24,0.0,5.446709971934638e-09,2.452190299706558e-07,0.0,1.4702401074373483e-07,0.0,-6.534559782167548e-08
7,0.008973,0.0172283,0.0516849,7.80626e-18,0.0298403,6.7121e-20,-1.15071e-19,8.29297e-09,2.2391e-07,-9.95156e-08,3.7346e-07,1.78232e-31,3.08708e-31,0.0,8.292970088419338e-09,3.734600697580248e-07,0.0,2.2391002496569e-07,0.0,-9.951559509779884e-08
8,0.013595,0.0261021,0.0783064,9.54098e-18,0.0452102,-1.3116e-19,-4.58503e-19,1.25671e-08,3.39241e-07,-1.50777e-07,5.65816e-07,2.77687e-23,-3.13146e-23,0.0,1.2567100027283118e-08,5.658161601473921e-07,0.0,3.392410574676319e-07,0.0,-1.5077698867216327e-07
9,0.020527,0.0394129,0.118239,6.07153e-18,0.0682651,-4.56883e-19,3.48265e-20,1.89735e-08,5.12236e-07,-2.27663e-07,8.54355e-07,1.1462e-23,-6.61759e-24,0.0,1.8973500104380037e-08,8.543553648987512e-07,0.0,5.122361312892565e-07,0.0,-2.276629741393421e-07
10,0.030926,0.059379,0.178137,-8.67362e-19,0.102847,-1.54031e-18,-2.55477e-19,2.8587e-08,7.71729e-07,-3.42996e-07,1.28716e-06,-2.95414e-23,1.77334e-24,0.0,2.858700032248862e-08,1.2871608283671065e-06,0.0,7.717292977993395e-07,0.0,-3.429959412049044e-07
11,0.046525,0.0893282,0.267985,-4.94396e-17,0.154721,-5.5365e-19,3.95969e-19,4.30043e-08,1.16097e-06,-5.15992e-07,1.93637e-06,-9.16942e-23,5.29396e-23,0.0,4.300430100911967e-08,1.9363718748444114e-06,0.0,1.1609706738191505e-06,0.0,-5.159918669006558e-07
12,0.069922,0.134252,0.402756,-2.1684e-17,0.232531,2.20493e-19,-2.49317e-18,6.46307e-08,1.74483e-06,-7.75487e-07,2.91018e-06,-5.29397e-23,-9.16942e-23,0.0,6.463070212348043e-08,2.910184234483637e-06,0.0,1.744831522154655e-06,0.0,-7.754866993003873e-07
13,0.105,0.201637,0.604912,1.99493e-17,0.349246,-1.22407e-18,-2.88023e-18,9.70596e-08,2.62061e-06,-1.16471e-06,4.37091e-06,-1.05879e-22,-1.83388e-22,0.0,9.705960479777787e-08,4.370919552521002e-06,0.0,2.62061343381248e-06,0.0,-1.1647093217659332e-06
14,0.1577,0.302715,0.908146,-9.1073e-17,0.524319,2.72256e-18,-2.74454e-19,1.45719e-07,3.93429e-06,-1.74858e-06,6.56199e-06,1.03982e-22,-2.43423e-22,0.0,1.4571901063575865e-07,6.562011529931411e-06,0.0,3.934297739371928e-06,0.0,-1.748578471238993e-06
15,0.2366,0.454332,1.363,-7.80626e-18,0.786926,-1.38381e-17,-7.8084e-18,2.18705e-07,5.90479e-06,-2.62436e-06,9.8486e-06,-2.11758e-22,-3.66776e-22,0.0,2.1870502386889257e-07,9.848648497623458e-06,0.0,5.904807433232406e-06,0.0,-2.624356556402141e-06
16,0.3551,0.681756,2.04527,4.77049e-17,1.18084,-5.94481e-18,-2.59681e-18,3.28182e-07,8.86055e-06,-3.93804e-06,1.47785e-05,5.57568e-28,9.65736e-28,0.0,3.281820537548441e-07,1.4778609202625859e-05,0.0,8.860589254755524e-06,0.0,-3.938032245964784e-06
17,0.5328,1.02289,3.06867,7.13839e-16,1.7717,-5.94479e-18,-2.59677e-18,4.92389e-07,1.32942e-05,-5.90853e-06,2.21733e-05,8.36561e-28,1.44897e-27,0.0,4.923891212538223e-07,2.2173545829451413e-05,0.0,1.3294288368159712e-05,0.0,-5.908512544672284e-06
18,0.7993,1.53459,4.60377,-2.85362e-16,2.65799,-3.98145e-18,-3.30361e-17,7.38697e-07,1.99445e-05,-8.86424e-06,3.32654e-05,7.35553e-27,1.27402e-26,0.0,7.38697272906208e-07,3.326595329955495e-05,0.0,1.9944698892881974e-05,0.0,-8.864200712777048e-06
19,1.199,2.30213,6.90638,-1.61763e-15,3.9874,2.21215e-18,-5.61484e-17,1.10814e-06,2.99199e-05,-1.32977e-05,4.99034e-05,-4.23505e-22,-7.33532e-22,0.0,1.1081406139368255e-06,4.990464519538662e-05,0.0,2.992034760462836e-05,0.0,-1.3297611585971758e-05
20,1.799,3.45341,10.3602,-3.17194e-15,5.98148,6.53581e-17,-1.44564e-17,1.66234e-06,4.48827e-05,-1.99479e-05,7.48599e-05,-1.09041e-26,-1.88864e-26,0.0,1.6623413816585497e-06,7.486270207235357e-05,0.0,4.4883707243537074e-05,0.0,-1.994770104196686e-05
21,2.698,5.18029,15.5409,-2.8485e-14,8.97252,-6.87866e-17,2.39178e-17,2.49357e-06,6.73263e-05,-2.99228e-05,0.000112294,-4.23518e-22,-7.33555e-22,0.0,2.4935731088859825e-06,0.00011230030520725798,0.0,6.732856646629592e-05,0.0,-2.9922352317468537e-05
22,4.047,31.1929,93.5787,-1.03264e-09,54.0277,-8.08225e-16,-1.7395e-16,1.5015e-05,0.000405403,-0.000180179,0.000676171,-3.02527e-20,1.82072e-21,0.0,1.5015112725613733e-05,0.0006763996551444329,0.0,0.00040548518690219915,0.0,-0.00018016276873877857
23,6.071,70.3658,211.097,-9.04826e-07,121.877,1.29847e-16,-7.14917e-16,3.38711e-05,0.000914519,-0.000406453,0.00152533,-2.03309e-20,-3.52142e-20,0.0,3.3871673632113186e-05,0.0015264939075101402,0.0,0.0009149373000056915,0.0,-0.00040637040916957634
24,8.776,121.252,363.77,0.000140241,210.019,-0.000279157,-0.000483386,5.55409e-05,0.00159319,-0.000714858,0.00266339,-3.54628e-09,-6.1448e-09,2.79173e-05,5.5542442424449945e-05,0.002666939974101723,-3.5462800473951006e-09,0.0015944598014436817,-6.1448000021613325e-09,-0.0007146025498937503
25,11.48,127.194,381.833,0.0861092,220.46,-0.00561653,-0.00970597,-3.3551e-05,0.00223286,-0.00121904,0.00393062,-1.01724e-07,-1.78347e-07,0.000936036,-3.3550437171459e-05,0.003938355017943707,-1.0172399478314276e-07,0.0022353546883076003,-1.7834698406993255e-07,-0.0012182972725747199
26,14.19,132.165,396.68,0.000165797,228.97,-0.0103524,-0.0178995,-0.00012437,0.00287123,-0.00172861,0.00519875,-2.17862e-07,-3.83847e-07,0.00186433,-0.00012436226637213554,0.005212286949019429,-2.1786197623718806e-07,0.002875355928741552,-3.8384692635506923e-07,-0.00172711681423654
27,16.89,136.351,409.304,-6.21798e-06,236.239,-0.0141303,-0.024422,-0.000217265,0.00350824,-0.00224036,0.00646811,-3.41434e-07,-6.03549e-07,0.00280603,-0.00021724139966905476,0.0064890733969660275,-3.4143394167518437e-07,0.0035144010766872125,-6.035488178124382e-07,-0.002237852266626539
28,19.6,140.002,420.314,6.13106e-06,242.579,-0.0173472,-0.0299722,-0.000311394,0.00414418,-0.00275394,0.00773772,-4.73813e-07,-8.39673e-07,0.00375726,-0.0003113455219204697,0.007767733517522579,-4.7381288770242946e-07,0.004152778988417927,-8.396726475234928e-07,-0.0027501513859081728
29,22.3,143.245,430.093,2.79444e-06,248.211,-0.0201364,-0.0347816,-0.00040644,0.00477914,-0.00326878,0.00900722,-6.13987e-07,-1.09026e-06,0.00471551,-0.00040635741445227413,0.00904790707345704,-6.139868115040414e-07,0.004790578304062487,-1.090259405645e-06,-0.0032634433550120523
30,25.01,146.166,438.903,1.24053e-06,253.284,-0.0225901,-0.0390103,-0.000502189,0.0054132,-0.00378451,0.0102764,-7.61055e-07,-1.35359e-06,0.00567907,-0.0005020629242097341,0.010329383536286096,-7.610547103631404e-07,0.005427877839862649,-1.353589083930018e-06,-0.003777357767439926
31,27.71,148.828,446.928,4.86009e-07,257.906,-0.0247744,-0.042773,-0.00059849,0.00604643,-0.00430085,0.011545,-9.14246e-07,-1.62821e-06,0.00664674,-0.0005983109405834908,0.011611900720889246,-9.142455821287143e-07,0.006064746555854761,-1.6282086744423552e-06,-0.004291614589421178
32,30.42,151.274,454.304,1.05733e-07,262.153,-0.0267385,-0.046155,-0.000695231,0.00667885,-0.00481762,0.0128129,-1.0729e-06,-1.91287e-06,0.00761764,-0.0006949893829247822,0.012895336912252198,-1.0728994244146861e-06,0.006701203255631949,-1.912868170417248e-06,-0.004806033882072902
33,33.12,153.539,461.133,-8.96599e-08,266.086,-0.0285193,-0.0492204,-0.000792326,0.00731049,-0.00533466,0.0140801,-1.23644e-06,-2.20651e-06,0.00859109,-0.0007920121926395796,0.014179691478373169,-1.2364392356634113e-06,0.007337276867276588,-2.2065075656607647e-06,-0.005320455970456162
34,35.83,155.649,467.496,-1.90839e-07,269.751,-0.0301457,-0.0520191,-0.000889711,0.00794138,-0.00585185,0.0153465,-1.40437e-06,-2.50821e-06,0.00956658,-0.0008893153245225216,0.015464862238026678,-1.4043690138576537e-06,0.007972996395339882,-2.508206854434647e-06,-0.0058347612755882405
35,38.53,157.626,473.456,-2.43474e-07,273.183,-0.0316404,-0.0545903,-0.000987331,0.00857154,-0.00636911,0.0166119,-1.57628e-06,-2.81718e-06,0.0105437,-0.000986843749120836,0.016750644817770555,-1.576278757631222e-06,0.008608380834651763,-2.8171760317885486e-06,-0.0063488702115139795
36,41.24,159.486,479.064,-2.71469e-07,276.413,-0.0330213,-0.0569654,-0.00108515,0.00920099,-0.00688636,0.0178765,-1.7518e-06,-3.13274e-06,0.0115221,-0.0010845614376506774,0.01803724102652815,-1.7517984656212349e-06,0.009243449230900591,-3.1327350930032694e-06,-0.006862703356843691
37,43.94,161.243,484.362,-2.87686e-07,279.464,-0.0343034,-0.0591699,-0.00118312,0.00982972,-0.00740353,0.01914,-1.93059e-06,-3.45428e-06,0.0125015,-0.0011824203894675867,0.019324344036660834,-1.9305881364672928e-06,0.009878190384228658,-3.4542740340315348e-06,-0.007376191380802921
38,46.65,162.909,489.385,-2.99164e-07,282.357,-0.0354987,-0.0612247,-0.00128123,0.0104578,-0.00792059,0.0204026,-2.11238e-06,-3.78128e-06,0.0134817,-0.0012804095752652067,0.020612155777912422,-2.1123777689258105e-06,0.01051267391039401,-3.7812728509445392e-06,-0.00788930478064831
39,49.35,164.493,494.16,-3.09775e-07,285.107,-0.0366174,-0.0631474,-0.00137944,0.0110851,-0.00843749,0.0216641,-2.2969e-06,-4.11329e-06,0.0144625,-0.0013784890099712843,0.021900470446053033,-2.29689736208627e-06,0.011146767373359623,-4.113281540485403e-06,-0.008401994282990266
40,52.06,166.004,498.714,-3.21627e-07,287.73,-0.0376678,-0.0649524,-0.00147774,0.0117118,-0.0089542,0.0229246,-2.48395e-06,-4.44987e-06,0.0154438,-0.001476648679874848,0.023189388158779467,-2.483946915043944e-06,0.011780651659366592,-4.449860099398073e-06,-0.008914230538329626
41,54.76,167.448,503.067,-3.3583e-07,290.237,-0.0386571,-0.0666523,-0.00157611,0.0123378,-0.00947067,0.0241841,-2.67331e-06,-4.79068e-06,0.0164254,-0.0015748685909185989,0.024478907097249092,-2.6733064266704076e-06,0.012414224634956561,-4.790668524656816e-06,-0.00942596444670274
42,57.47,168.831,507.237,-3.52923e-07,292.639,-0.0395915,-0.0682576,-0.00167454,0.0129632,-0.0099869,0.0254424,-2.8648e-06,-5.13537e-06,0.0174071,-0.0016731387401586195,0.02576882028473615,-2.8647958965066778e-06,0.013047586522661803,-5.135356814012226e-06,-0.009937196513058244
43,60.17,170.159,511.24,-3.73115e-07,294.944,-0.0404762,-0.0697773,-0.001773,0.0135878,-0.0105029,0.0266997,-3.05828e-06,-5.48366e-06,0.018389,-0.0017714291640011925,0.027059330531743253,-3.058275323430948e-06,0.013680533694028219,-5.483644964776602e-06,-0.010447937137244345
44,62.88,171.436,515.089,-3.96432e-07,297.161,-0.0413158,-0.0712195,-0.0018715,0.0142119,-0.0110185,0.0279558,-3.25359e-06,-5.83528e-06,0.0193709,-0.0018697498358558606,0.028350230336716464,-3.2535847070969126e-06,0.014313369170876555,-5.835262974818178e-06,-0.010958018670536696
45,65.58,172.666,518.797,-4.22793e-07,299.296,-0.0421144,-0.0725908,-0.00197002,0.0148353,-0.0115339,0.0292108,-3.45059e-06,-6.18998e-06,0.0203527,-0.001968080784240045,0.02964162005333848,-3.450584046715832e-06,0.014945889261245071,-6.18996084211787e-06,-0.011467639567127708
46,68.29,173.852,522.374,-4.52067e-07,301.357,-0.0428753,-0.0738975,-0.00206855,0.015458,-0.0120489,0.0304648,-3.64918e-06,-6.54756e-06,0.0213344,-0.002066412024872344,0.03093360054734995,-3.649173341724321e-06,0.015578092882657213,-6.547538564771749e-06,-0.011976602663504088
47,70.99,174.999,525.83,-4.84094e-07,303.347,-0.0436016,-0.0751447,-0.00216708,0.0160801,-0.0125636,0.0317175,-3.84924e-06,-6.9078e-06,0.0223158,-0.002164733577404654,0.03222586030666541,-3.849232591668361e-06,0.016210080573628938,-6.9077761412073e-06,-0.012485007456915942
48,73.7,176.108,529.173,-5.18709e-07,305.273,-0.0442962,-0.0763372,-0.00226561,0.0167016,-0.013078,0.0329692,-4.05067e-06,-7.27053e-06,0.0232971,-0.0022630454427915447,0.0335187063749256,-4.050661796095589e-06,0.016841851441166567,-7.270503569745124e-06,-0.012992854539612075
49,76.4,177.182,532.411,-5.55745e-07,307.138,-0.0449613,-0.0774792,-0.00236413,0.0173224,-0.013592,0.0342197,-4.25337e-06,-7.63558e-06,0.024278,-0.0023613376456014246,0.03481192993675597,-4.25336095444262e-06,0.017473302844777328,-7.635550849038886e-06,-0.013500045853044762
50,79.11,178.223,535.551,-5.95046e-07,308.946,-0.0455992,-0.0785743,-0.00246264,0.0179426,-0.0141056,0.0354691,-4.45728e-06,-8.0028e-06,0.0252586,-0.002459610189736061,0.036105631969389984,-4.4572700663714215e-06,0.018104535512218245,-8.002767977632885e-06,-0.014006582139841406
51,81.81,179.234,538.599,-6.36462e-07,310.701,-0.0462118,-0.0796259,-0.00256113,0.0185621,-0.0146189,0.0367174,-4.6623e-06,-8.37205e-06,0.0262388,-0.0025578531046767106,0.03739981022307948,-4.662289131540653e-06,0.018735446676523493,-8.372014954516338e-06,-0.014512562690211173
52,84.52,180.216,541.56,-6.79855e-07,312.407,-0.0468008,-0.080637,-0.00265959,0.0191811,-0.0151317,0.0379644,-4.86836e-06,-8.74319e-06,0.0272186,-0.0026560564238312656,0.03869425470482257,-4.868348149500434e-06,0.01936623912813884,-8.743151778456415e-06,-0.015017791096428978
53,87.22,181.172,544.439,-7.25099e-07,314.065,-0.0473678,-0.0816104,-0.00275803,0.0197994,-0.0156442,0.0392104,-5.07541e-06,-9.11611e-06,0.0281979,-0.0027542301294478655,0.039989274375894945,-5.075397120135605e-06,0.01999670816320842,-9.116068448444814e-06,-0.015522465144720887
54,89.93,182.101,547.242,-7.72079e-07,315.68,-0.0479143,-0.0825485,-0.00285643,0.020417,-0.0161563,0.0404552,-5.28338e-06,-9.49069e-06,0.0291768,-0.002852354285415526,0.04128465910482393,-5.283366042996285e-06,0.02062685269877318,-9.490644963583428e-06,-0.016026487024502933
55,92.63,183.007,549.972,-8.20687e-07,317.252,-0.0484415,-0.0834535,-0.0029548,0.0210341,-0.016668,0.0416988,-5.4922e-06,-9.86683e-06,0.0301552,-0.0029504388749548305,0.04258040623545867,-5.492184917854637e-06,0.02125687590323988,-9.866781322975804e-06,-0.016529857472779907
56,95.34,183.89,552.634,-8.70828e-07,318.785,-0.0489507,-0.0843275,-0.00305312,0.0216506,-0.0171793,0.0429413,-5.70184e-06,-1.02444e-05,0.031133,-0.0030484639688121984,0.04387661749469296,-5.701823744486134e-06,0.021886674882822144,-1.024434752627812e-05,-0.017032577225397305
57,98.04,184.751,555.23,-9.22415e-07,320.28,-0.0494428,-0.0851722,-0.00315141,0.0222664,-0.0176902,0.0441827,-5.91224e-06,-1.06234e-05,0.0321103,-0.003146449519709882,0.045173290606128846,-5.9122225227747904e-06,0.022516146491631694,-1.0623343571936061e-05,-0.01753464701704388
58,100.7,185.592,557.764,-9.75366e-07,321.74,-0.049919,-0.0859895,-0.00324966,0.0228816,-0.0182007,0.0454228,-6.12334e-06,-1.10037e-05,0.0330871,-0.0032443855698572888,0.04647021399495066,-6.123321252382574e-06,0.023145391961013617,-1.1003639459494785e-05,-0.01803606758125298
59,103.5,186.413,560.24,-1.02961e-06,323.166,-0.05038,-0.0867809,-0.00334785,0.0234962,-0.0187107,0.0466619,-6.33512e-06,-1.13852e-05,0.0340632,-0.0033422521987973575,0.04776769892789212,-6.335099933196808e-06,0.023774410396478096,-1.1385135188834994e-05,-0.018536741504084242
60,106.2,187.215,562.66,-1.08508e-06,324.559,-0.0508268,-0.0875478,-0.003446,0.0241102,-0.0192204,0.0478997,-6.54753e-06,-1.17678e-05,0.0350388,-0.0034400693562884888,0.0490654287849408,-6.547508564991311e-06,0.024403200903392985,-1.176773075972637e-05,-0.019036865859420105
61,108.9,188.0,565.026,-1.14171e-06,325.922,-0.05126,-0.0882915,-0.0035441,0.0247236,-0.0197296,0.0491364,-6.76054e-06,-1.21515e-05,0.0360138,-0.0035378270903894116,0.050363610565967054,-6.760517147652578e-06,0.025031762586986694,-1.2151426170836643e-05,-0.019536245134570862
62,111.6,188.768,567.342,-1.19946e-06,327.256,-0.0516805,-0.0890132,-0.00364214,0.0253364,-0.0202384,0.050372,-6.9741e-06,-1.25362e-05,0.0369881,-0.0036355154530596234,0.0516622419724464,-6.97407568106545e-06,0.02566009455235152,-1.2536121422157542e-05,-0.02003497820459421
63,114.3,189.52,569.608,-1.25826e-06,328.561,-0.0520888,-0.0897142,-0.00374013,0.0259486,-0.0207468,0.0516064,-7.18818e-06,-1.29219e-05,0.0379618,-0.0037331444254909973,0.052961215405398,-7.188154165116423e-06,0.026288195904443423,-1.2921816512578843e-05,-0.020533065797080585
64,117.0,190.257,571.829,-1.31808e-06,329.84,-0.0524857,-0.0903954,-0.00383807,0.0265601,-0.0212547,0.0528396,-7.40275e-06,-1.33084e-05,0.0389348,-0.0038307140232646253,0.05426052816782079,-7.402722599691991e-06,0.026915963056483694,-1.330831144363831e-05,-0.021030410741522232
65,119.7,190.979,574.005,-1.37886e-06,331.093,-0.0528715,-0.0910579,-0.00393595,0.0271711,-0.0217622,0.0540717,-7.61779e-06,-1.36958e-05,0.0399071,-0.003928214301234578,0.055560283114184594,-7.617760984679478e-06,0.027543600433604043,-1.3695706213012748e-05,-0.02152711175952693
66,122.4,191.686,576.138,-1.44058e-06,332.322,-0.053247,-0.0917024,-0.00403377,0.0277815,-0.0222693,0.0553027,-7.83326e-06,-1.4084e-05,0.0408788,-0.004025645277884848,0.05686047792841764,-7.833229320075574e-06,0.028171004511553077,-1.4083900820915929e-05,-0.02202316957506445
67,125.1,192.38,578.23,-1.50319e-06,333.527,-0.0536125,-0.0923299,-0.00413152,0.0283913,-0.022776,0.0565325,-8.04914e-06,-1.44729e-05,0.0418498,-0.004122997012915408,0.05816100447403616,-8.049107605767603e-06,0.02879817439476695,-1.4472795268116734e-05,-0.02251858491096581
68,127.8,193.061,580.283,-1.56666e-06,334.709,-0.0539685,-0.0929412,-0.00422922,0.0290005,-0.0232822,0.0577611,-8.2654e-06,-1.48625e-05,0.0428202,-0.004220289443294556,0.05946186003607279,-8.265365841642058e-06,0.02942510918755681,-1.4862389553615962e-05,-0.023013260790255896
69,130.5,193.73,582.299,-1.63096e-06,335.87,-0.0543155,-0.093537,-0.00432686,0.029609,-0.023788,0.0589886,-8.48203e-06,-1.52528e-05,0.0437898,-0.004317512627720288,0.06076314797134352,-8.481994027698114e-06,0.030051704988935724,-1.5252683676636458e-05,-0.023507295730978983
70,133.2,194.386,584.278,-1.69606e-06,337.01,-0.0546538,-0.094118,-0.00442443,0.030217,-0.0242933,0.0602149,-8.69899e-06,-1.56436e-05,0.0447587,-0.004414656628766056,0.0620647597398416,-8.69895216393246e-06,0.03067816685067659,-1.5643477639493142e-05,-0.02400059285243239
71,135.9,195.031,586.221,-1.76194e-06,338.129,-0.0549839,-0.0946848,-0.00452194,0.0308244,-0.0247983,0.0614401,-8.91627e-06,-1.60351e-05,0.0457269,-0.00451173142263972,0.06336679894981923,-8.916230250233248e-06,0.03130439093422299,-1.6034971438427803e-05,-0.024493348121864322
72,138.6,195.664,588.132,-1.82856e-06,339.229,-0.0553061,-0.095238,-0.00461938,0.0314313,-0.0253027,0.0626641,-9.13384e-06,-1.6427e-05,0.0466943,-0.004608727073824981,0.06466915679213647,-9.133798286597994e-06,0.03193047953645012,-1.6426865077523445e-05,-0.024985269604044347
73,141.3,196.287,590.01,-1.89592e-06,340.311,-0.0556207,-0.0957783,-0.00471675,0.0320375,-0.0258068,0.063887,-9.35169e-06,-1.68195e-05,0.0476611,-0.004705643603612031,0.06597193712665583,-9.351646273136893e-06,0.03255622543756531,-1.6819358553021857e-05,-0.025476650666634404
74,144.0,196.9,591.856,-1.96397e-06,341.374,-0.055928,-0.0963061,-0.00481406,0.0326431,-0.0263104,0.0651087,-9.56981e-06,-1.72125e-05,0.0486271,-0.004802490985247099,0.06727503087498188,-9.569764209516052e-06,0.033181730871618687,-1.7212351865802944e-05,-0.025967297070224715
75,146.7,197.502,593.672,-2.03272e-06,342.42,-0.0562283,-0.096822,-0.0049113,0.0332482,-0.0268135,0.0663293,-9.78816e-06,-1.76059e-05,0.0495923,-0.00489925928607271,0.06857854214876014,-9.788112096065227e-06,0.03380709832281026,-1.7605745017079677e-05,-0.026457209675219584
76,149.4,198.095,595.459,-2.10213e-06,343.449,-0.056522,-0.0973265,-0.00500847,0.0338526,-0.0273162,0.0675487,-1.00067e-05,-1.79997e-05,0.0505568,-0.004995948527324989,0.06988236160021799,-1.0006649933114176e-05,0.0344321201956197,-1.7999538006407967e-05,-0.026946486645845424
77,152.1,198.678,597.218,-2.17218e-06,344.462,-0.0568092,-0.0978199,-0.00510558,0.0344565,-0.0278185,0.068767,-1.02255e-05,-1.83939e-05,0.0515206,-0.005092568679296083,0.07118659359295632,-1.0225447719780512e-05,0.035057002417201666,-1.8393730833232702e-05,-0.02743512869287923
78,154.8,199.252,598.949,-2.24288e-06,345.459,-0.0570903,-0.0983028,-0.00520261,0.0350598,-0.0283203,0.0699842,-1.04445e-05,-1.87884e-05,0.0524836,-0.005189099864071012,0.07249123575882255,-1.0444445456392337e-05,0.03568164070995539,-1.878822349909992e-05,-0.027923039318287213
79,157.6,199.818,600.654,-2.31418e-06,346.441,-0.0573654,-0.0987754,-0.00529957,0.0356625,-0.0288217,0.0712002,-1.06637e-05,-1.91833e-05,0.0534459,-0.005285552052870401,0.07379617834580143,-1.0663643142949653e-05,0.036306034176881496,-1.918311600168643e-05,-0.02841031653576609
80,160.3,200.375,602.334,-2.38609e-06,347.408,-0.0576348,-0.0992383,-0.00539647,0.0362647,-0.0293226,0.0724151,-1.0883e-05,-1.95785e-05,0.0544074,-0.005381935213037092,0.07510152609580856,-1.0882940780332362e-05,0.036930285613905545,-1.9578308342427242e-05,-0.028896863942242335
81,163.0,200.923,603.988,-2.45859e-06,348.361,-0.0578987,-0.0996918,-0.00549329,0.0368662,-0.0298231,0.0736288,-1.11025e-05,-1.9974e-05,0.0553681,-0.0054782294723894065,0.07640716898714461,-1.1102438367438516e-05,0.037554186800173195,-1.9973800520989293e-05,-0.029382779451339602
82,165.7,201.464,605.619,-2.53167e-06,349.3,-0.0581572,-0.100136,-0.00559004,0.0374672,-0.0303232,0.0748415,-1.13222e-05,-2.03697e-05,0.0563281,-0.005574444799196332,0.07771331978543872,-1.1322135904157093e-05,0.03817794428678978,-2.0369492539029643e-05,-0.02986806376787854
83,168.4,201.997,607.226,-2.60531e-06,350.226,-0.0584107,-0.100572,-0.00568671,0.0380676,-0.0308228,0.0760529,-1.1542e-05,-2.07657e-05,0.0572873,-0.0056705712712697975,0.07901965278717338,-1.1541933391367998e-05,0.03880145348326991,-2.076548439433612e-05,-0.03035262063083699
84,171.1,202.523,608.81,-2.6795e-06,351.138,-0.0586592,-0.100999,-0.00578332,0.0386674,-0.031322,0.0772633,-1.17618e-05,-2.11619e-05,0.0582457,-0.005766628797245987,0.08032648891257965,-1.17617308302842e-05,0.03942471349206045,-2.1161676088565784e-05,-0.03083654780434586
85,173.8,203.041,610.373,-2.75424e-06,352.038,-0.058903,-0.101418,-0.00587985,0.0392667,-0.0318207,0.0784725,-1.19819e-05,-2.15583e-05,0.0592034,-0.00586259751256335,0.08163360982901002,-1.198182821737781e-05,0.04004782742029511,-2.155806762149659e-05,-0.03131974912169311
86,176.5,203.552,611.914,-2.82951e-06,352.926,-0.0591421,-0.101829,-0.0059763,0.0398654,-0.0323189,0.0796806,-1.2202e-05,-2.19548e-05,0.0601602,-0.005958477441149523,0.08294112103616258,-1.2201925555954674e-05,0.040670690490026695,-2.1954558995118667e-05,-0.03180222542785338
87,179.2,204.056,613.435,-2.9053e-06,353.801,-0.0593768,-0.102233,-0.00607269,0.0404635,-0.0328168,0.0808875,-1.24222e-05,-2.23516e-05,0.0611163,-0.006054288485821568,0.0842489117026739,-1.242212284480182e-05,0.04129330180336166,-2.2351350204896647e-05,-0.03228417110947912
88,181.9,204.554,614.935,-2.9816e-06,354.665,-0.0596072,-0.102629,-0.006169,0.041061,-0.0333142,0.0820934,-1.26424e-05,-2.27485e-05,0.0620716,-0.006150010787715932,0.08555719613685397,-1.2642320085243242e-05,0.0419156604623232,-2.2748241254810786e-05,-0.03276539327289563
89,184.6,205.045,616.416,-3.05841e-06,355.518,-0.0598335,-0.103018,-0.00626523,0.041658,-0.0338111,0.0832981,-1.28628e-05,-2.31455e-05,0.0630262,-0.006245644370694192,0.0868657549431775,-1.286271727451993e-05,0.04253786982263286,-2.3145232144972105e-05,-0.033245892758994366
90,187.3,205.53,617.877,-3.13572e-06,356.36,-0.0600557,-0.1034,-0.00636139,0.0422544,-0.0343076,0.0845016,-1.30832e-05,-2.35427e-05,0.0639799,-0.006341199195181835,0.08817458530994782,-1.3083114415279873e-05,0.04315982485675107,-2.3542422872835367e-05,-0.033725767034592624
91,190.0,206.008,619.32,-3.21351e-06,357.191,-0.0602741,-0.103776,-0.00645748,0.0428503,-0.0348037,0.0857041,-1.33037e-05,-2.394e-05,0.0649329,-0.006436675282129212,0.08948390231786063,-1.3303611506199076e-05,0.04378162904454119,-2.393971344050172e-05,-0.03420501679383481
92,192.7,206.481,620.745,-3.29179e-06,358.011,-0.0604887,-0.104145,-0.00655349,0.0434455,-0.0352993,0.0869055,-1.35242e-05,-2.43373e-05,0.065885,-0.006532062717788056,0.09079359485288108,-1.3524108548379488e-05,0.04440307279346167,-2.433700385029436e-05,-0.034683546198130744
93,195.4,206.947,622.153,-3.37054e-06,358.822,-0.0606996,-0.104508,-0.00664942,0.0440403,-0.0357945,0.0881057,-1.37448e-05,-2.47347e-05,0.0668364,-0.006627361525931241,0.09210355127302372,-1.374470554071916e-05,0.045024468525929784,-2.4734394099779067e-05,-0.03516145256667047
94,198.1,207.408,623.543,-3.44976e-06,359.622,-0.0609071,-0.104865,-0.00674528,0.0446344,-0.0362892,0.0893048,-1.39654e-05,-2.51322e-05,0.067787,-0.006722581663081373,0.0934138780907956,-1.3965302484209019e-05,0.04564550202241491,-2.5131884188955844e-05,-0.03563864015400431
95,200.8,207.864,624.916,-3.52945e-06,360.413,-0.0611111,-0.105216,-0.00684106,0.045228,-0.0367835,0.0905028,-1.4186e-05,-2.55298e-05,0.0687368,-0.006817713218286725,0.09472457286615943,-1.4185899379182132e-05,0.04626638145119877,-2.55294741173806e-05,-0.03611520618117903
96,203.5,208.314,626.273,-3.60959e-06,361.195,-0.0613117,-0.105561,-0.00693677,0.045821,-0.0372773,0.0916997,-1.44067e-05,-2.59274e-05,0.0696858,-0.0069127661461242385,0.09603563315493724,-1.4406596223981438e-05,0.04688700141103075,-2.5927063887820623e-05,-0.03659105499562543
97,206.2,208.759,627.615,-3.69018e-06,361.967,-0.0615092,-0.105901,-0.0070324,0.0464135,-0.0377707,0.0928954,-1.46273e-05,-2.6325e-05,0.070634,-0.007007730537502921,0.09734694677411593,-1.4627193021587992e-05,0.047507465753776845,-2.6324653500275907e-05,-0.03706628372052312
98,208.9,209.198,628.94,-3.77121e-06,362.73,-0.0617036,-0.106236,-0.00712795,0.0470054,-0.0382637,0.0940901,-1.4848e-05,-2.67226e-05,0.0715814,-0.007102606416082846,0.09865873060947417,-1.4847889769020739e-05,0.048127668953786396,-2.672224295452441e-05,-0.03754089304183861
99,211.7,209.633,630.251,-3.85269e-06,363.485,-0.0618949,-0.106565,-0.00722343,0.0475968,-0.0387562,0.0952837,-1.50687e-05,-2.71203e-05,0.072528,-0.007197403733526175,0.09997087260088833,-1.5068586467714695e-05,0.048747714986745905,-2.7119932248020895e-05,-0.038014787445939446
100,214.4,210.063,631.546,-3.9346e-06,364.231,-0.0620833,-0.106889,-0.00731883,0.0481876,-0.0392483,0.0964761,-1.52893e-05,-2.75179e-05,0.0734738,-0.0072921125835260225,0.10128326015934186,-1.52891831192159e-05,0.04936749820269415,-2.751752138607788e-05,-0.03848806390981263
101,217.1,210.487,632.827,-4.01694e-06,364.969,-0.0622688,-0.107209,-0.00741415,0.0487778,-0.0397399,0.0976675,-1.551e-05,-2.79156e-05,0.0744188,-0.007386732989674405,0.10259611094541699,-1.5509879720543296e-05,0.04998701770235403,-2.7915210363271825e-05,-0.03896062701206682
102,219.8,210.908,634.094,-4.09971e-06,365.699,-0.0624516,-0.107524,-0.0075094,0.0493675,-0.0402311,0.0988577,-1.57307e-05,-2.83132e-05,0.075363,-0.007481274900727142,0.10390920210220367,-1.5730576273131902e-05,0.05060637764702469,-2.8312799185137294e-05,-0.039432573632499524
103,222.5,211.323,635.348,-4.1829e-06,366.42,-0.0626317,-0.107834,-0.00760457,0.0499567,-0.0407219,0.100047,-1.59513e-05,-2.87108e-05,0.0763064,-0.007575728413153127,0.10522286232947753,-1.5951172778638778e-05,0.05122557732304567,-2.8710387848907004e-05,-0.03990390445131631
104,225.2,211.734,636.587,-4.26651e-06,367.134,-0.0628091,-0.10814,-0.00769966,0.0505453,-0.0412122,0.101235,-1.61719e-05,-2.91083e-05,0.0772491,-0.007670093550476653,0.10653664732369461,-1.6171769235517885e-05,0.051844510832120605,-2.9107876357570284e-05,-0.04037452418510823
105,227.9,212.141,637.814,-4.35053e-06,367.84,-0.062984,-0.108441,-0.00779468,0.0511333,-0.0417021,0.102422,-1.63925e-05,-2.95058e-05,0.0781909,-0.0077643802585553034,0.10785088617051342,-1.6392365643658202e-05,0.05246317727459893,-2.9505364708137805e-05,-0.04084452956849116
106,230.6,212.543,639.028,-4.43496e-06,368.539,-0.0631565,-0.108738,-0.00788961,0.0517208,-0.0421915,0.103608,-1.6613e-05,-2.99033e-05,0.0791319,-0.00785856871521129,0.10916557677893923,-1.661286200482781e-05,0.053081681058944286,-2.990285290083161e-05,-0.04131382540966111
107,233.3,212.942,640.229,-4.5198e-06,369.231,-0.0633265,-0.109031,-0.00798447,0.0523077,-0.0426805,0.104793,-1.68336e-05,-3.03006e-05,0.0800721,-0.007952678787671807,0.11048071705413909,-1.683345831571259e-05,0.05369991610088509,-3.0300140941408316e-05,-0.04178250834671837
108,236.0,213.336,641.417,-4.60505e-06,369.915,-0.0634943,-0.10932,-0.00807925,0.0528941,-0.0431691,0.105976,-1.7054e-05,-3.0698e-05,0.0810115,-0.008046700577013177,0.11179519310169672,-1.7053854581394745e-05,0.05431798693234313,-3.0697528821233e-05,-0.042250579054154414
109,238.7,213.726,642.594,-4.69069e-06,370.593,-0.0636597,-0.109605,-0.00817396,0.05348,-0.0436572,0.107159,-1.72745e-05,-3.10952e-05,0.0819502,-0.008140644025239396,0.11311122509457894,-1.727435079668105e-05,0.05493589283874578,-3.109471654927365e-05,-0.04271794247719607
110,241.4,214.112,643.758,-4.77674e-06,371.263,-0.0638229,-0.109887,-0.00826859,0.0540653,-0.0441449,0.10834,-1.74949e-05,-3.14924e-05,0.082888,-0.00823449923526598,0.1144265860191569,-1.7494746965107666e-05,0.05555352754999032,-3.1491904119551606e-05,-0.04318469510976897
111,244.1,214.494,644.911,-4.86318e-06,371.927,-0.063984,-0.110165,-0.00836314,0.05465,-0.0446322,0.109521,-1.77152e-05,-3.18895e-05,0.083825,-0.00832826623045868,0.11574350130265554,-1.771504308678562e-05,0.05617089016592147,-3.1888991535278244e-05,-0.043650837622994265
112,246.8,214.873,646.053,-4.95001e-06,372.585,-0.064143,-0.110439,-0.00845761,0.0552343,-0.045119,0.1107,-1.79355e-05,-3.22865e-05,0.0847612,-0.008421945034160161,0.11705973866014485,-1.7935339159835806e-05,0.056788191143963385,-3.2285978796564585e-05,-0.044116275098566415
113,249.5,215.248,647.183,-5.03723e-06,373.236,-0.0643,-0.110709,-0.008552,0.0558179,-0.0456054,0.111878,-1.81557e-05,-3.26833e-05,0.0856967,-0.008515535669688767,0.11837641039968072,-1.815553518624835e-05,0.0574051127325248,-3.2682765906733025e-05,-0.044581103886832896
114,252.2,215.619,648.303,-5.12484e-06,373.88,-0.0644549,-0.110977,-0.00864631,0.0564011,-0.0460913,0.113055,-1.83759e-05,-3.30801e-05,0.0866313,-0.008609038160340421,0.11969351439837239,-1.837573116414415e-05,0.05802197125273123,-3.307955285947184e-05,-0.045045229160087574
115,254.9,215.987,649.412,-5.21284e-06,374.519,-0.0646079,-0.111241,-0.00874055,0.0569837,-0.0465768,0.114232,-1.8596e-05,-3.34768e-05,0.0875651,-0.008702462442362946,0.12101216954113991,-1.859582709551333e-05,0.05863855444642718,-3.3476239658214446e-05,-0.04550874717322795
116,257.6,216.351,650.51,-5.30122e-06,375.151,-0.0647591,-0.111501,-0.00883471,0.0575657,-0.0470619,0.115407,-1.8816e-05,-3.38733e-05,0.0884981,-0.00879579862416291,0.12233013299224371,-1.8815822980133845e-05,0.0592548614130457,-3.387272630628324e-05,-0.045971658591732134
117,260.3,216.712,651.599,-5.38998e-06,375.778,-0.0649084,-0.111759,-0.00892879,0.0581472,-0.0475466,0.11658,-1.9036e-05,-3.42698e-05,0.0894304,-0.00888904672896873,0.12364739866352137,-1.903581881645966e-05,0.059870997239086954,-3.4269212797144455e-05,-0.046433964080026535
118,263.0,217.069,652.677,-5.47911e-06,376.399,-0.0650559,-0.112014,-0.0090228,0.0587282,-0.0480308,0.117753,-1.92559e-05,-3.46661e-05,0.0903618,-0.00898221669016308,0.12496621039401767,-1.9255714606369878e-05,0.060486961208688905,-3.4665499137664924e-05,-0.04689556899105152
119,265.8,217.423,653.745,-5.56863e-06,377.014,-0.0652017,-0.112265,-0.00911672,0.0593087,-0.0485146,0.118925,-1.94757e-05,-3.50623e-05,0.0912924,-0.009075288709641138,0.12628544371231754,-1.9475510349753478e-05,0.0611027526058312,-3.5061685324744296e-05,-0.047356569389785164
120,268.5,217.774,654.803,-5.65852e-06,377.623,-0.0653458,-0.112514,-0.00921057,0.0598886,-0.0489979,0.120096,-1.96954e-05,-3.54583e-05,0.0922223,-0.009168282629987812,0.12760509647279883,-1.9695206046832503e-05,0.061718264542504286,-3.545767136192701e-05,-0.047816870719023186
121,270.5,218.037,655.596,-5.89044e-06,378.08,-0.0654534,-0.1127,-0.00928143,0.0603264,-0.0493628,0.12098,-1.98614e-05,-3.57574e-05,0.0929243,-0.009238490477987082,0.1286023400948202,-1.986120276364911e-05,0.06218318656272537,-3.575676071176925e-05,-0.04816425895805909
