,Time,S11,S22,S33,S12,S13,S23,LE11,LE22,LE33,LE12,LE13,LE23,SDV_EPBAR,E11,E12,E13,E22,E23,E33
0,0.0002705,0.000519365,0.0015581,-7.79048e-12,0.000899567,2.21372e-21,3.68811e-20,2.50301e-10,6.7501e-09,-3.0004e-09,1.1258e-08,2.76762e-26,4.61603e-25,0.0,2.5030089112476617e-10,1.1258000087721598e-08,0.0,6.750100034480511e-09,0.0,-3.0004000395322805e-09
1,0.000541,0.00103873,0.00311619,4.33681e-19,0.00179913,-3.08331e-20,-2.03577e-20,5.00425e-10,1.35001e-08,-6.00057e-09,2.25162e-08,-1.63975e-24,4.6912e-25,0.0,5.00425034744012e-10,2.2516200237632233e-08,0.0,1.3500100148888805e-08,0.0,-6.000569929831556e-09
2,0.00094675,0.00181778,0.00545333,6.50521e-19,0.00314848,1.87371e-20,6.55005e-20,8.75688e-10,2.36252e-08,-1.05009e-08,3.94034e-08,-1.73568e-24,1.95724e-24,0.0,8.756879665838824e-10,3.9403400764470575e-08,0.0,2.3625200240573463e-08,0.0,-1.0500899927379237e-08
3,0.0015554,0.00298635,0.00895905,1.73472e-18,0.00517251,4.73565e-20,4.89771e-20,1.4375e-09,3.88125e-08,-1.725e-08,6.47354e-08,4.1359e-25,7.16359e-25,0.0,1.4374998968946784e-09,6.473540214990692e-08,0.0,3.8812500768869995e-08,0.0,-1.7249999872959165e-08
4,0.0024683,0.00473921,0.0142176,0.0,0.00820854,1.00168e-19,-5.78319e-20,2.28125e-09,6.15937e-08,-2.7375e-08,1.02732e-07,-7.41318e-35,-1.284e-34,0.0,2.281250077729169e-09,1.027320053470504e-07,0.0,6.159370191660685e-08,0.0,-2.7374999600482397e-08
5,0.0038377,0.00736849,0.0221055,-8.67362e-19,0.0127626,9.88226e-21,-8.20239e-20,3.54688e-09,9.57656e-08,-4.25625e-08,1.59728e-07,7.653e-32,1.32554e-31,0.0,3.5468799008953056e-09,1.597280128162737e-07,0.0,9.576560455748506e-08,0.0,-4.256249908074494e-08
6,0.0058918,0.0113124,0.0339373,-6.07153e-18,0.0195937,-4.73565e-20,-4.89771e-20,5.44671e-09,1.47024e-07,-6.53456e-08,2.45219e-07,-1.14621e-23,6.61761e-24,0.0,5.446709971934638e-09,2.452190299706558e-07,0.0,1.4702401074373483e-07,0.0,-6.534559782167548e-08
7,0.008973,0.0172283,0.0516849,7.80626e-18,0.0298403,6.7121e-20,-1.15071e-19,8.29297e-09,2.2391e-07,-9.95156e-08,3.7346e-07,1.78232e-31,3.08708e-31,0.0,8.292970088419338e-09,3.734600697580248e-07,0.0,2.2391002496569e-07,0.0,-9.951559509779884e-08
8,0.013595,0.0261021,0.0783064,9.54098e-18,0.0452102,-1.3116e-19,-4.58503e-19,1.25671e-08,3.39241e-07,-1.50777e-07,5.65816e-07,2.77687e-23,-3.13146e-23,0.0,1.2567100027283118e-08,5.658161601473921e-07,0.0,3.392410574676319e-07,0.0,-1.5077698867216327e-07
9,0.020527,0.0394129,0.118239,6.07153e-18,0.0682651,-4.56883e-19,3.48265e-20,1.89735e-08,5.12236e-07,-2.27663e-07,8.54355e-07,1.1462e-23,-6.61759e-24,0.0,1.8973500104380037e-08,8.543553648987512e-07,0.0,5.122361312892565e-07,0.0,-2.276629741393421e-07
10,0.030926,0.059379,0.178137,-8.67362e-19,0.102847,-1.54031e-18,-2.55477e-19,2.8587e-08,7.71729e-07,-3.42996e-07,1.28716e-06,-2.95414e-23,1.77334e-24,0.0,2.858700032248862e-08,1.2871608283671065e-06,0.0,7.717292977993395e-07,0.0,-3.429959412049044e-07
11,0.046525,0.0893282,0.267985,-4.94396e-17,0.154721,-5.5365e-19,3.95969e-19,4.30043e-08,1.16097e-06,-5.15992e-07,1.93637e-06,-9.16942e-23,5.29396e-23,0.0,4.300430100911967e-08,1.9363718748444114e-06,0.0,1.1609706738191505e-06,0.0,-5.159918669006558e-07
12,0.069922,0.134252,0.402756,-2.1684e-17,0.232531,2.20493e-19,-2.49317e-18,6.46307e-08,1.74483e-06,-7.75487e-07,2.91018e-06,-5.29397e-23,-9.16942e-23,0.0,6.463070212348043e-08,2.910184234483637e-06,0.0,1.744831522154655e-06,0.0,-7.754866993003873e-07
13,0.105,0.201637,0.604912,1.99493e-17,0.349246,-1.22407e-18,-2.88023e-18,9.70596e-08,2.62061e-06,-1.16471e-06,4.37091e-06,-1.05879e-22,-1.83388e-22,0.0,9.705960479777787e-08,4.370919552521002e-06,0.0,2.62061343381248e-06,0.0,-1.1647093217659332e-06
14,0.1577,0.302715,0.908146,-9.1073e-17,0.524319,2.72256e-18,-2.74454e-19,1.45719e-07,3.93429e-06,-1.74858e-06,6.56199e-06,1.03982e-22,-2.43423e-22,0.0,1.4571901063575865e-07,6.562011529931411e-06,0.0,3.934297739371928e-06,0.0,-1.748578471238993e-06
15,0.2366,0.454332,1.363,-7.80626e-18,0.786926,-1.38381e-17,-7.8084e-18,2.18705e-07,5.90479e-06,-2.62436e-06,9.8486e-06,-2.11758e-22,-3.66776e-22,0.0,2.1870502386889257e-07,9.848648497623458e-06,0.0,5.904807433232406e-06,0.0,-2.624356556402141e-06
16,0.3551,0.681756,2.04527,4.77049e-17,1.18084,-5.94481e-18,-2.59681e-18,3.28182e-07,8.86055e-06,-3.93804e-06,1.47785e-05,5.57568e-28,9.65736e-28,0.0,3.281820537548441e-07,1.4778609202625859e-05,0.0,8.860589254755524e-06,0.0,-3.938032245964784e-06
17,0.5328,1.02289,3.06867,7.13839e-16,1.7717,-5.94479e-18,-2.59677e-18,4.92389e-07,1.32942e-05,-5.90853e-06,2.21733e-05,8.36561e-28,1.44897e-27,0.0,4.923891212538223e-07,2.2173545829451413e-05,0.0,1.3294288368159712e-05,0.0,-5.908512544672284e-06
18,0.7993,1.53459,4.60377,-2.85362e-16,2.65799,-3.98145e-18,-3.30361e-17,7.38697e-07,1.99445e-05,-8.86424e-06,3.32654e-05,7.35553e-27,1.27402e-26,0.0,7.38697272906208e-07,3.326595329955495e-05,0.0,1.9944698892881974e-05,0.0,-8.864200712777048e-06
19,1.199,2.30213,6.90638,-1.61763e-15,3.9874,2.21215e-18,-5.61484e-17,1.10814e-06,2.99199e-05,-1.32977e-05,4.99034e-05,-4.23505e-22,-7.33532e-22,0.0,1.1081406139368255e-06,4.990464519538662e-05,0.0,2.992034760462836e-05,0.0,-1.3297611585971758e-05
20,1.799,3.45341,10.3602,-3.17194e-15,5.98148,6.53581e-17,-1.44564e-17,1.66234e-06,4.48827e-05,-1.99479e-05,7.48599e-05,-1.09041e-26,-1.88864e-26,0.0,1.6623413816585497e-06,7.486270207235357e-05,0.0,4.4883707243537074e-05,0.0,-1.994770104196686e-05
21,2.698,5.18029,15.5409,-2.8485e-14,8.97252,-6.87866e-17,2.39178e-17,2.49357e-06,6.73263e-05,-2.99228e-05,0.000112294,-4.23518e-22,-7.33555e-22,0.0,2.4935731088859825e-06,0.00011230030520725798,0.0,6.732856646629592e-05,0.0,-2.9922352317468537e-05
22,4.047,31.1929,93.5787,-1.03264e-09,54.0277,-8.08225e-16,-1.7395e-16,1.5015e-05,0.000405403,-0.000180179,0.000676171,-3.02527e-20,1.82072e-21,0.0,1.5015112725613733e-05,0.0006763996551444329,0.0,0.00040548518690219915,0.0,-0.00018016276873877857
23,6.071,70.3658,211.097,-9.04826e-07,121.877,1.29847e-16,-7.14917e-16,3.38711e-05,0.000914519,-0.000406453,0.00152533,-2.03309e-20,-3.52142e-20,0.0,3.3871673632113186e-05,0.0015264939075101402,0.0,0.0009149373000056915,0.0,-0.00040637040916957634
24,8.776,121.234,363.717,0.000155325,209.988,-0.000319531,-0.000553294,5.55359e-05,0.00159319,-0.000714983,0.0026634,-4.05986e-09,-7.03474e-09,2.82591e-05,5.553744214670253e-05,0.0026669500007709956,-4.059860003735594e-09,0.0015944598014436817,-7.0347400127346305e-09,-0.0007147274605606713
25,11.48,127.167,381.777,0.0923664,220.427,-0.00635999,-0.0109908,-3.22991e-05,0.00223308,-0.00122066,0.00392952,-1.15186e-07,-2.01949e-07,0.000936266,-3.2298578389711174e-05,0.003937250686360638,-1.1518599341009406e-07,0.00223557518010975,-2.0194897965009062e-07,-0.0012199152976225536
26,14.19,132.137,396.622,0.000183679,228.929,-0.0117019,-0.0202329,-0.000121772,0.00287171,-0.00173185,0.00519643,-2.46313e-07,-4.33979e-07,0.00186444,-0.00012176458609092222,0.005209954859219046,-2.463129696872457e-07,0.002875837309028073,-4.3397890581164944e-07,-0.0017303512131383592
27,16.89,136.32,409.244,-6.7798e-06,236.195,-0.0159686,-0.0275993,-0.000213327,0.00350897,-0.0022452,0.00646457,-3.85916e-07,-6.82184e-07,0.00280601,-0.00021330424741339282,0.006485510431952557,-3.859159255492628e-07,0.0035151336424674717,-6.821837673642861e-07,-0.00224268142373496
28,19.6,139.968,420.252,6.61792e-06,242.532,-0.0196014,-0.033867,-0.000306104,0.00414516,-0.00276039,0.00773296,-5.35457e-07,-9.4892e-07,0.00375711,-0.0003060571549505786,0.007762936554527533,-5.354568566318108e-07,0.004153763058623694,-9.489195498257885e-07,-0.0027565836266877364
29,22.3,143.208,430.031,3.01766e-06,248.161,-0.0227508,-0.0392976,-0.000399788,0.00478038,-0.00327686,0.00900123,-6.93787e-07,-1.23197e-06,0.00471521,-0.0003997080954262211,0.009041862894596076,-6.93786759375925e-07,0.004791824245152343,-1.2319692411777439e-06,-0.0032714969538532035
30,25.01,146.128,438.84,1.3359e-06,253.232,-0.0255208,-0.0440715,-0.00049417,0.00541471,-0.00379423,0.0102691,-8.59893e-07,-1.52939e-06,0.00567863,-0.0004940479181161361,0.010322008158706542,-8.598926303227117e-07,0.00542939603710435,-1.529388830467937e-06,-0.003787041004461922
31,27.71,148.787,446.863,5.16386e-07,257.852,-0.0279865,-0.0483189,-0.000589099,0.0060482,-0.00431222,0.0115365,-1.0329e-06,-1.83954e-06,0.00664615,-0.0005889255152523587,0.011603302056277798,-1.032899466513193e-06,0.0060665272920321645,-1.8395383080127559e-06,-0.004302935729402546
32,30.42,151.231,454.238,1.00706e-07,262.097,-0.030203,-0.0521358,-0.000684464,0.00668089,-0.00483063,0.0128032,-1.21206e-06,-2.16101e-06,0.0076169,-0.0006842298079514642,0.012885511875135869,-1.2120592655096019e-06,0.0067032569281813,-2.1610076650357968e-06,-0.004818981271349165
33,33.12,153.494,461.067,-1.155e-07,266.029,-0.0322125,-0.0555948,-0.000780181,0.0073128,-0.00534932,0.0140691,-1.39673e-06,-2.49259e-06,0.0085902,-0.0007798767379353366,0.014168535563124696,-1.396729024549792e-06,0.007339603819073615,-2.4925868935543605e-06,-0.005335037865686121
34,35.83,155.603,467.429,-2.30168e-07,269.692,-0.0340474,-0.0587523,-0.000876184,0.00794396,-0.00586817,0.0153342,-1.58636e-06,-2.83326e-06,0.00956554,-0.0008758002628820316,0.015452372097035427,-1.5863587417008773e-06,0.00797559696902539,-2.833255986267602e-06,-0.005850985919890861
35,38.53,157.579,473.389,-2.9266e-07,273.123,-0.0357332,-0.0616525,-0.000972423,0.0085744,-0.00638709,0.0165984,-1.78046e-06,-3.18211e-06,0.0105425,-0.0009719503499722171,0.016736918776716347,-1.7804584150349356e-06,0.008611265458745798,-3.1821049371050236e-06,-0.0063667358982145705
36,41.24,159.438,478.997,-3.28824e-07,276.351,-0.0372906,-0.064331,-0.00106886,0.00920411,-0.006906,0.0178617,-1.97861e-06,-3.53838e-06,0.0115207,-0.0010682889726176814,0.018022174186856033,-1.9786080425188146e-06,0.009246598075374424,-3.5383737398975157e-06,-0.00688220838180964
37,43.94,161.194,484.294,-3.52567e-07,279.401,-0.0387361,-0.0668167,-0.00116545,0.00983312,-0.00742484,0.019124,-2.18045e-06,-3.90138e-06,0.0125,-0.001164771126905051,0.019308034977628896,-2.18044762279046e-06,0.00988162397591319,-3.901372389591984e-06,-0.007397343968782888
38,46.65,162.858,489.316,-3.71499e-07,282.293,-0.0400836,-0.0691331,-0.00126217,0.0104614,-0.00794356,0.0203852,-2.38566e-06,-4.27053e-06,0.01348,-0.0012613737984613627,0.020594397280901067,-2.385657154269083e-06,0.010516311762568176,-4.270520881255457e-06,-0.007912093301590484
39,49.35,164.441,494.091,-3.898e-07,285.042,-0.0413442,-0.0713,-0.001359,0.0110891,-0.00846212,0.0216455,-2.59395e-06,-4.64529e-06,0.0144607,-0.0013580769776764257,0.021881463274070034,-2.593946635709443e-06,0.011150811968518193,-4.645279210624409e-06,-0.008426417041103695
40,52.06,165.951,498.645,-4.09743e-07,287.664,-0.0425278,-0.0733339,-0.00145591,0.011716,-0.00898049,0.0229047,-2.80507e-06,-5.02521e-06,0.0154418,-0.0014548506771910885,0.023169026892550404,-2.805066065758588e-06,0.011784901147027682,-5.0251973736648026e-06,-0.008940285840710271
41,54.76,167.394,502.997,-4.32519e-07,290.17,-0.0436422,-0.0752489,-0.0015529,0.0123423,-0.00949863,0.0241629,-3.01879e-06,-5.40987e-06,0.0164232,-0.0015516948746887582,0.02445718837463806,-3.0187854435093087e-06,0.012418780509218186,-5.409855366678151e-06,-0.009453660509543993
42,57.47,168.776,507.167,-4.58698e-07,292.571,-0.0446946,-0.0770569,-0.00164994,0.0129679,-0.0100165,0.0254199,-3.23491e-06,-5.7989e-06,0.0174048,-0.0016485795972953632,0.025745740745925394,-3.234904767723812e-06,0.013052347857507529,-5.798883186414194e-06,-0.00996650193831905
43,60.17,170.103,511.169,-4.88498e-07,294.875,-0.0456908,-0.0787682,-0.00174703,0.0135929,-0.0105341,0.0266759,-3.45325e-06,-6.19196e-06,0.0183866,-0.0017455048313904653,0.0270348868105581,-3.453244037499026e-06,0.013685703477932964,-6.191940829847198e-06,-0.010478810679975803
44,62.88,171.379,515.018,-5.21934e-07,297.091,-0.0466359,-0.0803916,-0.00184414,0.0142172,-0.0110515,0.0279307,-3.67365e-06,-6.58875e-06,0.0193683,-0.0018424406186231534,0.028324419069867712,-3.6736432521555784e-06,0.014318745045978964,-6.5887282942878045e-06,-0.01099065651739306
45,65.58,172.608,518.726,-5.5891e-07,299.226,-0.0475346,-0.0819351,-0.00194128,0.0148409,-0.0115685,0.0291845,-3.89595e-06,-6.98901e-06,0.0203499,-0.001939396934696802,0.029614540834824288,-3.895942410792053e-06,0.014951572974139182,-6.988985576938944e-06,-0.011501842195089873
46,68.29,173.794,522.303,-5.99272e-07,301.285,-0.0483907,-0.0834054,-0.00203842,0.0154639,-0.0120852,0.0304371,-4.12002e-06,-7.39248e-06,0.0213314,-0.0020363438328915295,0.03090504408212369,-4.120011512731558e-06,0.015584084811081533,-7.392452675669681e-06,-0.012012467261880988
47,70.99,174.939,525.759,-6.42839e-07,303.275,-0.0492078,-0.0848084,-0.00213558,0.0160863,-0.0126016,0.0316886,-4.34573e-06,-7.79893e-06,0.0223128,-0.002133301271456056,0.03219602941036115,-4.345720557297206e-06,0.01621638109566015,-7.798899588462582e-06,-0.012522532313655743
48,73.7,176.048,529.102,-6.89422e-07,305.2,-0.0499888,-0.0861495,-0.00223273,0.016708,-0.0131176,0.032939,-4.57298e-06,-8.20818e-06,0.0232938,-0.002230239312395965,0.03348749458129374,-4.572969543925609e-06,0.01684835924984074,-8.208146312971287e-06,-0.013031939248690061
49,76.4,177.121,532.339,-7.38833e-07,307.064,-0.0507366,-0.0874334,-0.00232987,0.0173291,-0.0136332,0.0341883,-4.80166e-06,-8.62001e-06,0.0242746,-0.0023271579595343095,0.034779437352292275,-4.801648472052555e-06,0.017480119938743544,-8.619972847845325e-06,-0.0135406888139048
50,79.11,178.162,535.479,-7.90894e-07,308.872,-0.0514535,-0.0886644,-0.002427,0.0179496,-0.0141485,0.0354364,-5.03168e-06,-9.03427e-06,0.025255,-0.002424057216693032,0.03607175186916711,-5.031667341115487e-06,0.018111662268910367,-9.034229191073884e-06,-0.014048880350164605
51,81.81,179.172,538.526,-8.45435e-07,310.627,-0.0521419,-0.0898461,-0.00252411,0.0185694,-0.0146635,0.0366833,-5.26294e-06,-9.45079e-06,0.0262351,-0.00252092711290286,0.03736443549269364,-5.262926150773062e-06,0.018742883472428584,-9.450745341421651e-06,-0.014556514449783786
52,84.52,180.154,541.487,-9.02301e-07,312.331,-0.0528036,-0.0909821,-0.0026212,0.0191887,-0.015178,0.0379291,-5.49537e-06,-9.86943e-06,0.0272147,-0.0026177676548891915,0.03865758944477715,-5.495354900464378e-06,0.01937398634099563,-9.869381297322732e-06,-0.01506339471696927
53,87.22,181.108,544.367,-9.61347e-07,313.989,-0.0534404,-0.0920753,-0.00271825,0.0198072,-0.0156921,0.0391738,-5.72889e-06,-1.029e-05,0.0281939,-0.002714558903667008,0.03995121146500846,-5.72887358996077e-06,0.020004664168560504,-1.0289947058095272e-05,-0.015569620489260916
54,89.93,182.037,547.169,-1.02244e-06,315.603,-0.0540539,-0.0931286,-0.00281528,0.0204252,-0.0162059,0.0404173,-5.96344e-06,-1.07125e-05,0.0291726,-0.0028113208155365887,0.04124519516409042,-5.9634222187021635e-06,0.02063522187327904,-1.0712442621407803e-05,-0.016075290900400496
55,92.63,182.942,549.899,-1.08547e-06,317.175,-0.0546457,-0.0941444,-0.00291228,0.0210426,-0.0167193,0.0416596,-6.19894e-06,-1.11367e-05,0.0301508,-0.002908043426294915,0.042539537884559,-6.198920786570916e-06,0.021265556623577986,-1.1136637987241294e-05,-0.01658030819701939
56,95.34,183.824,552.56,-1.15031e-06,318.707,-0.055217,-0.0951252,-0.00300923,0.0216593,-0.0172322,0.0429008,-6.43534e-06,-1.15626e-05,0.0311285,-0.003004706805651902,0.04383434134778219,-6.435319293229824e-06,0.021895565335567024,-1.1562533153375298e-05,-0.01708457482671355
57,98.04,184.685,555.156,-1.21687e-06,320.202,-0.055769,-0.0960729,-0.00310615,0.0222754,-0.0177447,0.0441409,-6.67259e-06,-1.19899e-05,0.0321057,-0.0031013309069886086,0.04512960327565296,-6.672567738341684e-06,0.02252534917836213,-1.198982812145033e-05,-0.017588189919723995
58,100.7,185.525,557.69,-1.28505e-06,321.661,-0.056303,-0.0969895,-0.00320302,0.0228909,-0.0182569,0.0453798,-6.91062e-06,-1.24187e-05,0.0330823,-0.0031978958038674232,0.04642521674319666,-6.910596121678658e-06,0.023154907257404878,-1.2418622888255015e-05,-0.01809125240354692
59,103.5,186.346,560.166,-1.35478e-06,323.086,-0.0568198,-0.0978767,-0.00329985,0.0235058,-0.0187686,0.0466175,-7.1494e-06,-1.28489e-05,0.0340583,-0.003294411478734771,0.04772117907480822,-7.149374443127243e-06,0.02378423867799362,-1.2848817453225969e-05,-0.018593566581649124
60,106.2,187.148,562.586,-1.42598e-06,324.479,-0.0573205,-0.0987363,-0.00339663,0.0241201,-0.0192799,0.0478541,-7.38888e-06,-1.32803e-05,0.0350337,-0.0033908679779866002,0.049017592492063944,-7.3888527022392125e-06,0.024413342545283045,-1.3280211817234822e-05,-0.019095231429508752
61,108.9,187.932,564.952,-1.49857e-06,325.842,-0.0578059,-0.0995696,-0.00349336,0.0247338,-0.0197908,0.0490896,-7.62901e-06,-1.37129e-05,0.0360085,-0.0034872653169946144,0.05031445469924867,-7.628980899232474e-06,0.025042217964287516,-1.3712805978616238e-05,-0.019596247680272016
62,111.6,188.7,567.267,-1.57249e-06,327.175,-0.0582769,-0.100378,-0.00359004,0.0253468,-0.0203012,0.0503238,-7.86975e-06,-1.41466e-05,0.0369826,-0.0035836035111204145,0.051611553073995564,-7.869719033548606e-06,0.025670761472802672,-1.4146499937361945e-05,-0.020096518075590986
63,114.3,189.451,569.534,-1.64769e-06,328.48,-0.0587341,-0.101163,-0.00368667,0.0259593,-0.0208113,0.0515569,-8.11107e-06,-1.45813e-05,0.0379561,-0.0036798825757152764,0.05290909511522335,-8.11103710540717e-06,0.026299177246889682,-1.4581193693352645e-05,-0.020596239376966863
64,117.0,190.187,571.754,-1.72411e-06,329.758,-0.0591782,-0.101926,-0.00378324,0.0265712,-0.0213208,0.0527889,-8.35293e-06,-1.5017e-05,0.038929,-0.003776092563880895,0.05420707851400275,-8.35289511436077e-06,0.026927361886937007,-1.5016887245367094e-05,-0.021095118492757692
65,119.7,190.909,573.93,-1.8017e-06,331.011,-0.05961,-0.102667,-0.00387976,0.0271824,-0.02183,0.0540197,-8.5953e-06,-1.54537e-05,0.0399012,-0.003872243455109947,0.05550539540655541,-8.595263060517944e-06,0.027555211741892682,-1.5453580592184046e-05,-0.02159344997245871
66,122.4,191.616,576.063,-1.88041e-06,332.239,-0.0600299,-0.103388,-0.00397622,0.0277931,-0.0223388,0.0552494,-8.83815e-06,-1.58912e-05,0.0408727,-0.003968325304404274,0.05680414876612949,-8.838110943654165e-06,0.028182931364381103,-1.589107373556331e-05,-0.02209113660289741
67,125.1,192.309,578.155,-1.9602e-06,333.444,-0.0604386,-0.10409,-0.00407261,0.0284031,-0.0228471,0.0564779,-9.08144e-06,-1.63295e-05,0.0418436,-0.004064328170595766,0.05810323046043697,-9.081398763877147e-06,0.028810314284849925,-1.6329366674394663e-05,-0.022588081368950186
68,127.8,192.99,580.208,-2.04104e-06,334.626,-0.0608366,-0.104773,-0.00416895,0.0290126,-0.0233549,0.0577052,-9.32515e-06,-1.67685e-05,0.0428137,-0.004160271991531683,0.05940263777337407,-9.325106520963189e-06,0.029437565306737357,-1.6768359409446987e-05,-0.02308428514442995
69,130.5,193.658,582.223,-2.12288e-06,335.786,-0.0612243,-0.105439,-0.00426523,0.0296215,-0.0238623,0.0589314,-9.56925e-06,-1.72083e-05,0.0437832,-0.004256146825055818,0.06070247405457008,-9.56920421490981e-06,0.030064580715721156,-1.720815193806402e-05,-0.023579846443613772
70,133.2,194.314,584.202,-2.2057e-06,336.925,-0.0616022,-0.106088,-0.00436145,0.0302298,-0.0243693,0.0601565,-9.81372e-06,-1.76488e-05,0.0447519,-0.004351952689314209,0.06200273696895553,-9.813671845604333e-06,0.03069135961564573,-1.76486442607926e-05,-0.024074765988760793
71,135.9,194.958,586.146,-2.28945e-06,338.044,-0.0619708,-0.106721,-0.0044576,0.0308374,-0.0248759,0.0613804,-1.00585e-05,-1.80898e-05,0.04572,-0.004447679646915836,0.06330331784685161,-1.0058449413485882e-05,0.03131779797845069,-1.808963638050276e-05,-0.02456904450099273
72,138.6,195.591,588.056,-2.37412e-06,339.144,-0.0623304,-0.107339,-0.00455369,0.0314445,-0.025382,0.0626031,-1.03037e-05,-1.85315e-05,0.0466873,-0.004543337673414971,0.06460421395434857,-1.0303646917120268e-05,0.031944101108682066,-1.8531328292770155e-05,-0.025062585206560795
73,141.3,196.214,589.934,-2.45967e-06,340.225,-0.0626814,-0.107942,-0.00464971,0.0320511,-0.0258877,0.0638247,-1.05491e-05,-1.89737e-05,0.0476538,-0.004638916833302753,0.06590552914360304,-1.0549044358487691e-05,0.03257026829772269,-1.8973520000464816e-05,-0.02555548641664629
74,144.0,196.826,591.78,-2.54608e-06,341.288,-0.0630242,-0.10853,-0.00474567,0.032657,-0.0263929,0.0650452,-1.07948e-05,-1.94164e-05,0.0486197,-0.004734427100187677,0.06720726106223562,-1.079474173637518e-05,0.03319609219748876,-1.941621150292061e-05,-0.02604765145355259
75,146.7,197.428,593.596,-2.63333e-06,342.334,-0.0633591,-0.109106,-0.00484156,0.0332623,-0.0268977,0.0662645,-1.10408e-05,-1.98595e-05,0.0495848,-0.00482985854043938,0.06850930050268267,-1.1040739050560688e-05,0.033821675105662585,-1.985930280146153e-05,-0.026539178527227647
76,149.4,198.02,595.383,-2.72139e-06,343.363,-0.0636865,-0.109668,-0.00493738,0.0338671,-0.027402,0.0674827,-1.1287e-05,-2.03032e-05,0.0505492,-0.004925211174976463,0.06981175169450493,-1.1286936302035144e-05,0.03444711957010771,-2.030299389144119e-05,-0.027029971055759106
77,152.1,198.603,597.142,-2.81024e-06,344.375,-0.0640065,-0.110218,-0.00503314,0.0344712,-0.0279059,0.0686997,-1.15334e-05,-2.07472e-05,0.0515128,-0.005020494974493195,0.07111450516101026,-1.1533333490576503e-05,0.035072217866970457,-2.074698477838588e-05,-0.02752012714814489
78,154.8,199.177,598.873,-2.89987e-06,345.372,-0.0643195,-0.110756,-0.00512883,0.0350748,-0.0284094,0.0699156,-1.17801e-05,-2.11916e-05,0.0524756,-0.00511570000817152,0.072417665383542,-1.178003061486077e-05,0.03569717605108069,-2.119137545963934e-05,-0.028009647517031278
79,157.6,199.742,600.578,-2.99025e-06,346.353,-0.0646258,-0.111282,-0.00522445,0.0356778,-0.0289124,0.0711304,-1.20269e-05,-2.16363e-05,0.0534377,-0.005210826296876414,0.07372122998828101,-1.2026827677091845e-05,0.03632188978049933,-2.163606593696965e-05,-0.028498435723790516
80,160.3,200.299,602.257,-3.08137e-06,347.32,-0.0649256,-0.111797,-0.00532,0.0362802,-0.029415,0.072344,-1.22739e-05,-2.20813e-05,0.0543991,-0.005305873861454091,0.07502508909467087,-1.2273824675945733e-05,0.03694635815789438,-2.2081056209932726e-05,-0.02898658972661916
81,163.0,200.847,603.911,-3.1732e-06,348.273,-0.0652192,-0.112302,-0.00541547,0.0368821,-0.0299171,0.0735564,-1.25211e-05,-2.25267e-05,0.0553597,-0.005400832776740527,0.07632923992917595,-1.2521021611311411e-05,0.037570684042895985,-2.252644627576128e-05,-0.0294740131820187
82,165.7,201.387,605.542,-3.26574e-06,349.211,-0.0655067,-0.112796,-0.00551088,0.0374833,-0.0304188,0.0747678,-1.27684e-05,-2.29723e-05,0.0563195,-0.005495722956477267,0.07763389524060083,-1.276831848429083e-05,0.03819465908624653,-2.2972036138768637e-05,-0.029960803947931103
83,168.4,201.92,607.149,-3.35897e-06,350.137,-0.0657884,-0.11328,-0.00560622,0.038084,-0.03092,0.075978,-1.30158e-05,-2.34182e-05,0.0572785,-0.005590534474513742,0.07893883724175943,-1.301571529488399e-05,0.038818489966806036,-2.341792579607649e-05,-0.03044686577572342
84,171.1,202.445,608.733,-3.45288e-06,351.049,-0.0660646,-0.113755,-0.00570148,0.0386841,-0.0314208,0.0771871,-1.32634e-05,-2.38643e-05,0.0582368,-0.005685257408474809,0.08024417117047022,-1.326331204154485e-05,0.03944207202971928,-2.3864015249897008e-05,-0.03093229642336326
85,173.8,202.963,610.296,-3.54745e-06,351.948,-0.0663353,-0.114221,-0.00579668,0.0392837,-0.0319211,0.078395,-1.35111e-05,-2.43106e-05,0.0591943,-0.005779911666355386,0.08154978647244548,-1.3511008725486384e-05,0.04006550838364897,-2.4310304499786106e-05,-0.03141699973681866
86,176.5,203.474,611.837,-3.64268e-06,352.836,-0.0666008,-0.114677,-0.0058918,0.0398827,-0.032421,0.0796018,-1.37589e-05,-2.47571e-05,0.060151,-0.005874477383540855,0.0828557886379655,-1.3758805346819614e-05,0.04068869424870414,-2.4756793545521738e-05,-0.03190107337436365
87,179.2,203.978,613.357,-3.73854e-06,353.711,-0.0668612,-0.115125,-0.00598685,0.0404811,-0.0329205,0.0808075,-1.40067e-05,-2.52037e-05,0.0611069,-0.005968964523893061,0.08416217525924163,-1.4006601906646488e-05,0.04131162872674987,-2.5203382389427098e-05,-0.0323845180378568
88,181.9,204.475,614.858,-3.83503e-06,354.575,-0.0671168,-0.115565,-0.00608182,0.0410789,-0.0334195,0.0820121,-1.42547e-05,-2.56505e-05,0.0620621,-0.0060633631687415646,0.08546894392430904,-1.4254598402207996e-05,0.041934310919566675,-2.5650171028734903e-05,-0.03286723771478006
89,184.6,204.966,616.338,-3.93214e-06,355.427,-0.0673677,-0.115996,-0.00617673,0.0416762,-0.0339181,0.0832155,-1.45027e-05,-2.60974e-05,0.0630164,-0.006157693218439841,0.08677598353942928,-1.4502594836374172e-05,0.042556844184529874,-2.6097059465768346e-05,-0.033349329914482695
90,187.3,205.45,617.8,-4.02986e-06,356.268,-0.067614,-0.11642,-0.00627156,0.0422729,-0.0344162,0.0844179,-1.47508e-05,-2.65444e-05,0.06397,-0.006251934815855953,0.08808350890875793,-1.4750691207487954e-05,0.043179123492022464,-2.654404770052743e-05,-0.033830698718399166
91,190.0,205.929,619.243,-4.12817e-06,357.099,-0.0678559,-0.116836,-0.00636631,0.042869,-0.0349139,0.0856191,-1.49989e-05,-2.69915e-05,0.0649228,-0.006346087984455462,0.08939130012181229,-1.499878751709538e-05,0.043801147943505425,-2.6991135732790106e-05,-0.034311441536873155
92,192.7,206.401,620.667,-4.22708e-06,357.92,-0.0680936,-0.117245,-0.00646099,0.0434645,-0.0354111,0.0868192,-1.52471e-05,-2.74387e-05,0.0658748,-0.006440162683278627,0.0906994634274747,-1.524698376353939e-05,0.044422916640360466,-2.7438323562334332e-05,-0.03479146254502963
93,195.4,206.867,622.075,-4.32657e-06,358.73,-0.068327,-0.117647,-0.0065556,0.0440595,-0.0359079,0.0880181,-1.54953e-05,-2.7886e-05,0.066826,-0.0065341589329243055,0.0920078871920802,-1.5495179948477045e-05,0.04504453318834578,-2.788561118916011e-05,-0.03527085905448435
94,198.1,207.328,623.465,-4.42663e-06,359.53,-0.0685565,-0.118042,-0.00665013,0.044654,-0.0364042,0.089216,-1.57435e-05,-2.83333e-05,0.0677765,-0.006628066820254186,0.09331678724931836,-1.574337607179732e-05,0.04566599687510342,-2.8332898615812674e-05,-0.03574953533379155
95,200.8,207.783,624.838,-4.52725e-06,360.321,-0.0687821,-0.11843,-0.00674459,0.0452479,-0.0369001,0.0904127,-1.59917e-05,-2.87806e-05,0.0687261,-0.006721896301426167,0.09462594262550317,-1.599157213350022e-05,0.046287202359356794,-2.8780185842514072e-05,-0.03622758859611652
96,203.5,208.233,626.195,-4.62844e-06,361.102,-0.069004,-0.118812,-0.00683897,0.0458412,-0.0373956,0.0916084,-1.624e-05,-2.92279e-05,0.0696749,-0.006815637465138136,0.09593556966959804,-1.623986813192868e-05,0.04690814874204641,-2.922747286904226e-05,-0.036705019532684124
97,206.2,208.677,627.536,-4.73017e-06,361.874,-0.0692221,-0.119188,-0.00693328,0.0464339,-0.0378906,0.0928029,-1.64882e-05,-2.96753e-05,0.070623,-0.006909300265630081,0.09724544687598202,-1.6488064070396824e-05,0.047528835124045044,-2.967485969262995e-05,-0.03718173255180923
98,208.9,209.117,628.862,-4.83245e-06,362.637,-0.0694368,-0.119557,-0.00702751,0.0470261,-0.0383851,0.0939963,-1.67365e-05,-3.01226e-05,0.0715702,-0.007002874793432867,0.09855568125363345,-1.673635994559053e-05,0.048149365421091384,-3.012214631903376e-05,-0.03765772848536808
99,211.7,209.551,630.172,-4.93526e-06,363.391,-0.069648,-0.119921,-0.00712167,0.0476178,-0.0388793,0.0951886,-1.69847e-05,-3.057e-05,0.0725167,-0.007096371000872015,0.0998662703448201,-1.6984555760823916e-05,0.04876973892001102,-3.056953274227503e-05,-0.03813320053712954
100,214.4,209.98,631.468,-5.03861e-06,364.137,-0.0698558,-0.120279,-0.00721575,0.0482089,-0.0393729,0.0963798,-1.72329e-05,-3.10173e-05,0.0734623,-0.007189778980307926,0.10117721168770477,-1.7232751514439926e-05,0.049389849968451305,-3.101681896855446e-05,-0.03860786083354617
101,217.1,210.405,632.749,-5.14249e-06,364.875,-0.0700604,-0.120631,-0.00730976,0.0487994,-0.0398662,0.0975699,-1.74811e-05,-3.14646e-05,0.0744072,-0.007283108682154649,0.10248850281635069,-1.7480947206438557e-05,0.05000969766687935,-3.146410499466068e-05,-0.03908199862009698
102,219.8,210.825,634.016,-5.24688e-06,365.604,-0.0702619,-0.120978,-0.00740369,0.0493894,-0.040359,0.0987589,-1.77293e-05,-3.19118e-05,0.0753513,-0.0073763502005994575,0.10380014126073034,-1.7729142836930833e-05,0.05062938617863755,-3.191129082391608e-05,-0.03955542234998888
103,222.5,211.24,635.269,-5.35179e-06,366.326,-0.0704603,-0.12132,-0.00749754,0.0499788,-0.0408513,0.0999468,-1.79774e-05,-3.23589e-05,0.0762945,-0.007469503558843571,0.10511212454672769,-1.7977238407462792e-05,0.05124880966502099,-3.235837645643169e-05,-0.040028132848329734
104,225.2,211.651,636.509,-5.45721e-06,367.039,-0.0706557,-0.121657,-0.00759132,0.0505677,-0.0413433,0.101134,-1.82255e-05,-3.2806e-05,0.077237,-0.007562578704437883,0.10642489276601541,-1.8225333916599418e-05,0.0518680724130518,-3.280546188910716e-05,-0.04050032283870575
105,227.9,212.057,637.735,-5.56314e-06,367.745,-0.0708482,-0.121989,-0.00768502,0.051156,-0.0418347,0.102319,-1.84735e-05,-3.3253e-05,0.0781787,-0.007655565734302927,0.10773678340563109,-1.847332936599777e-05,0.05248706845988704,-3.325244712515385e-05,-0.040971705151942706
106,230.6,212.46,638.948,-5.66956e-06,368.444,-0.0710379,-0.122316,-0.00777865,0.0517437,-0.0423258,0.103504,-1.87215e-05,-3.36999e-05,0.0791195,-0.007748474594087229,0.10905022955711363,-1.8721324753778745e-05,0.05310579690556594,-3.3699332164793816e-05,-0.041442568317628825
107,233.3,212.858,640.149,-5.77649e-06,369.135,-0.0712249,-0.122638,-0.0078722,0.052331,-0.0428164,0.104687,-1.89694e-05,-3.41468e-05,0.0800596,-0.007841295382528757,0.11036301233659174,-1.8969220082043492e-05,0.05372446759495397,-3.414621700470466e-05,-0.04191272125566636
108,236.0,213.251,641.338,-5.8839e-06,369.819,-0.0714092,-0.122956,-0.00796567,0.0529177,-0.0433065,0.10587,-1.92173e-05,-3.45935e-05,0.0809989,-0.007934028122717263,0.11167734905707283,-1.9217115348912905e-05,0.05434286913044328,-3.4592901651753216e-05,-0.042382164784445786
109,238.7,213.641,642.514,-5.9918e-06,370.497,-0.071591,-0.123269,-0.00805907,0.0535038,-0.0437962,0.107051,-1.94651e-05,-3.50401e-05,0.0819373,-0.008026682757451664,0.11299101557369973,-1.946491055615507e-05,0.05496100061177689,-3.5039486102839135e-05,-0.042850995435796846
110,241.4,214.027,643.679,-6.10019e-06,371.167,-0.0717702,-0.123579,-0.00815239,0.0540894,-0.0442855,0.108231,-1.97128e-05,-3.54866e-05,0.082875,-0.008119249388190752,0.11430512014129146,-1.9712605703992025e-05,0.05557896669654494,-3.548597035807344e-05,-0.04331921388474502
111,244.1,214.409,644.832,-6.20906e-06,371.831,-0.0719469,-0.123883,-0.00824563,0.0546744,-0.0447744,0.109411,-1.99605e-05,-3.5933e-05,0.0838119,-0.008211728037956112,0.11562077626751299,-1.996030079054467e-05,0.05619666105004506,-3.5932354417456125e-05,-0.04378682080525098
112,246.8,214.788,645.973,-6.31841e-06,372.488,-0.0721213,-0.124184,-0.0083388,0.0552589,-0.0452628,0.110589,-2.02081e-05,-3.63792e-05,0.0847479,-0.008304128646705489,0.1169357519105454,-2.0207895817692112e-05,0.05681418845323116,-3.6378538284975726e-05,-0.0442537212955888
113,249.5,215.162,647.104,-6.42823e-06,373.139,-0.0722934,-0.124481,-0.00843189,0.0558429,-0.0457507,0.111766,-2.04556e-05,-3.68253e-05,0.0856832,-0.008396441318609948,0.11825115925591101,-2.045539078565639e-05,0.057431548190784776,-3.682462195697678e-05,-0.04471991616748172
114,252.2,215.533,648.223,-6.53852e-06,373.783,-0.0724631,-0.124774,-0.00852491,0.0564263,-0.0462383,0.112942,-2.0703e-05,-3.72713e-05,0.0866177,-0.008488675991737193,0.11956699617965949,-2.0702785694326487e-05,0.058048633742352695,-3.7270605433681325e-05,-0.04518559719409776
115,254.9,215.901,649.332,-6.64928e-06,374.421,-0.0726307,-0.125063,-0.00861784,0.0570092,-0.0467254,0.114117,-2.09504e-05,-3.77171e-05,0.0875513,-0.00858081285787149,0.12088326055405152,-2.0950180541934316e-05,0.05866555007375829,-3.77163887190779e-05,-0.04565057403540129
116,257.6,216.265,650.431,-6.76051e-06,375.054,-0.0727962,-0.125349,-0.0087107,0.0575915,-0.047212,0.11529,-2.11976e-05,-3.81627e-05,0.0884842,-0.008672871769228152,0.12219882804817273,-2.1197375332460133e-05,0.05928219054101436,-3.816197181338854e-05,-0.046114847499181044
117,260.3,216.625,651.519,-6.8722e-06,375.68,-0.0729595,-0.125631,-0.00880349,0.0581733,-0.0476983,0.116463,-2.14448e-05,-3.86082e-05,0.0894163,-0.008764852745933416,0.1235159396083827,-2.1444570061923685e-05,0.0598986602331153,-3.860745471306881e-05,-0.04657860907607536
118,263.0,216.983,652.597,-6.98434e-06,376.301,-0.0731208,-0.125909,-0.00889619,0.0587546,-0.0481841,0.117635,-2.16918e-05,-3.90535e-05,0.0903476,-0.008856735985229847,0.12483347221289787,-2.169156473463829e-05,0.060514958434026545,-3.905273742199622e-05,-0.047041668701496286
119,265.8,217.336,653.665,-7.09695e-06,376.916,-0.0732801,-0.126184,-0.00898882,0.0593353,-0.0486694,0.118805,-2.19388e-05,-3.94986e-05,0.091278,-0.00894854133374512,0.12615029756800267,-2.193855934629063e-05,0.06113097831445069,-3.949781994061485e-05,-0.047504027179316455
120,268.5,217.687,654.723,-7.21001e-06,377.525,-0.0734374,-0.126456,-0.00908138,0.0599155,-0.0491543,0.119975,-2.21857e-05,-3.99436e-05,0.0922077,-0.00904026881154607,0.12746866451042593,-2.21854538992039e-05,0.06174682514795893,-3.9942802265047206e-05,-0.04796578051539313
121,270.5,217.95,655.516,-7.48097e-06,377.981,-0.0735549,-0.126659,-0.00915126,0.0603535,-0.0495204,0.120858,-2.23721e-05,-4.02796e-05,0.0929096,-0.009109514658083628,0.1284646590080456,-2.237184974640538e-05,0.062211972117123926,-4.027878878776203e-05,-0.04831425645073428
