,Time,S11,S22,S33,S12,S13,S23,LE11,LE22,LE33,LE12,LE13,LE23,SDV_EPBAR,E11,E12,E13,E22,E23,E33
0,0.0002705,0.000519365,0.0015581,-7.79048e-12,0.000899567,2.21372e-21,3.68811e-20,2.50301e-10,6.7501e-09,-3.0004e-09,1.1258e-08,2.76762e-26,4.61603e-25,0.0,2.5030089112476617e-10,1.1258000087721598e-08,0.0,6.750100034480511e-09,0.0,-3.0004000395322805e-09
1,0.000541,0.00103873,0.00311619,4.33681e-19,0.00179913,-3.08331e-20,-2.03577e-20,5.00425e-10,1.35001e-08,-6.00057e-09,2.25162e-08,-1.63975e-24,4.6912e-25,0.0,5.00425034744012e-10,2.2516200237632233e-08,0.0,1.3500100148888805e-08,0.0,-6.000569929831556e-09
2,0.00094675,0.00181778,0.00545333,6.50521e-19,0.00314848,1.87371e-20,6.55005e-20,8.75688e-10,2.36252e-08,-1.05009e-08,3.94034e-08,-1.73568e-24,1.95724e-24,0.0,8.756879665838824e-10,3.9403400764470575e-08,0.0,2.3625200240573463e-08,0.0,-1.0500899927379237e-08
3,0.0015554,0.00298635,0.00895905,1.73472e-18,0.00517251,4.73565e-20,4.89771e-20,1.4375e-09,3.88125e-08,-1.725e-08,6.47354e-08,4.1359e-25,7.16359e-25,0.0,1.4374998968946784e-09,6.473540214990692e-08,0.0,3.8812500768869995e-08,0.0,-1.7249999872959165e-08
4,0.0024683,0.00473921,0.0142176,0.0,0.00820854,1.00168e-19,-5.78319e-20,2.28125e-09,6.15937e-08,-2.7375e-08,1.02732e-07,-7.41318e-35,-1.284e-34,0.0,2.281250077729169e-09,1.027320053470504e-07,0.0,6.159370191660685e-08,0.0,-2.7374999600482397e-08
5,0.0038377,0.00736849,0.0221055,-8.67362e-19,0.0127626,9.88226e-21,-8.20239e-20,3.54688e-09,9.57656e-08,-4.25625e-08,1.59728e-07,7.653e-32,1.32554e-31,0.0,3.5468799008953056e-09,1.597280128162737e-07,0.0,9.576560455748506e-08,0.0,-4.256249908074494e-08
6,0.0058918,0.0113124,0.0339373,-6.07153e-18,0.0195937,-4.73565e-20,-4.89771e-20,5.44671e-09,1.47024e-07,-6.53456e-08,2.45219e-07,-1.14621e-23,6.61761e-24,0.0,5.446709971934638e-09,2.452190299706558e-07,0.0,1.4702401074373483e-07,0.0,-6.534559782167548e-08
7,0.008973,0.0172283,0.0516849,7.80626e-18,0.0298403,6.7121e-20,-1.15071e-19,8.29297e-09,2.2391e-07,-9.95156e-08,3.7346e-07,1.78232e-31,3.08708e-31,0.0,8.292970088419338e-09,3.734600697580248e-07,0.0,2.2391002496569e-07,0.0,-9.951559509779884e-08
8,0.013595,0.0261021,0.0783064,9.54098e-18,0.0452102,-1.3116e-19,-4.58503e-19,1.25671e-08,3.39241e-07,-1.50777e-07,5.65816e-07,2.77687e-23,-3.13146e-23,0.0,1.2567100027283118e-08,5.658161601473921e-07,0.0,3.392410574676319e-07,0.0,-1.5077698867216327e-07
9,0.020527,0.0394129,0.118239,6.07153e-18,0.0682651,-4.56883e-19,3.48265e-20,1.89735e-08,5.12236e-07,-2.27663e-07,8.54355e-07,1.1462e-23,-6.61759e-24,0.0,1.8973500104380037e-08,8.543553648987512e-07,0.0,5.122361312892565e-07,0.0,-2.276629741393421e-07
10,0.030926,0.059379,0.178137,-8.67362e-19,0.102847,-1.54031e-18,-2.55477e-19,2.8587e-08,7.71729e-07,-3.42996e-07,1.28716e-06,-2.95414e-23,1.77334e-24,0.0,2.858700032248862e-08,1.2871608283671065e-06,0.0,7.717292977993395e-07,0.0,-3.429959412049044e-07
11,0.046525,0.0893282,0.267985,-4.94396e-17,0.154721,-5.5365e-19,3.95969e-19,4.30043e-08,1.16097e-06,-5.15992e-07,1.93637e-06,-9.16942e-23,5.29396e-23,0.0,4.300430100911967e-08,1.9363718748444114e-06,0.0,1.1609706738191505e-06,0.0,-5.159918669006558e-07
12,0.069922,0.134252,0.402756,-2.1684e-17,0.232531,2.20493e-19,-2.49317e-18,6.46307e-08,1.74483e-06,-7.75487e-07,2.91018e-06,-5.29397e-23,-9.16942e-23,0.0,6.463070212348043e-08,2.910184234483637e-06,0.0,1.744831522154655e-06,0.0,-7.754866993003873e-07
13,0.105,0.201637,0.604912,1.99493e-17,0.349246,-1.22407e-18,-2.88023e-18,9.70596e-08,2.62061e-06,-1.16471e-06,4.37091e-06,-1.05879e-22,-1.83388e-22,0.0,9.705960479777787e-08,4.370919552521002e-06,0.0,2.62061343381248e-06,0.0,-1.1647093217659332e-06
14,0.1577,0.302715,0.908146,-9.1073e-17,0.524319,2.72256e-18,-2.74454e-19,1.45719e-07,3.93429e-06,-1.74858e-06,6.56199e-06,1.03982e-22,-2.43423e-22,0.0,1.4571901063575865e-07,6.562011529931411e-06,0.0,3.934297739371928e-06,0.0,-1.748578471238993e-06
15,0.2366,0.454332,1.363,-7.80626e-18,0.786926,-1.38381e-17,-7.8084e-18,2.18705e-07,5.90479e-06,-2.62436e-06,9.8486e-06,-2.11758e-22,-3.66776e-22,0.0,2.1870502386889257e-07,9.848648497623458e-06,0.0,5.904807433232406e-06,0.0,-2.624356556402141e-06
16,0.3551,0.681756,2.04527,4.77049e-17,1.18084,-5.94481e-18,-2.59681e-18,3.28182e-07,8.86055e-06,-3.93804e-06,1.47785e-05,5.57568e-28,9.65736e-28,0.0,3.281820537548441e-07,1.4778609202625859e-05,0.0,8.860589254755524e-06,0.0,-3.938032245964784e-06
17,0.5328,1.02289,3.06867,7.13839e-16,1.7717,-5.94479e-18,-2.59677e-18,4.92389e-07,1.32942e-05,-5.90853e-06,2.21733e-05,8.36561e-28,1.44897e-27,0.0,4.923891212538223e-07,2.2173545829451413e-05,0.0,1.3294288368159712e-05,0.0,-5.908512544672284e-06
18,0.7993,1.53459,4.60377,-2.85362e-16,2.65799,-3.98145e-18,-3.30361e-17,7.38697e-07,1.99445e-05,-8.86424e-06,3.32654e-05,7.35553e-27,1.27402e-26,0.0,7.38697272906208e-07,3.326595329955495e-05,0.0,1.9944698892881974e-05,0.0,-8.864200712777048e-06
19,1.199,2.30213,6.90638,-1.61763e-15,3.9874,2.21215e-18,-5.61484e-17,1.10814e-06,2.99199e-05,-1.32977e-05,4.99034e-05,-4.23505e-22,-7.33532e-22,0.0,1.1081406139368255e-06,4.990464519538662e-05,0.0,2.992034760462836e-05,0.0,-1.3297611585971758e-05
20,1.799,3.45341,10.3602,-3.17194e-15,5.98148,6.53581e-17,-1.44564e-17,1.66234e-06,4.48827e-05,-1.99479e-05,7.48599e-05,-1.09041e-26,-1.88864e-26,0.0,1.6623413816585497e-06,7.486270207235357e-05,0.0,4.4883707243537074e-05,0.0,-1.994770104196686e-05
21,2.698,5.18029,15.5409,-2.8485e-14,8.97252,-6.87866e-17,2.39178e-17,2.49357e-06,6.73263e-05,-2.99228e-05,0.000112294,-4.23518e-22,-7.33555e-22,0.0,2.4935731088859825e-06,0.00011230030520725798,0.0,6.732856646629592e-05,0.0,-2.9922352317468537e-05
22,4.047,31.1929,93.5787,-1.03264e-09,54.0277,-8.08225e-16,-1.7395e-16,1.5015e-05,0.000405403,-0.000180179,0.000676171,-3.02527e-20,1.82072e-21,0.0,1.5015112725613733e-05,0.0006763996551444329,0.0,0.00040548518690219915,0.0,-0.00018016276873877857
23,6.071,70.3658,211.097,-9.04826e-07,121.877,1.29847e-16,-7.14917e-16,3.38711e-05,0.000914519,-0.000406453,0.00152533,-2.03309e-20,-3.52142e-20,0.0,3.3871673632113186e-05,0.0015264939075101402,0.0,0.0009149373000056915,0.0,-0.00040637040916957634
24,8.776,121.193,363.59,0.00018643,209.916,-0.000280335,-0.000485419,5.54974e-05,0.00159318,-0.000715261,0.00266344,-3.56332e-09,-6.17444e-09,2.9076e-05,5.5498940009224285e-05,0.0026669901074498625,-3.5633199724216524e-09,0.0015944497854989415,-6.174439959316658e-09,-0.0007150052618277725
25,11.48,127.119,381.627,0.103671,220.353,-0.00549085,-0.00948887,-3.04465e-05,0.00223392,-0.00122372,0.003927,-9.94375e-08,-1.74339e-07,0.000936818,-3.0446036510034524e-05,0.003934720767676536,-9.943749501584165e-08,0.0022364170583466514,-1.7433898480412324e-07,-0.0012229715600056146
26,14.19,132.093,396.46,0.000217507,228.844,-0.00998017,-0.017256,-0.000117897,0.00287348,-0.00173789,0.00519112,-2.1042e-07,-3.70756e-07,0.0018647,-0.00011789005042173173,0.005204617208530049,-2.104199778862892e-07,0.0028776124008311754,-3.707559312893238e-07,-0.0017363807436078238
27,16.89,136.276,409.069,-7.62552e-06,236.106,-0.0136043,-0.0235132,-0.00020743,0.00351166,-0.00225421,0.00645651,-3.29194e-07,-5.81938e-07,0.00280597,-0.00020740848788491917,0.006477398191431005,-3.2919394576946814e-07,0.0035178331018075326,-5.819378307014844e-07,-0.002251671176676462
28,19.6,139.923,420.067,7.52231e-06,242.44,-0.0166895,-0.0288362,-0.000298159,0.00414878,-0.0027724,0.00772211,-4.5639e-07,-8.08826e-07,0.00375673,-0.00029811455502271045,0.007752002385983836,-4.5638989587537537e-07,0.004157398101825249,-8.088256728822074e-07,-0.002768560448197399
29,22.3,143.164,429.837,3.44874e-06,248.067,-0.0193629,-0.033446,-0.000389778,0.00478493,-0.00329188,0.00898757,-5.91021e-07,-1.04951e-06,0.0047145,-0.00038970204642396755,0.009028079476889772,-5.910208253911975e-07,0.004796396058353469,-1.0495094492357637e-06,-0.003286467703538465
30,25.01,146.083,438.638,1.54549e-06,253.136,-0.0217131,-0.0374966,-0.000482079,0.00542019,-0.00381228,0.0102526,-7.32225e-07,-1.30236e-06,0.00567757,-0.00048196281858914336,0.010305337983101293,-7.322247319585529e-07,0.005434905805291379,-1.3023591519667477e-06,-0.003805022486088383
31,27.71,148.743,446.655,6.22516e-07,257.753,-0.023804,-0.0410987,-0.000574915,0.00605462,-0.00433331,0.0115172,-8.79258e-07,-1.56596e-06,0.00664474,-0.00057474976803773,0.011583778300952918,-8.792576134952768e-07,0.0060729862598705164,-1.565958773874776e-06,-0.004323934759052461
32,30.42,151.187,454.024,1.60108e-07,261.997,-0.0256827,-0.0443339,-0.000668178,0.00668824,-0.00485477,0.012781,-1.03149e-06,-1.83911e-06,0.00761513,-0.0006679548187912276,0.01286302606636558,-1.0314894680618636e-06,0.006710656224311995,-1.839108308865356e-06,-0.004843004651177929
33,33.12,153.45,460.847,-7.38214e-08,265.927,-0.0273849,-0.0472642,-0.000761785,0.00732109,-0.00537652,0.0140441,-1.18836e-06,-2.12079e-06,0.00858807,-0.0007614949154722828,0.01414318166666062,-1.1883592938577436e-06,0.007347954699003623,-2.1207877510809325e-06,-0.005362092384712969
34,35.83,155.559,467.204,-1.90711e-07,269.589,-0.0289384,-0.0499376,-0.000855673,0.0079532,-0.00589844,0.0153064,-1.3494e-06,-2.41013e-06,0.00956304,-0.0008553070162534704,0.015424142913478711,-1.3493990895785402e-06,0.007984910706570814,-2.4101270956755627e-06,-0.00588107835509577
35,38.53,157.535,473.159,-2.46842e-07,273.018,-0.0303648,-0.0523918,-0.00094979,0.00858457,-0.00642042,0.0165677,-1.51422e-06,-2.70636e-06,0.0105396,-0.0009493390922451495,0.016705705432437323,-1.5142188535266499e-06,0.008621523087475547,-2.7063563378115774e-06,-0.006399853143005174
36,41.24,159.394,478.762,-2.7175e-07,276.246,-0.0316818,-0.054657,-0.0010441,0.00921522,-0.0069424,0.0178281,-1.68244e-06,-3.00883e-06,0.0115175,-0.001043555117248962,0.01798796921644996,-1.6824385846714307e-06,0.00925781086736599,-3.0088254734383924e-06,-0.006918357211511905
37,43.94,161.15,484.055,-2.81374e-07,279.295,-0.0329034,-0.0567577,-0.00113856,0.00984517,-0.00746432,0.0190876,-1.85375e-06,-3.31696e-06,0.0124964,-0.0011379120864825065,0.01927093284041881,-1.8537482817659878e-06,0.00989379312280092,-3.3169544988442823e-06,-0.00743653114808307
38,46.65,162.815,489.073,-2.84466e-07,282.185,-0.0340414,-0.0587143,-0.00123315,0.0104744,-0.00798612,0.020346,-2.0279e-06,-3.63024e-06,0.0134761,-0.0012323899829758123,0.02055439076466059,-2.0278979437904354e-06,0.010529448560010035,-3.6302334106563805e-06,-0.007954315664401301
39,49.35,164.398,493.845,-2.85863e-07,284.933,-0.0351054,-0.0605434,-0.00132784,0.011103,-0.00850776,0.0216034,-2.20462e-06,-3.94823e-06,0.0144564,-0.0013269588105366825,0.021838442970049776,-2.204617569834255e-06,0.011164867062487316,-3.948222205729657e-06,-0.008471671426716898
40,52.06,165.907,498.394,-2.88216e-07,287.554,-0.0361036,-0.0622591,-0.00142262,0.0117309,-0.00902921,0.0228597,-2.38371e-06,-4.27053e-06,0.0154371,-0.001421608555858156,0.023122985322283407,-2.3837071589927206e-06,0.011799976854368621,-4.270520881255457e-06,-0.00898856909379453
41,54.76,167.35,502.743,-2.92935e-07,290.059,-0.037043,-0.0638734,-0.00151746,0.0123581,-0.00955044,0.024115,-2.56497e-06,-4.5968e-06,0.0164181,-0.0015163092397253441,0.024408118050558425,-2.5649667104721274e-06,0.012434776852320972,-4.59678943476316e-06,-0.009504979385966061
42,57.47,168.733,506.91,-3.00719e-07,292.459,-0.0379294,-0.0653965,-0.00161236,0.0129847,-0.0100714,0.0253692,-2.74824e-06,-4.92671e-06,0.0173994,-0.001611060845943646,0.02569373675518194,-2.7482362235931035e-06,0.013069367279914479,-4.9266978637829695e-06,-0.010020853285404474
43,60.17,170.06,510.909,-3.11856e-07,294.763,-0.0387679,-0.0668371,-0.0017073,0.0136106,-0.0105921,0.0266223,-2.93336e-06,-5.25998e-06,0.0183807,-0.0017058433924284078,0.02697983921591396,-2.9333556976762765e-06,0.013703645873674342,-5.259966166293317e-06,-0.010536201244613741
44,62.88,171.336,514.755,-3.264e-07,296.978,-0.0395628,-0.0682028,-0.00180227,0.0142358,-0.0111125,0.0278744,-3.12018e-06,-5.59636e-06,0.0193621,-0.0018006468866661463,0.028266526034778305,-3.120175132265146e-06,0.014337611550095053,-5.596344340386139e-06,-0.011050984247331086
45,65.58,172.565,518.46,-3.44275e-07,299.112,-0.0403182,-0.0695003,-0.00189726,0.0148604,-0.0116326,0.0291253,-3.30858e-06,-5.93562e-06,0.0203433,-0.0018954613399345677,0.029553589458185314,-3.3085745266836497e-06,0.014971364722781155,-5.935602384266048e-06,-0.01156520289627283
46,68.29,173.751,522.034,-3.65335e-07,301.171,-0.0410372,-0.0707353,-0.00199226,0.0154844,-0.0121524,0.030375,-3.49845e-06,-6.27754e-06,0.0213245,-0.001990276767303234,0.030841026866641474,-3.4984438804785967e-06,0.01560490449822094,-6.277520296249506e-06,-0.012078857793334286
47,70.99,174.897,525.487,-3.894e-07,303.16,-0.0417228,-0.0719129,-0.00208727,0.0161077,-0.0126719,0.0316237,-3.68969e-06,-6.62193e-06,0.0223054,-0.0020850931667830697,0.03212904206181544,-3.6896831930866014e-06,0.016238128358910364,-6.621908075099547e-06,-0.012591949539590086
48,73.7,176.005,528.828,-4.1628e-07,305.085,-0.0423778,-0.0730378,-0.00218227,0.0167303,-0.013191,0.0328712,-3.88218e-06,-6.96862e-06,0.0232861,-0.002179890579983801,0.03341742650449553,-3.882172464386713e-06,0.01687103522108835,-6.968595719247794e-06,-0.01310438004573955
49,76.4,177.079,532.063,-4.45784e-07,306.948,-0.0430044,-0.0741138,-0.00227726,0.0173524,-0.0137097,0.0341176,-4.07586e-06,-7.31745e-06,0.0242665,-0.0022746690106048018,0.03470628103217788,-4.075851693707833e-06,0.017503827501730074,-7.317423227570785e-06,-0.013616150064780785
50,79.11,178.12,535.2,-4.77727e-07,308.755,-0.0436046,-0.0751447,-0.00237224,0.0179738,-0.0142281,0.0353629,-4.27063e-06,-7.66828e-06,0.0252465,-0.0023694284623447803,0.035995603393895514,-4.270620880819642e-06,0.01813630086926321,-7.66825059883569e-06,-0.014127358935799417
51,81.81,179.13,538.246,-5.11938e-07,310.509,-0.0441805,-0.0761335,-0.0024672,0.0185945,-0.0147461,0.036607,-4.46643e-06,-8.02096e-06,0.0262262,-0.002464158963542462,0.03728528760579586,-4.4664200254951325e-06,0.018768454239715293,-8.020927832141922e-06,-0.014637908720060544
52,84.52,180.112,541.204,-5.48256e-07,312.214,-0.0447336,-0.0770832,-0.00256214,0.0192147,-0.0152637,0.0378499,-4.66318e-06,-8.37537e-06,0.0272054,-0.0025588605207363946,0.038575331021169834,-4.663169127394617e-06,0.019400490409192006,-8.375334926702394e-06,-0.015147800167216952
53,87.22,181.067,544.081,-5.86534e-07,313.871,-0.0452654,-0.0779965,-0.00265705,0.0198342,-0.0157809,0.0390918,-4.86082e-06,-8.73139e-06,0.0281843,-0.002653523166997407,0.039865938961888725,-4.860808186180066e-06,0.02003220466628819,-8.731351881507976e-06,-0.015657034025743033
54,89.93,181.996,546.882,-6.26637e-07,315.484,-0.0457774,-0.0788757,-0.00275194,0.0204531,-0.0162978,0.0403324,-5.05929e-06,-9.08893e-06,0.0291626,-0.0027481568842164794,0.04115679719956744,-5.059277201846513e-06,0.02066369799320933,-9.088888695774067e-06,-0.016165709426371855
55,92.63,182.901,549.609,-6.68442e-07,317.056,-0.0462708,-0.0797229,-0.00284678,0.0210714,-0.0168142,0.0415719,-5.25854e-06,-9.44787e-06,0.0301404,-0.002842731764205797,0.042448111176206504,-5.258526173945732e-06,0.021294969495152083,-9.447825369046647e-06,-0.016673630297567965
56,95.34,183.783,552.269,-7.11838e-07,318.587,-0.0467467,-0.08054,-0.00294159,0.021689,-0.0173302,0.0428103,-5.45852e-06,-9.80813e-06,0.0311177,-0.002937267763257312,0.043739878614393435,-5.458505102251543e-06,0.021925916084563957,-9.80808190043092e-06,-0.017180895818574737
57,98.04,184.644,554.863,-7.56722e-07,320.082,-0.0472061,-0.081329,-0.00303636,0.0223061,-0.0178458,0.0440475,-5.65917e-06,-1.01696e-05,0.0320945,-0.003031754921046903,0.04503199272919045,-5.659153986981025e-06,0.02255674118844686,-1.0169548289806762e-05,-0.017687506733173652
58,100.7,185.484,557.395,-8.03003e-07,321.54,-0.0476501,-0.0820914,-0.00313109,0.0229225,-0.018361,0.0452836,-5.86046e-06,-1.05323e-05,0.0330707,-0.0031261932497609335,0.04632455547923042,-5.860442827576584e-06,0.023187239463320353,-1.0532244535510493e-05,-0.018193463783977015
59,103.5,186.305,559.869,-8.50597e-07,322.965,-0.0480795,-0.0828287,-0.00322577,0.0235383,-0.0188758,0.0465185,-6.06234e-06,-1.0896e-05,0.0340463,-0.0032205727937859585,0.04761745981226806,-6.062321624034084e-06,0.02381751220644257,-1.089594063885535e-05,-0.018698767712430397
60,106.2,187.108,562.287,-8.99428e-07,324.358,-0.048495,-0.0835423,-0.00332041,0.0241535,-0.0193902,0.0477523,-6.26478e-06,-1.12607e-05,0.0350214,-0.003314903534975877,0.04891080793657432,-6.264760376351042e-06,0.024447558522327606,-1.1260636598509066e-05,-0.019203419258813303
61,108.9,187.892,564.651,-9.49425e-07,325.72,-0.0488975,-0.0842336,-0.00341499,0.0247681,-0.0199041,0.0489849,-6.46773e-06,-1.16264e-05,0.0359958,-0.003409165553678317,0.05020449253246162,-6.467709084301276e-06,0.025077377515346555,-1.1626332413694485e-05,-0.019707321132979905
62,111.6,188.66,566.965,-1.00053e-06,327.053,-0.0492877,-0.0849035,-0.00350953,0.0253821,-0.0204176,0.0502163,-6.67117e-06,-1.19929e-05,0.0369695,-0.003503378797636625,0.051498510908165374,-6.67114774777211e-06,0.02570696828972907,-1.199282808550528e-05,-0.020210572202807864
63,114.3,189.411,569.23,-1.05267e-06,328.358,-0.049666,-0.0855534,-0.00360401,0.0259954,-0.0209307,0.0514466,-6.87507e-06,-1.23603e-05,0.0379427,-0.0035975233509489835,0.05279296564668989,-6.875046366761062e-06,0.026336227315937988,-1.2360223611840304e-05,-0.020713173204896962
64,117.0,190.148,571.448,-1.10581e-06,329.636,-0.0500332,-0.0861841,-0.00369845,0.0266082,-0.0214434,0.0526758,-7.07938e-06,-1.27284e-05,0.0389152,-0.003691619157569992,0.05408785443567177,-7.079354941263993e-06,0.026965358902267367,-1.272831899423732e-05,-0.021215124874688684
65,119.7,190.869,573.622,-1.15989e-06,330.888,-0.0503898,-0.0867966,-0.00379282,0.0272204,-0.0219556,0.0539038,-7.28409e-06,-1.30973e-05,0.039887,-0.0037856363431993945,0.055383069420155584,-7.284063471058033e-06,0.02759425958184325,-1.30972142307062e-05,-0.021716330118107696
66,122.4,191.576,575.754,-1.21487e-06,332.116,-0.0507363,-0.0873917,-0.00388714,0.0278319,-0.0224674,0.0551306,-7.48916e-06,-1.34668e-05,0.0408581,-0.003879594850826562,0.056678607890531696,-7.489131956361916e-06,0.02822282563606171,-1.3466709323006754e-05,-0.022216887596767987
67,125.1,192.27,577.845,-1.27071e-06,333.32,-0.0510732,-0.0879704,-0.0039814,0.0284429,-0.0229787,0.0563563,-7.69458e-06,-1.38369e-05,0.0418286,-0.003973484735116162,0.05797457293014929,-7.694550396841748e-06,0.02885126175020769,-1.3836804270583869e-05,-0.022716700314129867
68,127.8,192.951,579.896,-1.32737e-06,334.502,-0.0514009,-0.0885333,-0.0040756,0.0290533,-0.0234896,0.0575809,-7.90031e-06,-1.42076e-05,0.0427984,-0.004067306013802563,0.059270962209304834,-7.900278792605242e-06,0.029479464268283184,-1.4207499072549368e-05,-0.023215866828995235
69,130.5,193.619,581.91,-1.38482e-06,335.662,-0.0517198,-0.0890812,-0.00416974,0.0296631,-0.0240001,0.0588043,-8.10635e-06,-1.45789e-05,0.0437675,-0.0041610587046060354,0.06056766733726615,-8.106317143652397e-06,0.03010743229358548,-1.4578793728348138e-05,-0.023714387870656828
70,133.2,194.275,583.887,-1.44302e-06,336.801,-0.0520303,-0.0896147,-0.00426382,0.0302723,-0.0245101,0.0600265,-8.31265e-06,-1.49506e-05,0.0447358,-0.004254742825232971,0.06186468558668379,-8.312615449979077e-06,0.03073516492928574,-1.4950488240295101e-05,-0.024212166588480355
71,135.9,194.919,585.829,-1.50194e-06,337.919,-0.0523328,-0.0901344,-0.00435784,0.0308808,-0.0250197,0.0612476,-8.51921e-06,-1.53228e-05,0.0457035,-0.004348358393375773,0.06316212054194992,-8.519173711585282e-06,0.03136255814217148,-1.532268260651115e-05,-0.02470930138768157
72,138.6,195.553,587.738,-1.56156e-06,339.019,-0.0526276,-0.090641,-0.00445179,0.0314888,-0.0255289,0.0624676,-8.726e-06,-1.56955e-05,0.0466704,-0.004441895471131607,0.06445996985611635,-8.725961928579551e-06,0.03198981724496597,-1.5695376826330154e-05,-0.025205792993924114
73,141.3,196.175,589.614,-1.62185e-06,340.1,-0.0529151,-0.091135,-0.00454568,0.0320962,-0.0260376,0.0636864,-8.93301e-06,-1.60685e-05,0.0476366,-0.004535364033615541,0.06575812460218144,-8.932970100739013e-06,0.032616838266967596,-1.6068370902289075e-05,-0.025701544701890677
74,144.0,196.787,591.459,-1.68278e-06,341.162,-0.0531954,-0.0916169,-0.00463951,0.0327031,-0.0265458,0.0649041,-9.14022e-06,-1.64419e-05,0.0486021,-0.0046287640984756795,0.06705668874082682,-9.140178228284057e-06,0.03324372363523542,-1.6441764832730854e-05,-0.02619655738349691
75,146.7,197.39,593.274,-1.74434e-06,342.208,-0.0534691,-0.0920872,-0.00473327,0.0333093,-0.0270537,0.0661206,-9.34761e-06,-1.68156e-05,0.0495668,-0.004722085730567427,0.0683555530767328,-9.34756631121303e-06,0.033870265866266624,-1.6815458618535395e-05,-0.02669102657092215
76,149.4,197.982,595.059,-1.80651e-06,343.236,-0.0537362,-0.0925463,-0.00482696,0.0339149,-0.027561,0.067336,-9.55517e-06,-1.71896e-05,0.0505308,-0.00481532895030834,0.06965482182161864,-9.555124349525101e-06,0.034496567324215244,-1.7189452259702698e-05,-0.027184660992185194
77,152.1,198.565,596.817,-1.86925e-06,344.249,-0.053997,-0.0929947,-0.00492059,0.03452,-0.028068,0.0685502,-9.76288e-06,-1.75639e-05,0.051494,-0.004908503729013414,0.07095438551173072,-9.76283234321862e-06,0.03512273062370341,-1.756374575556663e-05,-0.027677753359584667
78,154.8,199.139,598.547,-1.93257e-06,345.245,-0.0542518,-0.0934329,-0.00501415,0.0351245,-0.0285744,0.0697633,-9.97073e-06,-1.79385e-05,0.0524565,-0.005001600134286743,0.07225434860999225,-9.970680292403777e-06,0.03574865147988415,-1.7938339106016166e-05,-0.028170012694699986
79,157.6,199.704,600.25,-1.99643e-06,346.226,-0.0545009,-0.0938611,-0.00510764,0.0357284,-0.0290805,0.0709753,-1.01787e-05,-1.83133e-05,0.0534182,-0.005094618186493816,0.07355470873956627,-1.0178648197189943e-05,0.03637432899482329,-1.8313132312597347e-05,-0.028661731411358415
80,160.3,200.261,601.928,-2.06083e-06,347.193,-0.0547443,-0.0942798,-0.00520107,0.0363317,-0.0295861,0.0721861,-1.03868e-05,-1.86883e-05,0.0543792,-0.005187567854105124,0.07485535603388072,-1.03867460573559e-05,0.03699976227048363,-1.868812537475506e-05,-0.029152715908616567
81,163.0,200.81,603.581,-2.12574e-06,348.145,-0.0549824,-0.0946892,-0.00529442,0.0369344,-0.0300912,0.0733959,-1.0595e-05,-1.90635e-05,0.0553394,-0.00528042926027239,0.0761565029486806,-1.0594943873232232e-05,0.03762495040872471,-1.906331829260033e-05,-0.02964296704846281
82,165.7,201.35,605.211,-2.19116e-06,349.084,-0.0552154,-0.0950898,-0.00538771,0.0375366,-0.0305959,0.0746044,-1.08033e-05,-1.94388e-05,0.0562988,-0.00537322232062698,0.07745782424751035,-1.0803241644596895e-05,0.03824999633630055,-1.9438611067790212e-05,-0.030132582678096265
83,168.4,201.883,606.816,-2.25707e-06,350.009,-0.0554433,-0.0954819,-0.00548092,0.0381382,-0.0311002,0.0758119,-1.10116e-05,-1.98143e-05,0.0572575,-0.005465927161998341,0.07875964038360461,-1.1011539372551837e-05,0.03887479545482719,-1.9814103698001517e-05,-0.030621563509772187
84,171.1,202.408,608.4,-2.32345e-06,350.921,-0.0556664,-0.0958657,-0.00557407,0.0387392,-0.031604,0.0770182,-1.122e-05,-2.01899e-05,0.0582154,-0.005558563696269503,0.0800617333372684,-1.121993705599511e-05,0.03949934686579537,-2.0189696185335393e-05,-0.03110981336561014
85,173.8,202.926,609.961,-2.39031e-06,351.82,-0.0558848,-0.0962416,-0.00566714,0.0393396,-0.0321073,0.0782234,-1.14285e-05,-2.05656e-05,0.0591725,-0.005651112053941643,0.08136420845213621,-1.1428434694926715e-05,0.04012364967060145,-2.0565388529458772e-05,-0.031597333101910374
86,176.5,203.437,611.501,-2.45762e-06,352.707,-0.0560988,-0.0966097,-0.00576015,0.0399395,-0.0326102,0.0794274,-1.1637e-05,-2.09414e-05,0.0601288,-0.005743592143156562,0.08266695505519417,-1.1636932290337576e-05,0.04074780704532488,-2.0941180730371656e-05,-0.03208422036502967
87,179.2,203.942,613.02,-2.52537e-06,353.582,-0.0563084,-0.0969704,-0.00585308,0.0405388,-0.0331127,0.0806304,-1.18456e-05,-2.13173e-05,0.0610844,-0.005835984098079949,0.08397018713905324,-1.1845529841125746e-05,0.04137171414117491,-2.131707278796302e-05,-0.03257047586237061
88,181.9,204.439,614.519,-2.59356e-06,354.446,-0.0565137,-0.0973239,-0.00594594,0.0411375,-0.0336147,0.0818322,-1.20542e-05,-2.16932e-05,0.0620392,-0.005928297882401123,0.0852736856253078,-1.2054127348393173e-05,0.04199537005920173,-2.1692964704222994e-05,-0.03305600360582783
89,184.6,204.93,615.999,-2.66218e-06,355.298,-0.0567151,-0.0976705,-0.00603873,0.0417356,-0.0341162,0.0830329,-1.22628e-05,-2.20692e-05,0.0629931,-0.006020533516302384,0.08657755636178766,-1.2262724812139858e-05,0.042618773900368945,-2.2068956477050428e-05,-0.03354080444604801
90,187.3,205.414,617.459,-2.73121e-06,356.139,-0.0569125,-0.0980103,-0.00613145,0.0423332,-0.0346174,0.0842324,-1.24714e-05,-2.24452e-05,0.0639464,-0.006112691019946714,0.08788168813731034,-1.24713222323658e-05,0.04324202908975394,-2.2444948108435447e-05,-0.034025072427166236
91,190.0,205.893,618.901,-2.80065e-06,356.97,-0.057106,-0.0983436,-0.00622409,0.0429302,-0.035118,0.0854309,-1.268e-05,-2.28212e-05,0.0648988,-0.006204760475527649,0.08918629597062555,-1.2679919609182022e-05,0.04386503052854662,-2.2820939598378054e-05,-0.0345085184592715
92,192.7,206.365,620.325,-2.87049e-06,357.79,-0.0572959,-0.0986706,-0.00631667,0.0435266,-0.0356182,0.0866283,-1.28886e-05,-2.31972e-05,0.0658504,-0.006296761779996607,0.0904912687727184,-1.288851694236648e-05,0.04448777731738729,-2.319693094698927e-05,-0.034991336535470485
93,195.4,206.832,621.731,-2.94073e-06,358.6,-0.0574822,-0.0989915,-0.00640916,0.0441225,-0.036118,0.0878245,-1.30972e-05,-2.35732e-05,0.0668012,-0.006388665142363248,0.09179649492855146,-1.3097114232030194e-05,0.045110373067871024,-2.3572922154269094e-05,-0.03547352735594633
94,198.1,207.293,623.12,-3.01135e-06,359.4,-0.0576651,-0.0993064,-0.00650159,0.0447178,-0.0366173,0.0890196,-1.33058e-05,-2.39491e-05,0.0677513,-0.006480500393812538,0.09310208091715433,-1.3305711478284188e-05,0.045732712493909755,-2.394881322254072e-05,-0.035954995215284
95,200.8,207.748,624.492,-3.08235e-06,360.19,-0.0578445,-0.0996156,-0.00659394,0.0453126,-0.0371162,0.0902136,-1.35144e-05,-2.4325e-05,0.0687006,-0.006572247683104937,0.0944080242948162,-1.3514308680906417e-05,0.046354899331322974,-2.432470414959198e-05,-0.03643583731213651
96,203.5,208.198,625.848,-3.15372e-06,360.971,-0.0580207,-0.0999192,-0.00668622,0.0459068,-0.0376147,0.0914065,-1.37229e-05,-2.47009e-05,0.069649,-0.006663916966403005,0.09571432261372337,-1.372280584144292e-05,0.046976828169264406,-2.4700594935311848e-05,-0.03691605434319678
97,206.2,208.642,627.188,-3.22546e-06,361.743,-0.0581938,-0.100217,-0.00677843,0.0465004,-0.0381127,0.0925983,-1.39314e-05,-2.50767e-05,0.0705967,-0.0067555082637377195,0.09702097342196869,-1.393130295845868e-05,0.04759849810784944,-2.507638558213454e-05,-0.03739555074362033
98,208.9,209.082,628.513,-3.29755e-06,362.506,-0.0583637,-0.10051,-0.00687056,0.0470935,-0.0386102,0.093789,-1.41398e-05,-2.54524e-05,0.0715436,-0.006847011663592584,0.09832797426355455,-1.4139700033499736e-05,0.048220013069119716,-2.5452076090393128e-05,-0.03787432735156915
99,211.7,209.516,629.822,-3.37001e-06,363.26,-0.0585307,-0.100798,-0.00696262,0.047686,-0.0391073,0.0949786,-1.43482e-05,-2.58281e-05,0.0724896,-0.006938437119320517,0.09963532267840147,-1.4348097065020049e-05,0.048841267455300486,-2.5827766457542367e-05,-0.038352481168465125
100,214.4,209.946,631.117,-3.44281e-06,364.006,-0.0586948,-0.101081,-0.0070546,0.048278,-0.039604,0.096167,-1.45566e-05,-2.62036e-05,0.0734349,-0.0070297747211935935,0.10094290610805534,-1.4556494053241664e-05,0.0494623653124604,-2.6203256688672738e-05,-0.03883001288624921
101,217.1,210.371,632.397,-3.51595e-06,364.743,-0.058856,-0.101359,-0.00714651,0.0488694,-0.0401002,0.0973544,-1.47649e-05,-2.65791e-05,0.0743794,-0.007121034420695227,0.10225094214207586,-1.4764790999377553e-05,0.050083200918299875,-2.6578746778804785e-05,-0.03930682712645872
102,219.8,210.791,633.663,-3.58944e-06,365.473,-0.0590146,-0.101632,-0.00723834,0.0494602,-0.0405959,0.0985407,-1.49731e-05,-2.69544e-05,0.0753231,-0.0072122063098830624,0.10355931834464283,-1.497298790364976e-05,0.050703773372454686,-2.6954036733473075e-05,-0.0397829247217143
103,222.5,211.206,634.915,-3.66325e-06,366.194,-0.0591704,-0.101901,-0.0073301,0.0500505,-0.0410912,0.0997259,-1.51813e-05,-2.73296e-05,0.076266,-0.007303300338374008,0.10486803223940355,-1.5181184764623268e-05,0.05132418690691587,-2.7329226549910324e-05,-0.04025840247731294
104,225.2,211.617,636.154,-3.7374e-06,366.907,-0.0593237,-0.102166,-0.00742179,0.0506402,-0.0415861,0.10091,-1.53894e-05,-2.77047e-05,0.0772081,-0.007394316526065148,0.10617708134595083,-1.5389281583844117e-05,0.05194433561280931,-2.7704316228338577e-05,-0.04073326108047348
105,227.9,212.024,637.379,-3.81187e-06,367.613,-0.0594744,-0.102426,-0.0075134,0.0512294,-0.0420806,0.102093,-1.55974e-05,-2.80797e-05,0.0781494,-0.007485244967687432,0.10748646317983224,-1.5597278361201283e-05,0.05256432384595011,-2.8079305768868856e-05,-0.04120750121733152
106,230.6,212.426,638.592,-3.88667e-06,368.312,-0.0596227,-0.102682,-0.00760494,0.0518181,-0.0425746,0.103275,-1.58053e-05,-2.84545e-05,0.0790899,-0.0075760956100655585,0.10879628613217696,-1.5805175096916813e-05,0.05318415089158801,-2.8454095174601512e-05,-0.04168102774104898
107,233.3,212.824,639.792,-3.96178e-06,369.003,-0.0597686,-0.102933,-0.0076964,0.0524062,-0.0430681,0.104456,-1.60131e-05,-2.88292e-05,0.0800296,-0.007666858549708611,0.11010654810350129,-1.6012971790990704e-05,0.05380371065441869,-2.882878444265824e-05,-0.042153841477473475
108,236.0,213.218,640.979,-4.03721e-06,369.687,-0.0599121,-0.103181,-0.00778778,0.0529937,-0.0435612,0.105635,-1.62209e-05,-2.92037e-05,0.0809685,-0.00775753380915889,0.11141613557383079,-1.622076844187692e-05,0.054423002233516815,-2.9203273576139388e-05,-0.0426260389883768
109,238.7,213.608,642.155,-4.11294e-06,370.364,-0.0600534,-0.103425,-0.00787909,0.0535807,-0.0440539,0.106814,-1.64285e-05,-2.9578e-05,0.0819066,-0.007848131332453767,0.11272726795833576,-1.6428365052889582e-05,0.05504213023211779,-2.9577562575267002e-05,-0.04309762095520997
110,241.4,213.994,643.318,-4.18899e-06,371.034,-0.0601925,-0.103666,-0.00797033,0.0541671,-0.0445461,0.107992,-1.66361e-05,-2.99522e-05,0.0828439,-0.00793865113937442,0.11403883304015383,-1.663596162082559e-05,0.05566098836875799,-2.995175143738482e-05,-0.04356849241520344
111,244.1,214.377,644.47,-4.26533e-06,371.698,-0.0603295,-0.103902,-0.00806149,0.054753,-0.0450379,0.109168,-1.68435e-05,-3.03262e-05,0.0837804,-0.008029083329974762,0.11534971335435773,-1.6843358148999066e-05,0.056279681370259294,-3.0325740165482173e-05,-0.044038749784868214
112,246.8,214.755,645.611,-4.34198e-06,372.355,-0.0604643,-0.104135,-0.00815258,0.0553384,-0.0455292,0.110344,-1.70509e-05,-3.07e-05,0.0847161,-0.008119437845515498,0.11666213617062415,-1.705075463420691e-05,0.05689820852096661,-3.06995287597811e-05,-0.04450829819308744
113,249.5,215.13,646.741,-4.41892e-06,373.006,-0.0605972,-0.104364,-0.00824359,0.0559232,-0.0460201,0.111518,-1.72581e-05,-3.10736e-05,0.085651,-0.008209704787817573,0.11797386735403248,-1.7257951079874267e-05,0.05751646335340288,-3.10731172207257e-05,-0.04497723395980335
114,252.2,215.501,647.859,-4.49616e-06,373.65,-0.060728,-0.104591,-0.00833452,0.0565075,-0.0465106,0.112691,-1.74653e-05,-3.14471e-05,0.0865851,-0.008299884179292949,0.11928602012758782,-1.7465147482575993e-05,0.05813455077959673,-3.144660554510459e-05,-0.045445557760744326
115,254.9,215.869,648.967,-4.57369e-06,374.288,-0.0608569,-0.104813,-0.00842538,0.0570912,-0.0470007,0.113863,-1.76723e-05,-3.18203e-05,0.0875184,-0.008389985958430768,0.12059859236026194,-1.7672143845848254e-05,0.058752364208195074,-3.1819793739673585e-05,-0.04591327027057346
116,257.6,216.233,650.065,-4.65151e-06,374.92,-0.0609838,-0.105033,-0.00851617,0.0576744,-0.0474902,0.115034,-1.78792e-05,-3.21933e-05,0.0884509,-0.008480010144895744,0.12191158191726603,-1.787904016803399e-05,0.05937000867462139,-3.2192781801221315e-05,-0.0463801814389444
117,260.3,216.593,651.152,-4.72961e-06,375.547,-0.061109,-0.105249,-0.00860688,0.0582571,-0.0479794,0.116204,-1.8086e-05,-3.25661e-05,0.0893826,-0.008569946844034781,0.12322498666005721,-1.808583644924422e-05,0.05998748346248428,-3.256556973030289e-05,-0.04684657816424409
118,263.0,216.951,652.229,-4.808e-06,376.167,-0.0612323,-0.105462,-0.00869751,0.0588392,-0.0484681,0.117373,-1.82927e-05,-3.29387e-05,0.0903135,-0.008659796078172688,0.12453880444634136,-1.829253268958997e-05,0.060604681794754534,-3.293815752691831e-05,-0.04731227044031927
119,265.8,217.305,653.296,-4.88667e-06,376.782,-0.0613539,-0.105673,-0.00878807,0.0594208,-0.0489564,0.118541,-1.84992e-05,-3.33111e-05,0.0912436,-0.008749567782115886,0.12585303313007712,-1.849902889083932e-05,0.061221708891773474,-3.3310545191511665e-05,-0.04777735429919805
120,268.5,217.656,654.354,-4.96562e-06,377.391,-0.0614738,-0.10588,-0.00887856,0.0600018,-0.0494443,0.119708,-1.87056e-05,-3.36833e-05,0.0921729,-0.008839261975452262,0.12716767056148193,-1.870542505133521e-05,0.06183845785286368,-3.368273272397193e-05,-0.04824183040987429
121,270.5,217.919,655.146,-5.22283e-06,377.848,-0.061563,-0.106035,-0.00894687,0.0604405,-0.0498126,0.120589,-1.88615e-05,-3.39643e-05,0.0928745,-0.008906965853014426,0.1281611428395273,-1.88613221230316e-05,0.062304388578755754,-3.396372321973207e-05,-0.04859229840109225
