,Time,S11,S22,S33,S12,S13,S23,LE11,LE22,LE33,LE12,LE13,LE23,SDV_EPBAR,E11,E12,E13,E22,E23,E33
0,0.0002705,0.000519365,0.0015581,-7.79048e-12,0.000899567,2.21372e-21,3.68811e-20,2.50301e-10,6.7501e-09,-3.0004e-09,1.1258e-08,2.76762e-26,4.61603e-25,0.0,2.5030089112476617e-10,1.1258000087721598e-08,0.0,6.750100034480511e-09,0.0,-3.0004000395322805e-09
1,0.000541,0.00103873,0.00311619,4.33681e-19,0.00179913,-3.08331e-20,-2.03577e-20,5.00425e-10,1.35001e-08,-6.00057e-09,2.25162e-08,-1.63975e-24,4.6912e-25,0.0,5.00425034744012e-10,2.2516200237632233e-08,0.0,1.3500100148888805e-08,0.0,-6.000569929831556e-09
2,0.00094675,0.00181778,0.00545333,6.50521e-19,0.00314848,1.87371e-20,6.55005e-20,8.75688e-10,2.36252e-08,-1.05009e-08,3.94034e-08,-1.73568e-24,1.95724e-24,0.0,8.756879665838824e-10,3.9403400764470575e-08,0.0,2.3625200240573463e-08,0.0,-1.0500899927379237e-08
3,0.0015554,0.00298635,0.00895905,1.73472e-18,0.00517251,4.73565e-20,4.89771e-20,1.4375e-09,3.88125e-08,-1.725e-08,6.47354e-08,4.1359e-25,7.16359e-25,0.0,1.4374998968946784e-09,6.473540214990692e-08,0.0,3.8812500768869995e-08,0.0,-1.7249999872959165e-08
4,0.0024683,0.00473921,0.0142176,0.0,0.00820854,1.00168e-19,-5.78319e-20,2.28125e-09,6.15937e-08,-2.7375e-08,1.02732e-07,-7.41318e-35,-1.284e-34,0.0,2.281250077729169e-09,1.027320053470504e-07,0.0,6.159370191660685e-08,0.0,-2.7374999600482397e-08
5,0.0038377,0.00736849,0.0221055,-8.67362e-19,0.0127626,9.88226e-21,-8.20239e-20,3.54688e-09,9.57656e-08,-4.25625e-08,1.59728e-07,7.653e-32,1.32554e-31,0.0,3.5468799008953056e-09,1.597280128162737e-07,0.0,9.576560455748506e-08,0.0,-4.256249908074494e-08
6,0.0058918,0.0113124,0.0339373,-6.07153e-18,0.0195937,-4.73565e-20,-4.89771e-20,5.44671e-09,1.47024e-07,-6.53456e-08,2.45219e-07,-1.14621e-23,6.61761e-24,0.0,5.446709971934638e-09,2.452190299706558e-07,0.0,1.4702401074373483e-07,0.0,-6.534559782167548e-08
7,0.008973,0.0172283,0.0516849,7.80626e-18,0.0298403,6.7121e-20,-1.15071e-19,8.29297e-09,2.2391e-07,-9.95156e-08,3.7346e-07,1.78232e-31,3.08708e-31,0.0,8.292970088419338e-09,3.734600697580248e-07,0.0,2.2391002496569e-07,0.0,-9.951559509779884e-08
8,0.013595,0.0261021,0.0783064,9.54098e-18,0.0452102,-1.3116e-19,-4.58503e-19,1.25671e-08,3.39241e-07,-1.50777e-07,5.65816e-07,2.77687e-23,-3.13146e-23,0.0,1.2567100027283118e-08,5.658161601473921e-07,0.0,3.392410574676319e-07,0.0,-1.5077698867216327e-07
9,0.020527,0.0394129,0.118239,6.07153e-18,0.0682651,-4.56883e-19,3.48265e-20,1.89735e-08,5.12236e-07,-2.27663e-07,8.54355e-07,1.1462e-23,-6.61759e-24,0.0,1.8973500104380037e-08,8.543553648987512e-07,0.0,5.122361312892565e-07,0.0,-2.276629741393421e-07
10,0.030926,0.059379,0.178137,-8.67362e-19,0.102847,-1.54031e-18,-2.55477e-19,2.8587e-08,7.71729e-07,-3.42996e-07,1.28716e-06,-2.95414e-23,1.77334e-24,0.0,2.858700032248862e-08,1.2871608283671065e-06,0.0,7.717292977993395e-07,0.0,-3.429959412049044e-07
11,0.046525,0.0893282,0.267985,-4.94396e-17,0.154721,-5.5365e-19,3.95969e-19,4.30043e-08,1.16097e-06,-5.15992e-07,1.93637e-06,-9.16942e-23,5.29396e-23,0.0,4.300430100911967e-08,1.9363718748444114e-06,0.0,1.1609706738191505e-06,0.0,-5.159918669006558e-07
12,0.069922,0.134252,0.402756,-2.1684e-17,0.232531,2.20493e-19,-2.49317e-18,6.46307e-08,1.74483e-06,-7.75487e-07,2.91018e-06,-5.29397e-23,-9.16942e-23,0.0,6.463070212348043e-08,2.910184234483637e-06,0.0,1.744831522154655e-06,0.0,-7.754866993003873e-07
13,0.105,0.201637,0.604912,1.99493e-17,0.349246,-1.22407e-18,-2.88023e-18,9.70596e-08,2.62061e-06,-1.16471e-06,4.37091e-06,-1.05879e-22,-1.83388e-22,0.0,9.705960479777787e-08,4.370919552521002e-06,0.0,2.62061343381248e-06,0.0,-1.1647093217659332e-06
14,0.1577,0.302715,0.908146,-9.1073e-17,0.524319,2.72256e-18,-2.74454e-19,1.45719e-07,3.93429e-06,-1.74858e-06,6.56199e-06,1.03982e-22,-2.43423e-22,0.0,1.4571901063575865e-07,6.562011529931411e-06,0.0,3.934297739371928e-06,0.0,-1.748578471238993e-06
15,0.2366,0.454332,1.363,-7.80626e-18,0.786926,-1.38381e-17,-7.8084e-18,2.18705e-07,5.90479e-06,-2.62436e-06,9.8486e-06,-2.11758e-22,-3.66776e-22,0.0,2.1870502386889257e-07,9.848648497623458e-06,0.0,5.904807433232406e-06,0.0,-2.624356556402141e-06
16,0.3551,0.681756,2.04527,4.77049e-17,1.18084,-5.94481e-18,-2.59681e-18,3.28182e-07,8.86055e-06,-3.93804e-06,1.47785e-05,5.57568e-28,9.65736e-28,0.0,3.281820537548441e-07,1.4778609202625859e-05,0.0,8.860589254755524e-06,0.0,-3.938032245964784e-06
17,0.5328,1.02289,3.06867,7.13839e-16,1.7717,-5.94479e-18,-2.59677e-18,4.92389e-07,1.32942e-05,-5.90853e-06,2.21733e-05,8.36561e-28,1.44897e-27,0.0,4.923891212538223e-07,2.2173545829451413e-05,0.0,1.3294288368159712e-05,0.0,-5.908512544672284e-06
18,0.7993,1.53459,4.60377,-2.85362e-16,2.65799,-3.98145e-18,-3.30361e-17,7.38697e-07,1.99445e-05,-8.86424e-06,3.32654e-05,7.35553e-27,1.27402e-26,0.0,7.38697272906208e-07,3.326595329955495e-05,0.0,1.9944698892881974e-05,0.0,-8.864200712777048e-06
19,1.199,2.30213,6.90638,-1.61763e-15,3.9874,2.21215e-18,-5.61484e-17,1.10814e-06,2.99199e-05,-1.32977e-05,4.99034e-05,-4.23505e-22,-7.33532e-22,0.0,1.1081406139368255e-06,4.990464519538662e-05,0.0,2.992034760462836e-05,0.0,-1.3297611585971758e-05
20,1.799,3.45341,10.3602,-3.17194e-15,5.98148,6.53581e-17,-1.44564e-17,1.66234e-06,4.48827e-05,-1.99479e-05,7.48599e-05,-1.09041e-26,-1.88864e-26,0.0,1.6623413816585497e-06,7.486270207235357e-05,0.0,4.4883707243537074e-05,0.0,-1.994770104196686e-05
21,2.698,5.18029,15.5409,-2.8485e-14,8.97252,-6.87866e-17,2.39178e-17,2.49357e-06,6.73263e-05,-2.99228e-05,0.000112294,-4.23518e-22,-7.33555e-22,0.0,2.4935731088859825e-06,0.00011230030520725798,0.0,6.732856646629592e-05,0.0,-2.9922352317468537e-05
22,4.047,31.1929,93.5787,-1.03264e-09,54.0277,-8.08225e-16,-1.7395e-16,1.5015e-05,0.000405403,-0.000180179,0.000676171,-3.02527e-20,1.82072e-21,0.0,1.5015112725613733e-05,0.0006763996551444329,0.0,0.00040548518690219915,0.0,-0.00018016276873877857
23,6.071,70.3658,211.097,-9.04826e-07,121.877,1.29847e-16,-7.14917e-16,3.38711e-05,0.000914519,-0.000406453,0.00152533,-2.03309e-20,-3.52142e-20,0.0,3.3871673632113186e-05,0.0015264939075101402,0.0,0.0009149373000056915,0.0,-0.00040637040916957634
24,8.776,121.273,363.823,0.000116953,210.052,-0.000111912,-0.000193786,5.55196e-05,0.0015932,-0.000714704,0.00266338,-1.42142e-09,-2.46294e-09,2.75598e-05,5.552114124163232e-05,0.0026669299474322283,-1.42141998171752e-09,0.0015944698173882,-2.4629399630882176e-09,-0.0007144486599306443
25,11.48,127.24,381.879,0.0745916,220.501,-0.00234864,-0.00405868,-3.5928e-05,0.00223292,-0.00121658,0.00393189,-4.25382e-08,-7.45793e-08,0.000935797,-3.59273545971206e-05,0.00393963002046438,-4.253819907429346e-08,0.0022354148224306147,-7.457929718235334e-08,-0.0012158402665637391
26,14.19,132.215,396.72,0.000129374,229.025,-0.00422855,-0.00731113,-0.000129304,0.00287133,-0.0017236,0.00520142,-8.92962e-08,-1.57342e-07,0.00186421,-0.00012929564059804832,0.005214970869408475,-8.929619599307159e-08,0.0028754562162822683,-1.5734198766104157e-07,-0.0017221154545633555
27,16.89,136.412,409.338,-4.8825e-06,236.302,-0.00576347,-0.00996114,-0.000224723,0.00350838,-0.00223286,0.00647217,-1.39628e-07,-2.46832e-07,0.00280605,-0.00022469775167788253,0.006493159750899258,-1.3962799028099937e-07,0.0035145415687132253,-2.468319695303478e-07,-0.0022303690224564354
28,19.6,140.072,420.343,5.23666e-06,242.649,-0.00707145,-0.0122178,-0.000321392,0.00414435,-0.00274391,0.0077432,-1.93555e-07,-3.43022e-07,0.00375743,-0.00032134035912367853,0.007773256099833814,-1.9355498126483184e-07,0.00415294969440505,-3.430219411848512e-07,-0.0027401489197642626
29,22.3,143.324,430.118,2.38752e-06,248.286,-0.00820582,-0.0141737,-0.00041899,0.00477933,-0.00325622,0.00901414,-2.50654e-07,-4.45098e-07,0.00471582,-0.0004189022359477601,0.009054889709133818,-2.5065396858092726e-07,0.004790769214290558,-4.4509790098068436e-07,-0.003250924265240984
30,25.01,146.253,438.924,1.07342e-06,253.365,-0.00920398,-0.0158939,-0.000517299,0.00541341,-0.0037694,0.0102847,-3.10563e-07,-5.52367e-07,0.00567953,-0.0005171652239407409,0.010337769304970434,-3.105629517996533e-07,0.005428088979739121,-5.523668474838317e-07,-0.0037623047295904932
31,27.71,148.921,446.945,4.4428e-07,257.991,-0.0100928,-0.0174251,-0.000616164,0.00604664,-0.00428318,0.0115548,-3.72966e-07,-6.64235e-07,0.00664736,-0.0006159742099450805,0.011621814566094235,-3.729659304729793e-07,0.006064957829473805,-6.642347794016956e-07,-0.004274020266805567
32,30.42,151.373,454.317,1.36094e-07,262.243,-0.0108922,-0.0188016,-0.00071547,0.00667907,-0.00479738,0.0128242,-4.37593e-07,-7.80194e-07,0.00761842,-0.0007152141123698552,0.012906782694227958,-4.3759290424549846e-07,0.006701424729920857,-7.801936956486344e-07,-0.004785890952352934
33,33.12,153.644,461.143,-1.30471e-08,266.18,-0.0116173,-0.0200496,-0.000815133,0.00731071,-0.00531185,0.0140929,-5.04215e-07,-8.99813e-07,0.00859202,-0.0008148008693457109,0.014192673061506067,-5.042148728540141e-07,0.007337498481501781,-8.998125952119906e-07,-0.005297767071290815
34,35.83,155.76,467.503,-8.05643e-08,269.848,-0.0122796,-0.0211893,-0.000915084,0.00794159,-0.00582646,0.0153608,-5.7263e-07,-1.02272e-06,0.00956767,-0.0009146654383191954,0.015479383489383158,-5.726298359931548e-07,0.007973208069691484,-1.0227194769951709e-06,-0.0058095190997289325
35,38.53,157.742,473.46,-1.05431e-07,273.284,-0.0128885,-0.0222367,-0.00101527,0.00857174,-0.00634113,0.0166277,-6.42665e-07,-1.14859e-06,0.0105449,-0.0010147547877882301,0.016766709604870034,-6.426647934931751e-07,0.008608582556347999,-1.1485893404161729e-06,-0.006321067463943786
36,41.24,159.606,479.066,-1.08053e-07,276.517,-0.0134511,-0.0232044,-0.00111565,0.00920117,-0.0068558,0.0178938,-7.14172e-07,-1.27715e-06,0.0115235,-0.001115027893911047,0.01805485322314282,-7.141717449643536e-07,0.009243630894737898,-1.277149184408799e-06,-0.006832352617301196
37,43.94,161.368,484.361,-9.94224e-08,279.572,-0.0139737,-0.0241028,-0.00121619,0.00982988,-0.00737039,0.0191589,-7.87016e-07,-1.40815e-06,0.0125031,-0.0012154507406654247,0.01934360944882063,-7.870156902844982e-07,0.009878351964752063,-1.4081490085082748e-06,-0.0073432952826998354
38,46.65,163.038,489.381,-8.55776e-08,282.467,-0.0144609,-0.0249405,-0.00131686,0.0104579,-0.00788486,0.0204229,-8.61083e-07,-1.54139e-06,0.0134834,-0.0013159933203438223,0.020632874414968194,-8.610826293109497e-07,0.010512774961666471,-1.5413888120319186e-06,-0.007853856032220108
39,49.35,164.626,494.154,-6.98589e-08,285.22,-0.014917,-0.0257244,-0.00141763,0.0110852,-0.00839916,0.021686,-9.3627e-07,-1.67666e-06,0.0144644,-0.0014166256372525332,0.021922850311414388,-9.362695616577099e-07,0.01114686848804114,-1.6766585944072432e-06,-0.008363985602999335
40,52.06,166.14,498.706,-5.41069e-08,287.845,-0.0153454,-0.0264606,-0.00151849,0.0117119,-0.00891328,0.022948,-1.01249e-06,-1.81381e-06,0.0154458,-0.0015173376773971459,0.023213331070593313,-1.0124894874730117e-06,0.011780752837436959,-1.8138083550667261e-06,-0.008873674478871996
41,54.76,167.587,503.057,-3.93104e-08,290.355,-0.015749,-0.0271541,-0.00161941,0.0123379,-0.00942716,0.024209,-1.08965e-06,-1.95269e-06,0.0164276,-0.0016180994631534995,0.024504416939632012,-1.0896494063716844e-06,0.012414325876384025,-1.952688093553867e-06,-0.009382863632764304
42,57.47,168.974,507.225,-2.59712e-08,292.759,-0.0161303,-0.0278091,-0.00172039,0.0129632,-0.0099408,0.0254689,-1.16769e-06,-2.09315e-06,0.0174095,-0.0017189109774108369,0.025796003518649968,-1.1676893182377412e-06,0.013047586522661803,-2.093147809412166e-06,-0.009891553565755551
43,60.17,170.305,511.225,-1.43094e-08,295.066,-0.0164914,-0.0284294,-0.0018214,0.0135878,-0.0104542,0.0267277,-1.24653e-06,-2.23509e-06,0.0183916,-0.0018197422576433642,0.027088088595609072,-1.246529223064563e-06,0.013680533694028219,-2.235087502189259e-06,-0.010399744778308295
44,62.88,171.585,515.073,-4.38477e-09,297.285,-0.0168342,-0.0290181,-0.00192245,0.0142118,-0.0109672,0.0279854,-1.32613e-06,-2.37839e-06,0.0193736,-0.0019206032765994863,0.02838066995403854,-1.3261291207378179e-06,0.014313267739544555,-2.3783871716531735e-06,-0.010907279515446344
45,65.58,172.818,518.779,3.83253e-09,299.423,-0.0171603,-0.0295781,-0.00202351,0.0148351,-0.01148,0.0292419,-1.40643e-06,-2.52295e-06,0.0203556,-0.0020214640838498443,0.029673642405667167,-1.4064290110304967e-06,0.014945686272087366,-2.5229468173515457e-06,-0.011414356236927437
46,68.29,174.007,522.355,1.0421e-08,301.485,-0.0174711,-0.0301118,-0.00212458,0.0154578,-0.0119924,0.0304974,-1.48737e-06,-2.66869e-06,0.0213374,-0.0021223246773989235,0.03096720953055132,-1.4873688938266127e-06,0.015577889767059094,-2.668686439055712e-06,-0.011920777764516055
47,70.99,175.156,525.809,1.54827e-08,303.478,-0.0177678,-0.0306213,-0.00222565,0.0160799,-0.0125046,0.0317518,-1.56891e-06,-2.81553e-06,0.0223191,-0.0022231750774829306,0.03226126626088255,-1.5689087692338788e-06,0.016209877331633038,-2.815526036425986e-06,-0.012426742353552345
48,73.7,176.268,529.151,1.91284e-08,305.405,-0.0180516,-0.0311086,-0.00232671,0.0167013,-0.0130163,0.033005,-1.65102e-06,-2.96339e-06,0.0233004,-0.00232400530837229,0.03355570700692123,-1.651018637027768e-06,0.01684154638865709,-2.9633856091226818e-06,-0.012931954319984729
49,76.4,177.345,532.387,2.14704e-08,307.272,-0.0183235,-0.0315754,-0.00242776,0.017322,-0.0135277,0.0342571,-1.73365e-06,-3.1122e-06,0.0242815,-0.002424815374121536,0.03485063262667154,-1.7336484972041433e-06,0.017472895855537462,-3.1121951571400075e-06,-0.01343661186661238
50,79.11,178.389,535.525,2.26157e-08,309.082,-0.0185843,-0.0320231,-0.00252879,0.0179422,-0.0140388,0.035508,-1.81678e-06,-3.26189e-06,0.0252623,-0.0025255953040402845,0.03614593726240645,-1.8167783496503276e-06,0.018104128270485464,-3.261884680028082e-06,-0.013940715579609742
51,81.81,179.402,538.571,2.26658e-08,310.839,-0.0188348,-0.0324532,-0.0026298,0.0185617,-0.0145494,0.0367578,-1.90036e-06,-3.41243e-06,0.0262427,-0.0026263451052043196,0.03744172202202534,-1.900358194362184e-06,0.018735039182426583,-3.412424177673401e-06,-0.014444068933187837
52,84.52,180.387,541.531,2.17138e-08,312.546,-0.0190758,-0.0328668,-0.00273079,0.0191805,-0.0150597,0.0380065,-1.98437e-06,-3.56374e-06,0.0272226,-0.002727064784686317,0.03873798465345457,-1.9843680311160128e-06,0.019365627508578953,-3.5637336498473005e-06,-0.014946869824252751
53,87.22,181.344,544.409,1.98457e-08,314.206,-0.0193078,-0.033265,-0.00283174,0.0197988,-0.0155696,0.039254,-2.06879e-06,-3.71578e-06,0.0282021,-0.002827734406111726,0.040034618896761076,-2.0687878600211818e-06,0.019996096165367128,-3.715773096546471e-06,-0.015449020381165024
54,89.93,182.276,547.21,1.71389e-08,315.822,-0.0195314,-0.033649,-0.00293265,0.0204164,-0.0160792,0.0405003,-2.15359e-06,-3.86851e-06,0.0291812,-0.002928353982586618,0.04133162210195729,-2.1535876810752086e-06,0.020626240322845435,-3.868502517323513e-06,-0.01595061974200651
55,92.63,183.184,549.939,1.36637e-08,317.395,-0.0197472,-0.0340194,-0.00303353,0.0210334,-0.0165883,0.0417456,-2.23874e-06,-4.02189e-06,0.0301597,-0.003028933496921127,0.042629200140239076,-2.2387374940535665e-06,0.021256161023677,-4.021881912175118e-06,-0.016451471778792248
56,95.34,184.069,552.599,9.48408e-09,318.93,-0.0199557,-0.0343773,-0.00313437,0.0216498,-0.017097,0.0429896,-2.32423e-06,-4.17587e-06,0.0311377,-0.003129462990484777,0.043927037952961934,-2.324227298955428e-06,0.021885857373809214,-4.1758612810971485e-06,-0.01695167567745004
57,98.04,184.932,555.194,4.65649e-09,320.426,-0.0201573,-0.0347233,-0.00323516,0.0222655,-0.0176053,0.0442325,-2.41003e-06,-4.33041e-06,0.0321152,-0.0032299325086635466,0.04522534153205804,-2.4100270958893333e-06,0.022515226227513896,-4.330400623753228e-06,-0.01745123216766531
58,100.7,185.775,557.727,-7.67064e-10,321.888,-0.0203524,-0.0350581,-0.0033359,0.0228807,-0.0181132,0.0454743,-2.49612e-06,-4.48549e-06,0.0330921,-0.003330342067548231,0.04652410859874556,-2.496116884742605e-06,0.023144471130575273,-4.4854799402527235e-06,-0.017950141977976064
59,103.5,186.598,560.202,-6.74019e-09,323.315,-0.0205413,-0.0353823,-0.0034366,0.0234952,-0.0186207,0.0467149,-2.58249e-06,-4.64108e-06,0.0340685,-0.0034307016489123487,0.047823232087551126,-2.582486665403394e-06,0.02377338662257955,-4.6410692302600864e-06,-0.01844840583577434
60,106.2,187.402,562.62,-1.32212e-08,324.71,-0.0207244,-0.0356967,-0.00353724,0.0241091,-0.0191278,0.0479543,-2.66913e-06,-4.79713e-06,0.0350442,-0.0035309913364366396,0.04912270932109686,-2.6691264378708723e-06,0.024402074060491774,-4.79711849377118e-06,-0.0189460244673072
61,108.9,188.189,564.986,-2.01722e-08,326.074,-0.020902,-0.0360016,-0.00363783,0.0247224,-0.0196344,0.0491926,-2.756e-06,-4.95363e-06,0.0360193,-0.003631221112876948,0.05042264265966723,-2.755996202252753e-06,0.02503053254960963,-4.953617730785176e-06,-0.019442900541975727
62,111.6,188.959,567.3,-2.75596e-08,327.409,-0.0210745,-0.0362976,-0.00373836,0.0253351,-0.0201406,0.0504297,-2.84311e-06,-5.11055e-06,0.0369938,-0.0037313810315960927,0.05172292463448569,-2.8431059583278184e-06,0.02565876119509536,-5.11053694118857e-06,-0.01993913293870553
63,114.3,189.713,569.566,-3.53522e-08,328.716,-0.021242,-0.0365851,-0.00383883,0.0259472,-0.0206465,0.0516657,-2.93044e-06,-5.26786e-06,0.0379676,-0.003831471111634177,0.05302365785687191,-2.9304357063164588e-06,0.026286759101974866,-5.267846124867859e-06,-0.02043482033665267
64,117.0,190.451,571.785,-4.35225e-08,329.996,-0.0214048,-0.0368646,-0.00393925,0.0265587,-0.0211518,0.0529005,-3.01798e-06,-5.42555e-06,0.0389408,-0.003931501332703702,0.05432473458905185,-3.0179754458847796e-06,0.02691452537514194,-5.425535281711191e-06,-0.020929669587744115
65,119.7,191.175,573.96,-5.20453e-08,331.25,-0.0215632,-0.0371365,-0.00403961,0.0271696,-0.0216568,0.0541342,-3.1057e-06,-5.58358e-06,0.0399134,-0.004031461751132337,0.05562625769356333,-3.1056951773633656e-06,0.027542059119359363,-5.583564411826281e-06,-0.021423975281909646
66,122.4,191.884,576.092,-6.08976e-08,332.48,-0.0217173,-0.0374011,-0.0041399,0.0277799,-0.0221613,0.0553667,-3.19361e-06,-5.74194e-06,0.0408852,-0.00413134242723312,0.05692811916350138,-3.1936049004199774e-06,0.0281693594392618,-5.741923515101277e-06,-0.02191754237361232
67,125.1,192.579,578.183,-7.00587e-08,333.686,-0.0218674,-0.0376588,-0.00424013,0.0283896,-0.0226654,0.0565981,-3.28169e-06,-5.90061e-06,0.0418564,-0.004231153340674143,0.058230422112803604,-3.2816846152750045e-06,0.0287964254393569,-5.9005925914235036e-06,-0.022410469487784357
68,127.8,193.262,580.235,-7.95098e-08,334.869,-0.0220136,-0.0379099,-0.00434029,0.0289987,-0.0231691,0.0578283,-3.36992e-06,-6.05957e-06,0.0428269,-0.004330884553733094,0.05953305826530064,-3.36991432181577e-06,0.02942325622402797,-6.059551640791305e-06,-0.022902757341198954
69,130.5,193.932,582.25,-8.92338e-08,336.031,-0.0221562,-0.0381547,-0.00444039,0.0296072,-0.0236723,0.0590573,-3.45831e-06,-6.21881e-06,0.0437966,-0.004430546044048467,0.060836024902903185,-3.4583040200431014e-06,0.030049850897535313,-6.218790663203855e-06,-0.023394308988938017
70,133.2,194.59,584.227,-9.92147e-08,337.172,-0.0222953,-0.0383934,-0.00454043,0.0302151,-0.0241751,0.0602852,-3.54685e-06,-6.3783e-06,0.0447657,-0.00453013783055789,0.06213942551692275,-3.546843709956171e-06,0.03067620856401998,-6.37827965865867e-06,-0.02388522290427797
71,135.9,195.236,586.17,-1.09438e-07,338.292,-0.022431,-0.0386265,-0.00464039,0.0308224,-0.0246774,0.061512,-3.63551e-06,-6.53803e-06,0.0457341,-0.004629640024777948,0.06344325777132531,-3.635503391552497e-06,0.03130232832750357,-6.538008627154923e-06,-0.024375402237967303
72,138.6,195.872,588.08,-1.19892e-07,339.394,-0.0225635,-0.038854,-0.00474029,0.0314291,-0.0251794,0.0627376,-3.7243e-06,-6.69799e-06,0.0467017,-0.004729072557001723,0.06474741285103569,-3.7242930648329065e-06,0.03192820929189244,-6.697967568469743e-06,-0.02486504287596114
73,141.3,196.496,589.956,-1.30562e-07,340.476,-0.0226929,-0.0390762,-0.00484012,0.0320352,-0.0256809,0.0639621,-3.81321e-06,-6.85817e-06,0.0476686,-0.004828425494403987,0.06605199462525513,-3.8132027296855497e-06,0.032553850560977926,-6.8581464828243455e-06,-0.02535395045313693
74,144.0,197.11,591.802,-1.4144e-07,341.541,-0.0228193,-0.0392934,-0.00493988,0.0326408,-0.0261819,0.0651854,-3.90223e-06,-7.01854e-06,0.0486348,-0.004927698858838814,0.06735689400926104,-3.902222386331644e-06,0.033179354556370555,-7.018515370105227e-06,-0.025842125825817908
75,146.7,197.714,593.617,-1.52514e-07,342.588,-0.0229429,-0.0395057,-0.00503956,0.0332457,-0.0266825,0.0664075,-3.99135e-06,-7.1791e-06,0.0496002,-0.005026882722410808,0.06866210825814867,-3.9913420345483175e-06,0.03380451380829497,-7.179074230312388e-06,-0.026329667215838293
76,149.4,198.308,595.403,-1.63775e-07,343.618,-0.0230638,-0.0397134,-0.00513918,0.0338501,-0.0271827,0.0676286,-4.08057e-06,-7.33984e-06,0.0505649,-0.005125997007389471,0.06996784861607064,-4.080561674446592e-06,0.034429534118551874,-7.339813063445e-06,-0.026816575330425363
77,152.1,198.892,597.161,-1.75214e-07,344.632,-0.0231821,-0.0399166,-0.00523872,0.0344539,-0.0276824,0.0688485,-4.16988e-06,-7.50074e-06,0.0515288,-0.005225021837099719,0.0712738988579753,-4.169871306025641e-06,0.03505431127249392,-7.5007118695014086e-06,-0.027302753605974006
78,154.8,199.468,598.892,-1.86824e-07,345.63,-0.0232979,-0.0401155,-0.00533819,0.0350571,-0.0281817,0.0700672,-4.25927e-06,-7.66179e-06,0.052492,-0.005323967183049283,0.07258025622568853,-4.259260929284636e-06,0.03567884437330049,-7.661760648591809e-06,-0.027788300114325648
79,157.6,200.035,600.596,-1.98597e-07,346.612,-0.0234113,-0.0403102,-0.00543759,0.0356597,-0.0286805,0.0712848,-4.34874e-06,-7.82299e-06,0.0534544,-0.005422833066995536,0.07388702534526326,-4.348730544223578e-06,0.036303132524048154,-7.822959400494156e-06,-0.028273118386499485
80,160.3,200.593,602.274,-2.10526e-07,347.581,-0.0235223,-0.040501,-0.00553691,0.0362617,-0.0291789,0.0725013,-4.43829e-06,-7.98431e-06,0.0544161,-0.005521609565893093,0.0751942038417115,-4.438280150842466e-06,0.03692717482771468,-7.984278125428013e-06,-0.028757306394621263
81,163.0,201.143,603.928,-2.22606e-07,348.534,-0.0236311,-0.040688,-0.00563616,0.0368632,-0.0296769,0.0737166,-4.5279e-06,-8.14577e-06,0.055377,-0.005620306648219886,0.07650168168562832,-4.527889749028624e-06,0.03755107414228176,-8.145736823284011e-06,-0.02924086483999
82,165.7,201.686,605.558,-2.34829e-07,349.474,-0.0237378,-0.0408712,-0.00573533,0.0374641,-0.0301744,0.0749308,-4.61758e-06,-8.30734e-06,0.0563371,-0.005718914392863872,0.07780956388213056,-4.617569339004923e-06,0.03817472594015103,-8.307305494170691e-06,-0.02972369739517533
83,168.4,202.22,607.164,-2.47192e-07,350.401,-0.0238423,-0.0410509,-0.00583443,0.0380644,-0.0306715,0.0761438,-4.70731e-06,-8.46901e-06,0.0572965,-0.005817442766285819,0.07911774013161388,-4.707298920658687e-06,0.03879812932393767,-8.468974138087226e-06,-0.030205901883344932
84,171.1,202.747,608.748,-2.59688e-07,351.314,-0.0239449,-0.0412272,-0.00593345,0.0386641,-0.0311681,0.0773557,-4.7971e-06,-8.63078e-06,0.0582551,-0.005915881849303695,0.08042631569208147,-4.79708849387972e-06,0.039421283396165574,-8.630742754922593e-06,-0.030687382071044378
85,173.8,203.266,610.309,-2.72314e-07,352.215,-0.0240455,-0.0414002,-0.0060324,0.0392632,-0.0316643,0.0785665,-4.88694e-06,-8.79265e-06,0.0592129,-0.006014241606365545,0.08173528816714093,-4.886928058889239e-06,0.04004418725926939,-8.792611344787815e-06,-0.03116823568241356
86,176.5,203.779,611.85,-2.85064e-07,353.103,-0.0241443,-0.04157,-0.00613127,0.0398618,-0.0321601,0.0797762,-4.97683e-06,-8.95459e-06,0.0601699,-0.00611251212021513,0.08304465515618542,-4.976817615576223e-06,0.04066694408228444,-8.954549907791431e-06,-0.03164846341287064
87,179.2,204.284,613.369,-2.97935e-07,353.98,-0.0242412,-0.0417366,-0.00623006,0.0404598,-0.0326554,0.0809847,-5.06675e-06,-9.11661e-06,0.0611262,-0.006210693415397706,0.08435430581896242,-5.066737164050039e-06,0.04128944902527265,-9.116568443823247e-06,-0.03212796916953864
88,181.9,204.783,614.869,-3.10923e-07,354.844,-0.0243364,-0.0419003,-0.00632878,0.0410573,-0.0331503,0.0821922,-5.15672e-06,-9.27871e-06,0.0620816,-0.006308795453347504,0.08566445448630744,-5.156706704090297e-06,0.04191180538151151,-9.278666952883263e-06,-0.032606850528630216
89,184.6,205.275,616.349,-3.24025e-07,355.698,-0.0244299,-0.0420612,-0.00642742,0.0416541,-0.0336447,0.0833984,-5.24671e-06,-9.44086e-06,0.0630363,-0.006406808319690094,0.08697477304556478,-5.2466962360275815e-06,0.042533803932869096,-9.440815435191041e-06,-0.03308501149059917
90,187.3,205.761,617.81,-3.37236e-07,356.541,-0.0245218,-0.0422192,-0.00652598,0.0422504,-0.0341387,0.0846036,-5.33674e-06,-9.60307e-06,0.0639902,-0.006504732038901895,0.088285584778526,-5.336725759641503e-06,0.04315565222579676,-9.603023890636386e-06,-0.033562549533314945
91,190.0,206.241,619.252,-3.50555e-07,357.372,-0.0246121,-0.0423745,-0.00662446,0.0428462,-0.0346323,0.0858076,-5.4268e-06,-9.76533e-06,0.0649434,-0.0066025666354360135,0.0895966697373638,-5.426785274931234e-06,0.04377734954863488,-9.765282319329494e-06,-0.03403946534635949
92,192.7,206.714,620.676,-3.63978e-07,358.194,-0.0247009,-0.0425272,-0.00672287,0.0434413,-0.0351254,0.0870106,-5.51688e-06,-9.92764e-06,0.0658957,-0.006700322066718556,0.09090824328436953,-5.516864782006969e-06,0.0443986863097674,-9.92759072115934e-06,-0.034515663069799696
93,195.4,207.182,622.083,-3.77502e-07,359.005,-0.0247882,-0.0426774,-0.0068212,0.0440359,-0.035618,0.0882124,-5.60698e-06,-1.009e-05,0.0668472,-0.006797988422204582,0.09222008493890521,-5.606964280868709e-06,0.04501987042838418,-1.0089949096125927e-05,-0.03499114353371835
94,198.1,207.644,623.472,-3.91124e-07,359.806,-0.0248741,-0.0428252,-0.00691944,0.04463,-0.0361103,0.0894131,-5.6971e-06,-1.02524e-05,0.067798,-0.006895555795234265,0.09353230122628986,-5.6970837715164535e-06,0.045640901192328,-1.0252347444339449e-05,-0.03546610047351351
95,200.8,208.101,624.845,-4.04844e-07,360.598,-0.0249586,-0.0429705,-0.00701761,0.0452234,-0.036602,0.0906126,-5.78723e-06,-1.04148e-05,0.0687479,-0.006993044073231314,0.09484478022352327,-5.787213254060397e-06,0.04626156863691344,-1.0414745766129663e-05,-0.03594024521387351
96,203.5,208.552,626.201,-4.18657e-07,361.38,-0.0250417,-0.0431136,-0.0071157,0.0458164,-0.0370934,0.0918111,-5.87738e-06,-1.05772e-05,0.0696971,-0.0070904433485127205,0.09615773832560248,-5.877362728279323e-06,0.04688218574190017,-1.057714406160759e-05,-0.036413867798775756
97,206.2,208.998,627.542,-4.32563e-07,362.153,-0.0251236,-0.0432544,-0.00721371,0.0464087,-0.0375843,0.0930084,-5.96754e-06,-1.07397e-05,0.0706454,-0.007187753645391037,0.09747095398537708,-5.9675221942834256e-06,0.047502437730008396,-1.0739642329671284e-05,-0.03688677614622249
98,208.9,209.439,628.866,-4.46559e-07,362.917,-0.0252041,-0.0433931,-0.00731164,0.0470005,-0.0380748,0.0942047,-6.05771e-06,-1.09021e-05,0.071593,-0.0072849749881558346,0.09878464411470822,-6.057691652072705e-06,0.04812253314079129,-1.0902040572302596e-05,-0.037359067343637475
99,211.7,209.874,630.176,-4.60642e-07,363.673,-0.0252835,-0.0435297,-0.0074095,0.0475917,-0.0385648,0.0953998,-6.14788e-06,-1.10646e-05,0.0725398,-0.0073821173272513585,0.1000985866328532,-6.147861101868379e-06,0.04874236638703833,-1.1064538787519673e-05,-0.03783064585446849
100,214.4,210.305,631.471,-4.74813e-07,364.42,-0.0253616,-0.0436642,-0.00750727,0.0481824,-0.0390544,0.0965938,-6.23805e-06,-1.12271e-05,0.0734858,-0.007479160833591125,0.10141288882756028,-6.238030543448403e-06,0.049362041505891074,-1.1227036976313443e-05,-0.03830160866915322
101,217.1,210.731,632.752,-4.89069e-07,365.158,-0.0254386,-0.0437968,-0.00760496,0.0487726,-0.0395435,0.0977868,-6.32823e-06,-1.13896e-05,0.0744309,-0.007576115458543531,0.10272765850810872,-6.3282099768136035e-06,0.049981557784058106,-1.1389535138794926e-05,-0.03877186034293201
102,219.8,211.152,634.018,-5.03407e-07,365.888,-0.0255145,-0.0439274,-0.00770258,0.0493621,-0.0400322,0.0989786,-6.4184e-06,-1.15521e-05,0.0753753,-0.007672991149573094,0.10404267279287871,-6.418379402073349e-06,0.050600704387903095,-1.155203327474208e-05,-0.03924149776953034
103,222.5,211.569,635.27,-5.17828e-07,366.611,-0.0255892,-0.0440562,-0.00780011,0.0499512,-0.0405205,0.100169,-6.50858e-06,-1.17146e-05,0.0763189,-0.00776976808334251,0.10535770774408482,-6.508558819229293e-06,0.05121979559827028,-1.1714531384376947e-05,-0.03971052162467592
104,225.2,211.981,636.51,-5.32329e-07,367.325,-0.025663,-0.0441832,-0.00789756,0.0505396,-0.0410083,0.101359,-6.59874e-06,-1.1877e-05,0.0772617,-0.007866456208237227,0.10667386637536813,-6.598718228389977e-06,0.05183851533549588,-1.1876929468690456e-05,-0.040178836600918366
105,227.9,212.389,637.735,-5.46909e-07,368.032,-0.0257356,-0.0443084,-0.00799493,0.0511275,-0.0414957,0.102547,-6.6889e-06,-1.20395e-05,0.0782037,-0.007963055548380948,0.1079893761867301,-6.6888776293350105e-06,0.0524570730058731,-1.2039427525478708e-05,-0.040646539447516394
106,230.6,212.792,638.948,-5.61567e-07,368.732,-0.0258073,-0.0444319,-0.00809223,0.0517149,-0.0419827,0.103735,-6.77905e-06,-1.2202e-05,0.0791448,-0.008059576047277806,0.10930644975243453,-6.779027022285611e-06,0.05307546789535511,-1.2201925555954674e-05,-0.041113630836820625
107,233.3,213.191,640.149,-5.76302e-07,369.424,-0.025878,-0.0445538,-0.00818944,0.0523017,-0.0424692,0.104921,-6.8692e-06,-1.23644e-05,0.0800852,-0.008155997889230604,0.11062286768336849,-6.869176407131583e-06,0.05369359392035489,-1.236432356110928e-05,-0.04158001559812652
108,236.0,213.587,641.337,-5.91112e-07,370.109,-0.0259478,-0.044674,-0.00828657,0.052888,-0.0429553,0.106106,-6.95933e-06,-1.25268e-05,0.0810248,-0.008252331018661407,0.11193973587187656,-6.959305783871272e-06,0.05431155561223844,-1.2526721539951602e-05,-0.04204579033682254
109,238.7,213.978,642.512,-6.05998e-07,370.787,-0.0260166,-0.0447926,-0.00838362,0.0534737,-0.043441,0.107291,-7.04944e-06,-1.26892e-05,0.0819636,-0.008348575459598995,0.11325816547414291,-7.0494151527267235e-06,0.05492924676355604,-1.2689119492481638e-05,-0.04251095572189756
110,241.4,214.365,643.676,-6.20956e-07,371.459,-0.0260846,-0.0449098,-0.0084806,0.0540589,-0.0439262,0.108474,-7.13954e-06,-1.28516e-05,0.0829016,-0.008444741151601431,0.11457592918745241,-7.139514513587741e-06,0.05554677202903191,-1.2851517418588365e-05,-0.04297541671883165
111,244.1,214.748,644.829,-6.35988e-07,372.123,-0.0261517,-0.0450254,-0.00857749,0.0546435,-0.044411,0.109656,-7.22963e-06,-1.30139e-05,0.0838388,-0.008540808286583657,0.11589413684300154,-7.229603866343304e-06,0.05616402507744689,-1.3013815319595778e-05,-0.04343926978973678
112,246.8,215.128,645.97,-6.51092e-07,372.781,-0.0262179,-0.0451396,-0.0086743,0.0552276,-0.0448953,0.110837,-7.3197e-06,-1.31762e-05,0.0847751,-0.008636786805018115,0.11721278632786736,-7.319673211103606e-06,0.05678111068680236,-1.3176113194290906e-05,-0.04390241999050404
113,249.5,215.503,647.1,-6.66266e-07,373.433,-0.0262833,-0.0452524,-0.00877103,0.0558112,-0.0453793,0.112016,-7.40975e-06,-1.33385e-05,0.0857107,-0.00873267673083944,0.11853075699398596,-7.409722547868647e-06,0.05739802814200301,-1.3338411042562726e-05,-0.04436505925149614
114,252.2,215.876,648.219,-6.81511e-07,374.078,-0.0263479,-0.0453638,-0.00886768,0.0563942,-0.0458628,0.113195,-7.49977e-06,-1.35008e-05,0.0866455,-0.00882847808795828,0.11985028246389673,-7.499741876748622e-06,0.058014670926315626,-1.3500708864633282e-05,-0.04482699706288307
115,254.9,216.244,649.327,-6.96825e-07,374.718,-0.0264117,-0.0454739,-0.00896425,0.0569767,-0.0463458,0.114373,-7.58978e-06,-1.3663e-05,0.0875795,-0.008924190900261864,0.12117024340099047,-7.589751197745187e-06,0.05863114400248248,-1.3662906661604524e-05,-0.045288234225560275
116,257.6,216.609,650.425,-7.12209e-07,375.351,-0.0264747,-0.0455826,-0.00906073,0.0575586,-0.0468284,0.115549,-7.67976e-06,-1.38251e-05,0.0885127,-0.009019805281811899,0.12248951518699691,-7.679730510745664e-06,0.05924734073022786,-1.3825004433698496e-05,-0.04574886696410296
117,260.3,216.971,651.512,-7.2766e-07,375.978,-0.026537,-0.0456901,-0.00915714,0.05814,-0.0473106,0.116725,-7.76972e-06,-1.39873e-05,0.0894451,-0.009115341077007733,0.12381033934924202,-7.76968981575088e-06,0.05986336619537869,-1.3987202178156188e-05,-0.04620889593855326
118,263.0,217.329,652.59,-7.43179e-07,376.599,-0.0265986,-0.0457964,-0.00925347,0.0587208,-0.0477924,0.117899,-7.85966e-06,-1.41493e-05,0.0903767,-0.009210788398907654,0.12513046745120837,-7.85962911298288e-06,0.06047911363421199,-1.4149199899171627e-05,-0.04666832180791103
119,265.8,217.684,653.657,-7.58766e-07,377.215,-0.0266595,-0.0459015,-0.00934971,0.0593011,-0.0482737,0.119073,-7.94957e-06,-1.43114e-05,0.0913075,-0.009306137364366251,0.12645214629367363,-7.949538402218792e-06,0.06109468825555586,-1.4311297592439765e-05,-0.04712704994284378
120,268.5,218.036,654.715,-7.74418e-07,377.825,-0.0267197,-0.0460054,-0.00944588,0.0598809,-0.0487546,0.120245,-8.03945e-06,-1.44734e-05,0.0922375,-0.009401407811983176,0.12777312214977554,-8.03941768368066e-06,0.06171008934334177,-1.4473295260830632e-05,-0.04758517637919568
121,270.5,218.3,655.508,-9.00018e-07,378.282,-0.0267647,-0.046083,-0.00951848,0.0603186,-0.0491177,0.12113,-8.10732e-06,-1.45957e-05,0.0929396,-0.009473322659235395,0.12877164314324552,-8.10728713573905e-06,0.062174901566181884,-1.4595593483268665e-05,-0.047930935425298804
