,Time,S11,S22,S33,S12,S13,S23,LE11,LE22,LE33,LE12,LE13,LE23,SDV_EPBAR,E11,E12,E13,E22,E23,E33
0,0.0002705,0.000519365,0.0015581,-7.79048e-12,0.000899567,2.21372e-21,3.68811e-20,2.50301e-10,6.7501e-09,-3.0004e-09,1.1258e-08,2.76762e-26,4.61603e-25,0.0,2.5030089112476617e-10,1.1258000087721598e-08,0.0,6.750100034480511e-09,0.0,-3.0004000395322805e-09
1,0.000541,0.00103873,0.00311619,4.33681e-19,0.00179913,-3.08331e-20,-2.03577e-20,5.00425e-10,1.35001e-08,-6.00057e-09,2.25162e-08,-1.63975e-24,4.6912e-25,0.0,5.00425034744012e-10,2.2516200237632233e-08,0.0,1.3500100148888805e-08,0.0,-6.000569929831556e-09
2,0.00094675,0.00181778,0.00545333,6.50521e-19,0.00314848,1.87371e-20,6.55005e-20,8.75688e-10,2.36252e-08,-1.05009e-08,3.94034e-08,-1.73568e-24,1.95724e-24,0.0,8.756879665838824e-10,3.9403400764470575e-08,0.0,2.3625200240573463e-08,0.0,-1.0500899927379237e-08
3,0.0015554,0.00298635,0.00895905,1.73472e-18,0.00517251,4.73565e-20,4.89771e-20,1.4375e-09,3.88125e-08,-1.725e-08,6.47354e-08,4.1359e-25,7.16359e-25,0.0,1.4374998968946784e-09,6.473540214990692e-08,0.0,3.8812500768869995e-08,0.0,-1.7249999872959165e-08
4,0.0024683,0.00473921,0.0142176,0.0,0.00820854,1.00168e-19,-5.78319e-20,2.28125e-09,6.15937e-08,-2.7375e-08,1.02732e-07,-7.41318e-35,-1.284e-34,0.0,2.281250077729169e-09,1.027320053470504e-07,0.0,6.159370191660685e-08,0.0,-2.7374999600482397e-08
5,0.0038377,0.00736849,0.0221055,-8.67362e-19,0.0127626,9.88226e-21,-8.20239e-20,3.54688e-09,9.57656e-08,-4.25625e-08,1.59728e-07,7.653e-32,1.32554e-31,0.0,3.5468799008953056e-09,1.597280128162737e-07,0.0,9.576560455748506e-08,0.0,-4.256249908074494e-08
6,0.0058918,0.0113124,0.0339373,-6.07153e-18,0.0195937,-4.73565e-20,-4.89771e-20,5.44671e-09,1.47024e-07,-6.53456e-08,2.45219e-07,-1.14621e-23,6.61761e-24,0.0,5.446709971934638e-09,2.452190299706558e-07,0.0,1.4702401074373483e-07,0.0,-6.534559782167548e-08
7,0.008973,0.0172283,0.0516849,7.80626e-18,0.0298403,6.7121e-20,-1.15071e-19,8.29297e-09,2.2391e-07,-9.95156e-08,3.7346e-07,1.78232e-31,3.08708e-31,0.0,8.292970088419338e-09,3.734600697580248e-07,0.0,2.2391002496569e-07,0.0,-9.951559509779884e-08
8,0.013595,0.0261021,0.0783064,9.54098e-18,0.0452102,-1.3116e-19,-4.58503e-19,1.25671e-08,3.39241e-07,-1.50777e-07,5.65816e-07,2.77687e-23,-3.13146e-23,0.0,1.2567100027283118e-08,5.658161601473921e-07,0.0,3.392410574676319e-07,0.0,-1.5077698867216327e-07
9,0.020527,0.0394129,0.118239,6.07153e-18,0.0682651,-4.56883e-19,3.48265e-20,1.89735e-08,5.12236e-07,-2.27663e-07,8.54355e-07,1.1462e-23,-6.61759e-24,0.0,1.8973500104380037e-08,8.543553648987512e-07,0.0,5.122361312892565e-07,0.0,-2.276629741393421e-07
10,0.030926,0.059379,0.178137,-8.67362e-19,0.102847,-1.54031e-18,-2.55477e-19,2.8587e-08,7.71729e-07,-3.42996e-07,1.28716e-06,-2.95414e-23,1.77334e-24,0.0,2.858700032248862e-08,1.2871608283671065e-06,0.0,7.717292977993395e-07,0.0,-3.429959412049044e-07
11,0.046525,0.0893282,0.267985,-4.94396e-17,0.154721,-5.5365e-19,3.95969e-19,4.30043e-08,1.16097e-06,-5.15992e-07,1.93637e-06,-9.16942e-23,5.29396e-23,0.0,4.300430100911967e-08,1.9363718748444114e-06,0.0,1.1609706738191505e-06,0.0,-5.159918669006558e-07
12,0.069922,0.134252,0.402756,-2.1684e-17,0.232531,2.20493e-19,-2.49317e-18,6.46307e-08,1.74483e-06,-7.75487e-07,2.91018e-06,-5.29397e-23,-9.16942e-23,0.0,6.463070212348043e-08,2.910184234483637e-06,0.0,1.744831522154655e-06,0.0,-7.754866993003873e-07
13,0.105,0.201637,0.604912,1.99493e-17,0.349246,-1.22407e-18,-2.88023e-18,9.70596e-08,2.62061e-06,-1.16471e-06,4.37091e-06,-1.05879e-22,-1.83388e-22,0.0,9.705960479777787e-08,4.370919552521002e-06,0.0,2.62061343381248e-06,0.0,-1.1647093217659332e-06
14,0.1577,0.302715,0.908146,-9.1073e-17,0.524319,2.72256e-18,-2.74454e-19,1.45719e-07,3.93429e-06,-1.74858e-06,6.56199e-06,1.03982e-22,-2.43423e-22,0.0,1.4571901063575865e-07,6.562011529931411e-06,0.0,3.934297739371928e-06,0.0,-1.748578471238993e-06
15,0.2366,0.454332,1.363,-7.80626e-18,0.786926,-1.38381e-17,-7.8084e-18,2.18705e-07,5.90479e-06,-2.62436e-06,9.8486e-06,-2.11758e-22,-3.66776e-22,0.0,2.1870502386889257e-07,9.848648497623458e-06,0.0,5.904807433232406e-06,0.0,-2.624356556402141e-06
16,0.3551,0.681756,2.04527,4.77049e-17,1.18084,-5.94481e-18,-2.59681e-18,3.28182e-07,8.86055e-06,-3.93804e-06,1.47785e-05,5.57568e-28,9.65736e-28,0.0,3.281820537548441e-07,1.4778609202625859e-05,0.0,8.860589254755524e-06,0.0,-3.938032245964784e-06
17,0.5328,1.02289,3.06867,7.13839e-16,1.7717,-5.94479e-18,-2.59677e-18,4.92389e-07,1.32942e-05,-5.90853e-06,2.21733e-05,8.36561e-28,1.44897e-27,0.0,4.923891212538223e-07,2.2173545829451413e-05,0.0,1.3294288368159712e-05,0.0,-5.908512544672284e-06
18,0.7993,1.53459,4.60377,-2.85362e-16,2.65799,-3.98145e-18,-3.30361e-17,7.38697e-07,1.99445e-05,-8.86424e-06,3.32654e-05,7.35553e-27,1.27402e-26,0.0,7.38697272906208e-07,3.326595329955495e-05,0.0,1.9944698892881974e-05,0.0,-8.864200712777048e-06
19,1.199,2.30213,6.90638,-1.61763e-15,3.9874,2.21215e-18,-5.61484e-17,1.10814e-06,2.99199e-05,-1.32977e-05,4.99034e-05,-4.23505e-22,-7.33532e-22,0.0,1.1081406139368255e-06,4.990464519538662e-05,0.0,2.992034760462836e-05,0.0,-1.3297611585971758e-05
20,1.799,3.45341,10.3602,-3.17194e-15,5.98148,6.53581e-17,-1.44564e-17,1.66234e-06,4.48827e-05,-1.99479e-05,7.48599e-05,-1.09041e-26,-1.88864e-26,0.0,1.6623413816585497e-06,7.486270207235357e-05,0.0,4.4883707243537074e-05,0.0,-1.994770104196686e-05
21,2.698,5.18029,15.5409,-2.8485e-14,8.97252,-6.87866e-17,2.39178e-17,2.49357e-06,6.73263e-05,-2.99228e-05,0.000112294,-4.23518e-22,-7.33555e-22,0.0,2.4935731088859825e-06,0.00011230030520725798,0.0,6.732856646629592e-05,0.0,-2.9922352317468537e-05
22,4.047,31.1929,93.5787,-1.03264e-09,54.0277,-8.08225e-16,-1.7395e-16,1.5015e-05,0.000405403,-0.000180179,0.000676171,-3.02527e-20,1.82072e-21,0.0,1.5015112725613733e-05,0.0006763996551444329,0.0,0.00040548518690219915,0.0,-0.00018016276873877857
23,6.071,70.3658,211.097,-9.04826e-07,121.877,1.29847e-16,-7.14917e-16,3.38711e-05,0.000914519,-0.000406453,0.00152533,-2.03309e-20,-3.52142e-20,0.0,3.3871673632113186e-05,0.0015264939075101402,0.0,0.0009149373000056915,0.0,-0.00040637040916957634
24,8.776,121.238,363.727,0.000151669,209.994,-0.000301354,-0.000521819,5.55344e-05,0.00159319,-0.000714958,0.0026634,-3.82879e-09,-6.63435e-09,2.81969e-05,5.5535942063311694e-05,0.0026669500007709956,-3.8287899517541746e-09,0.0015944598014436817,-6.634349958289931e-09,-0.0007147024784285305
25,11.48,127.174,381.786,0.0907478,220.433,-0.00601742,-0.0103988,-3.26159e-05,0.00223306,-0.00122031,0.00392973,-1.08982e-07,-1.91072e-07,0.000936224,-3.2615368107280496e-05,0.003937461513205509,-1.0898199409581366e-07,0.002235555135398526,-1.910719817921347e-07,-0.001219565724531635
26,14.19,132.144,396.63,0.000178361,228.938,-0.011064,-0.0191299,-0.00012243,0.00287167,-0.00173112,0.00519687,-2.32911e-07,-4.10366e-07,0.00186442,-0.00012242250575333902,0.005210397151696355,-2.3291097284161566e-07,0.002875797193995222,-4.103659158039008e-07,-0.0017296224760287027
27,16.89,136.328,409.252,-6.60867e-06,236.204,-0.0150976,-0.0260939,-0.000214323,0.00350891,-0.00224412,0.00646525,-3.64897e-07,-6.45029e-07,0.00280602,-0.0002143000344664303,0.006486194842332482,-3.648969334468788e-07,0.003515073431561211,-6.450287919346209e-07,-0.002241603845249074
28,19.6,139.977,420.26,6.49325e-06,242.542,-0.0185321,-0.0320195,-0.000307439,0.00414508,-0.00275895,0.00773387,-5.06281e-07,-8.97217e-07,0.00375713,-0.00030739174547345094,0.007763853619217276,-5.062808718925282e-07,0.004153682726325991,-8.972165974618918e-07,-0.0027551475951341775
29,22.3,143.218,430.039,2.96137e-06,248.172,-0.0215097,-0.0371538,-0.000401466,0.00478028,-0.00327505,0.00900237,-6.55977e-07,-1.16483e-06,0.00471526,-0.0004013854233088088,0.009043013202975292,-6.559767848912657e-07,0.00479172376597492,-1.1648293215538175e-06,-0.0032696928736301034
30,25.01,146.138,438.847,1.31349e-06,253.244,-0.0241288,-0.0416676,-0.000496191,0.00541459,-0.00379205,0.0102705,-8.13027e-07,-1.44604e-06,0.00567871,-0.0004960679176040372,0.010323422610508226,-8.130266695438593e-07,0.00542927538558402,-1.4460389544668217e-06,-0.003784869257844048
31,27.71,148.798,446.871,5.11873e-07,257.864,-0.0264601,-0.0456835,-0.000591464,0.00604805,-0.00430967,0.0115381,-9.76604e-07,-1.73928e-06,0.00664626,-0.0005912891196485637,0.011604920622855674,-9.766035231617565e-07,0.006066376382064309,-1.7392784874559197e-06,-0.004300396698651343
32,30.42,151.243,454.246,1.06679e-07,262.11,-0.0285559,-0.0492925,-0.000687173,0.00668071,-0.00482771,0.012805,-1.146e-06,-2.04323e-06,0.00761704,-0.0006869369507060963,0.012887335070697947,-1.1459993433104998e-06,0.006703075721611329,-2.043227912640333e-06,-0.004816075338531789
33,33.12,153.507,461.074,-1.02615e-07,266.042,-0.030456,-0.0525633,-0.000783235,0.0073126,-0.00534603,0.0140712,-1.32061e-06,-2.35674e-06,0.00859036,-0.0007829283515318197,0.01417066531928568,-1.3206091279416299e-06,0.00733940235117303,-2.356737222930505e-06,-0.005331765412577516
34,35.83,155.617,467.436,-2.12093e-07,269.705,-0.0321911,-0.0555491,-0.000879583,0.00794374,-0.00586451,0.0153365,-1.4999e-06,-2.67884e-06,0.00956572,-0.0008791962802653375,0.015454707640177201,-1.4998988751013798e-06,0.00797537521441849,-2.6788364119179064e-06,-0.005847347327840646
35,38.53,157.593,473.396,-2.70183e-07,273.137,-0.0337854,-0.0582917,-0.000976167,0.00857414,-0.00638305,0.016601,-1.68343e-06,-3.00869e-06,0.0105427,-0.0009756907039881746,0.01673956229614193,-1.6834285830880091e-06,0.008611003219850977,-3.008685473870898e-06,-0.006362721611718802
36,41.24,159.452,479.003,-3.02242e-07,276.366,-0.0352581,-0.0608247,-0.00107294,0.00920383,-0.00690159,0.0178645,-1.87079e-06,-3.34556e-06,0.011521,-0.0010723646056844949,0.018025024652934096,-1.8707882500912376e-06,0.009246315486366674,-3.345554403622053e-06,-0.0068778287226914925
37,43.94,161.209,484.3,-3.21921e-07,279.416,-0.0366252,-0.0631754,-0.00116988,0.00983282,-0.00742005,0.019127,-2.06164e-06,-3.68879e-06,0.0125003,-0.0011691959571680233,0.019311092906320937,-2.061637874861688e-06,0.009881321011471211,-3.6887831964538265e-06,-0.007392589390673332
38,46.65,162.874,489.322,-3.3669e-07,282.308,-0.0378996,-0.0653662,-0.00126695,0.0104611,-0.0079384,0.0203886,-2.25568e-06,-4.03784e-06,0.0134803,-0.0012661477576848545,0.020597867307750928,-2.2556774559312487e-06,0.010516008607720062,-4.037831847880646e-06,-0.00790697411478436
39,49.35,164.457,494.097,-3.50656e-07,285.058,-0.0390919,-0.0674156,-0.00136412,0.0110887,-0.00845659,0.0216491,-2.45263e-06,-4.39221e-06,0.014461,-0.0013631900112329731,0.021885142053959417,-2.452626992277551e-06,0.01115040750827423,-4.392200354308429e-06,-0.008420933624028182
40,52.06,165.967,498.651,-3.66057e-07,287.68,-0.0402113,-0.0693394,-0.00146138,0.0117156,-0.00897458,0.0229085,-2.65226e-06,-4.75145e-06,0.0154422,-0.0014603127042192021,0.02317291494223972,-2.6522564827713424e-06,0.011784496433148162,-4.751438711925182e-06,-0.008934428660491656
41,54.76,167.41,503.003,-3.84069e-07,290.186,-0.0412655,-0.0711507,-0.00155871,0.0123419,-0.00949235,0.0241669,-2.85435e-06,-5.11517e-06,0.0164236,-0.0015574958424896534,0.024461286211587163,-2.8543459263952187e-06,0.012418375541786819,-5.1151569175900136e-06,-0.009447439858999207
42,57.47,168.793,507.172,-4.05257e-07,292.587,-0.0422609,-0.0728608,-0.0016561,0.0129675,-0.0100099,0.0254242,-3.05871e-06,-5.48303e-06,0.0174053,-0.0016547294231035181,0.025750151462093696,-3.0587053221342586e-06,0.01305194263664955,-5.483014968166167e-06,-0.009959967695668759
43,60.17,170.12,511.175,-4.29843e-07,294.892,-0.0432032,-0.0744796,-0.00175353,0.0135924,-0.0105271,0.0266805,-3.26517e-06,-5.85471e-06,0.018387,-0.00175199346452104,0.027039611181903567,-3.2651646693082625e-06,0.013685196635208063,-5.854692861184674e-06,-0.010471884007407173
44,62.88,171.396,515.024,-4.57847e-07,297.108,-0.0440973,-0.0760154,-0.00185098,0.0142167,-0.0110441,0.0279356,-3.47358e-06,-6.22992e-06,0.0193688,-0.0018492679929796862,0.028329457871866248,-3.4735739671276633e-06,0.014318237886733254,-6.2299005940680274e-06,-0.010983337821172223
45,65.58,172.626,518.731,-4.89182e-07,299.243,-0.0449475,-0.0774755,-0.00194846,0.0148403,-0.0115607,0.0291896,-3.68379e-06,-6.60841e-06,0.0203504,-0.0019465629841006749,0.029619791882372626,-3.6837832148028937e-06,0.014950964003378253,-6.608388164464074e-06,-0.011494131879388747
46,68.29,173.812,522.308,-5.23704e-07,301.303,-0.0457574,-0.0788665,-0.00204595,0.0154633,-0.0120771,0.0304425,-3.89568e-06,-6.98994e-06,0.021332,-0.0020438584709299157,0.030910610984392406,-3.895672411879936e-06,0.01558347546081329,-6.989915570465577e-06,-0.012004464530454784
47,70.99,174.958,525.764,-5.61238e-07,303.293,-0.0465304,-0.0801938,-0.00214345,0.0160857,-0.012593,0.0316942,-4.10912e-06,-7.3743e-06,0.0223133,-0.002141154451472782,0.03220180972431064,-4.109111557570877e-06,0.016215771366014264,-7.374272809945737e-06,-0.012514039970916602
48,73.7,176.067,529.107,-6.01606e-07,305.218,-0.0472694,-0.0814627,-0.00224094,0.0167074,-0.0131087,0.0329449,-4.32402e-06,-7.7613e-06,0.0232944,-0.0022384309685044013,0.03349359217549952,-4.324010651424182e-06,0.016847749141008395,-7.761269881223498e-06,-0.013023155193860325
49,76.4,177.14,532.344,-6.44627e-07,307.082,-0.0479769,-0.0826775,-0.00233843,0.0173285,-0.013624,0.0341943,-4.54027e-06,-8.15075e-06,0.0242752,-0.0023356980025107665,0.03478564604754242,-4.540259692986659e-06,0.017479509450854636,-8.150716782728828e-06,-0.013531613346494886
50,79.11,178.181,535.484,-6.90131e-07,308.89,-0.0486553,-0.0838423,-0.00243589,0.0179489,-0.0141389,0.0354427,-4.75779e-06,-8.5425e-06,0.0252557,-0.002432925627404381,0.03607827914176487,-4.757778681696578e-06,0.01811094959099635,-8.542463512895004e-06,-0.014039415173983105
51,81.81,179.192,538.531,-7.37957e-07,310.645,-0.0493067,-0.0849605,-0.00253335,0.0185687,-0.0146534,0.0366899,-4.97649e-06,-8.93639e-06,0.0262357,-0.0025301437769551516,0.03737128212056162,-4.9764776173244485e-06,0.018742170352659793,-8.936350070598564e-06,-0.01454656142031685
52,84.52,180.174,541.492,-7.87955e-07,312.35,-0.0499328,-0.0860355,-0.00263077,0.0191879,-0.0151676,0.037936,-5.19629e-06,-9.33228e-06,0.0272154,-0.0026273125571802947,0.0386647562068696,-5.196276499308539e-06,0.019373170842132748,-9.332236454384635e-06,-0.015053151323008662
53,87.22,181.128,544.371,-8.39988e-07,314.008,-0.0505355,-0.08707,-0.00272817,0.0198065,-0.0156814,0.0391809,-5.41713e-06,-9.73006e-06,0.0281946,-0.0027244519261732103,0.03995859514482181,-5.41711532742184e-06,0.02000395016554557,-9.730012663133891e-06,-0.015559087027846141
54,89.93,182.058,547.173,-8.9393e-07,315.622,-0.0511161,-0.0880668,-0.00282554,0.0204244,-0.0161948,0.0404246,-5.63894e-06,-1.01296e-05,0.0291734,-0.0028215519188993232,0.04125279628175904,-5.638924101214471e-06,0.020634405365428155,-1.0129548695725354e-05,-0.01606436927551458
55,92.63,182.963,549.903,-9.49665e-07,317.194,-0.0516762,-0.0890283,-0.00292287,0.0210417,-0.0167077,0.0416672,-5.86166e-06,-1.05308e-05,0.0301516,-0.0029186025742042876,0.042547461215155735,-5.861642820459423e-06,0.021264637484990523,-1.0530744551373594e-05,-0.01656890046242976
56,95.34,183.845,552.564,-1.00709e-06,318.726,-0.0522169,-0.0899565,-0.00302017,0.0216584,-0.0172203,0.0429087,-6.08523e-06,-1.09335e-05,0.0311293,-0.003015613874497669,0.043842587671651945,-6.085211485040709e-06,0.02189464562997201,-1.093344022951026e-05,-0.017072878063558283
57,98.04,184.706,555.16,-1.06611e-06,320.221,-0.0527394,-0.0908535,-0.00311743,0.0222745,-0.0177325,0.044149,-6.3096e-06,-1.13376e-05,0.0321065,-0.0031125758605543563,0.045138068859724934,-6.309580094510103e-06,0.02252442890596207,-1.133753572968299e-05,-0.017576204422529718
58,100.7,185.547,557.694,-1.12663e-06,321.681,-0.0532448,-0.0917211,-0.00321464,0.02289,-0.0182443,0.0453882,-6.53472e-06,-1.17432e-05,0.0330831,-0.00320947857702214,0.04643400675193532,-6.534698648752446e-06,0.02315398641840294,-1.1743131048902455e-05,-0.018078880275382958
59,103.5,186.368,560.17,-1.18859e-06,323.106,-0.0537341,-0.092561,-0.0033118,0.0235048,-0.0187556,0.0466261,-6.76054e-06,-1.215e-05,0.0340592,-0.0033063220393519943,0.04773018951569297,-6.760517147652578e-06,0.023783214894266713,-1.2149926189031213e-05,-0.018580808215085565
60,106.2,187.17,562.589,-1.25189e-06,324.499,-0.0542081,-0.0933747,-0.00340892,0.0241191,-0.0192665,0.047863,-6.98702e-06,-1.2558e-05,0.0350346,-0.0034031162289535066,0.049026928790183666,-6.986995590874123e-06,0.024412318132452704,-1.2557921148625972e-05,-0.019082087217543786
61,108.9,187.954,564.956,-1.31649e-06,325.862,-0.0546676,-0.0941636,-0.00350599,0.0247327,-0.019777,0.0490987,-7.21413e-06,-1.29671e-05,0.0360094,-0.00349985119335372,0.05032401260427499,-7.214103978192554e-06,0.025041090418467915,-1.2967015927567438e-05,-0.01958271801513556
62,111.6,188.722,567.271,-1.38231e-06,327.195,-0.0551135,-0.094929,-0.00360301,0.0253457,-0.0202871,0.0503332,-7.44181e-06,-1.33773e-05,0.0369836,-0.003596526947974299,0.05162143826905474,-7.441782309824951e-06,0.025669633235585465,-1.3377210524301297e-05,-0.02008270133908807
63,114.3,189.474,569.538,-1.44931e-06,328.5,-0.0555463,-0.0956722,-0.00369997,0.0259582,-0.0207968,0.0515666,-7.67005e-06,-1.37884e-05,0.0379572,-0.0036931335451578784,0.05291930838298042,-7.670020585215376e-06,0.026298048318415423,-1.3788304940476337e-05,-0.020582037919477436
64,117.0,190.21,571.758,-1.51742e-06,329.779,-0.0559669,-0.0963942,-0.00379688,0.02657,-0.021306,0.0527988,-7.8988e-06,-1.42005e-05,0.0389301,-0.0037896809653051866,0.054217515215741585,-7.898768804581735e-06,0.026926129574842417,-1.4200399173325273e-05,-0.02108063059330112
65,119.7,190.932,573.933,-1.58661e-06,331.032,-0.0563757,-0.0970961,-0.00389373,0.0271812,-0.0218148,0.0540298,-8.12803e-06,-1.46135e-05,0.0399023,-0.0038861592626667774,0.0555160560648853,-8.127996967699502e-06,0.027553978676378543,-1.4613393223283921e-05,-0.02157857807987229
66,122.4,191.639,576.066,-1.65683e-06,332.26,-0.0567734,-0.0977789,-0.00399052,0.0277919,-0.0223232,0.0552598,-8.35771e-06,-1.50273e-05,0.0408738,-0.00398256845551348,0.0568151395864287,-8.357675074455173e-06,0.028181697545603734,-1.5027187090677074e-05,-0.022075881105635853
67,125.1,192.333,578.159,-1.72805e-06,333.465,-0.0571604,-0.0984434,-0.00408726,0.0284019,-0.0228311,0.0564885,-8.58782e-06,-1.54418e-05,0.0418447,-0.004078918521313368,0.05811444641412411,-8.58778312473607e-06,0.028809079713213448,-1.544168077605157e-05,-0.022572442653142732
68,127.8,193.013,580.211,-1.80021e-06,334.647,-0.0575373,-0.0990906,-0.00418393,0.0290113,-0.0233386,0.0577161,-8.81832e-06,-1.58571e-05,0.0428149,-0.004175189558924264,0.05941418532506004,-8.818281118760929e-06,0.029436227038772245,-1.5856974276862168e-05,-0.023068361288498762
69,130.5,193.681,582.226,-1.8733e-06,335.807,-0.0579045,-0.0997212,-0.00428054,0.0296202,-0.0238457,0.0589426,-9.0492e-06,-1.62731e-05,0.0437844,-0.004271391546749159,0.06071435398880687,-9.049159056084832e-06,0.03006324163263674,-1.6272967593877752e-05,-0.02356363773453285
70,133.2,194.338,584.205,-1.94728e-06,336.947,-0.0582625,-0.100336,-0.00437709,0.0302284,-0.0243523,0.0601679,-9.28043e-06,-1.66897e-05,0.0447532,-0.0043675245030023735,0.062014843869166114,-9.280386936927343e-06,0.030689916648752424,-1.668956072775618e-05,-0.024058175118760627
71,135.9,194.982,586.149,-2.02211e-06,338.066,-0.0586116,-0.100936,-0.00447358,0.0308361,-0.0248585,0.061392,-9.51198e-06,-1.71068e-05,0.0457212,-0.004463588445883571,0.06331565223687785,-9.511934761285978e-06,0.031316457266184816,-1.710665367948838e-05,-0.024552071854705204
72,138.6,195.615,588.059,-2.09778e-06,339.166,-0.0589522,-0.101521,-0.00457,0.0314431,-0.0253642,0.062615,-9.74384e-06,-1.75246e-05,0.0466886,-0.004559573439174569,0.0646168828198741,-9.743792528937867e-06,0.03194265638795191,-1.75244464450941e-05,-0.02504523116612689
73,141.3,196.238,589.937,-2.17425e-06,340.247,-0.0592848,-0.102092,-0.00466636,0.0320496,-0.0258695,0.0638369,-9.97598e-06,-1.79428e-05,0.0476552,-0.004655489457370154,0.06591853327038355,-9.97593024010257e-06,0.03256871944348183,-1.7942639028878382e-05,-0.025537751365110606
74,144.0,196.85,591.783,-2.25151e-06,341.31,-0.0596095,-0.10265,-0.00476265,0.0326555,-0.0263744,0.0650576,-1.02084e-05,-1.83616e-05,0.048621,-0.004751326566138636,0.06722049451432,-1.0208347894447023e-05,0.033194542404512806,-1.8361431426860975e-05,-0.026029633168435984
75,146.7,197.452,593.599,-2.32952e-06,342.356,-0.0599268,-0.103195,-0.00485887,0.0332608,-0.0268788,0.0662772,-1.0441e-05,-1.87807e-05,0.0495862,-0.004847084786494538,0.06852287065696938,-1.044094549296215e-05,0.03382012437431303,-1.8780523643791014e-05,-0.026520779943835726
76,149.4,198.045,595.386,-2.40828e-06,343.385,-0.0602369,-0.103727,-0.00495503,0.0338655,-0.0273828,0.0674956,-1.06739e-05,-1.92003e-05,0.0505506,-0.004942774090005986,0.0698255523551159,-1.067384303410357e-05,0.034445464456040575,-1.92001156754662e-05,-0.027011289851864295
77,152.1,198.628,597.144,-2.48776e-06,344.397,-0.0605402,-0.104248,-0.00505111,0.0344696,-0.0278863,0.0687129,-1.0907e-05,-1.96203e-05,0.0515142,-0.005038374595549788,0.07112864396579432,-1.0906940518862207e-05,0.0350705617527467,-1.9620107523210528e-05,-0.02750106635584182
78,154.8,199.202,598.875,-2.56793e-06,345.394,-0.0608368,-0.104758,-0.00514713,0.0350732,-0.0283894,0.069929,-1.11403e-05,-2.00407e-05,0.0524771,-0.005133906224274121,0.07243203587654046,-1.114023794712704e-05,0.0356955189369248,-2.0040499186468885e-05,-0.027990207515582344
79,157.6,199.767,600.58,-2.64879e-06,346.376,-0.061127,-0.105257,-0.00524308,0.0356761,-0.028892,0.071144,-1.13738e-05,-2.04613e-05,0.0534392,-0.00522935904654942,0.0737358326963069,-1.1373735318565004e-05,0.03632012803478446,-2.0461090668999482e-05,-0.02847861688972786
80,160.3,200.324,602.259,-2.73033e-06,347.343,-0.0614112,-0.105745,-0.00533896,0.0362785,-0.0293942,0.0723579,-1.16075e-05,-2.08823e-05,0.0544006,-0.005324733083299615,0.07504003204726262,-1.1607432633287118e-05,0.03694459535058403,-2.0882081966266952e-05,-0.028966392437634325
81,163.0,200.872,603.914,-2.81251e-06,348.296,-0.0616894,-0.106223,-0.00543477,0.0368803,-0.029896,0.0735706,-1.18413e-05,-2.13036e-05,0.0553612,-0.005420028355429984,0.07634452391289903,-1.1841229892062266e-05,0.03756881641734555,-2.1303373079928356e-05,-0.029453534867651343
82,165.7,201.413,605.544,-2.89533e-06,349.234,-0.0619619,-0.106692,-0.0055305,0.0374816,-0.0303973,0.0747822,-1.20752e-05,-2.17251e-05,0.056321,-0.005515234938979763,0.07764941328042174,-1.2075127095112492e-05,0.03819289415682636,-2.1724864011751777e-05,-0.029939947881014062
83,168.4,201.946,607.151,-2.97878e-06,350.16,-0.0622289,-0.107151,-0.00562617,0.0380822,-0.0308982,0.0759927,-1.23093e-05,-2.21469e-05,0.0572801,-0.005610372745463499,0.07895469775924147,-1.2309224240891758e-05,0.03881662009520692,-2.2146654759191975e-05,-0.030425729287010372
84,171.1,202.471,608.736,-3.06284e-06,351.072,-0.0624907,-0.107601,-0.00572176,0.0386823,-0.0313986,0.077202,-1.25435e-05,-2.25689e-05,0.0582384,-0.005705421906985753,0.08026026692853394,-1.2543421330613036e-05,0.03944020103567336,-2.256864532423908e-05,-0.030910782881544363
85,173.8,202.989,610.298,-3.14751e-06,351.972,-0.0627473,-0.108042,-0.00581729,0.0392818,-0.0318986,0.0784102,-1.27778e-05,-2.29911e-05,0.0591959,-0.0058004023312188124,0.081566226154141,-1.2777718364276325e-05,0.04006353226106052,-2.2990835706671042e-05,-0.031395206374138396
86,176.5,203.5,611.839,-3.23276e-06,352.859,-0.0629991,-0.108475,-0.00591274,0.0398807,-0.0323981,0.0796173,-1.30122e-05,-2.34134e-05,0.0601527,-0.005895294154032116,0.08287257303276796,-1.301211534165958e-05,0.04068661287339692,-2.3413125908477994e-05,-0.03187890365510171
87,179.2,204.004,613.359,-3.31859e-06,353.734,-0.063246,-0.1089,-0.00600811,0.0404791,-0.0328972,0.0808232,-1.32467e-05,-2.38359e-05,0.0611086,-0.005990097399063976,0.08417919673901153,-1.3246612262873825e-05,0.041309546105575023,-2.3835615927225717e-05,-0.0323619723344708
88,181.9,204.502,614.86,-3.40499e-06,354.598,-0.0634883,-0.109316,-0.00610342,0.0410769,-0.0333959,0.082028,-1.34812e-05,-2.42586e-05,0.0620638,-0.006084831968233395,0.0854862030177268,-1.3481109129021007e-05,0.04193222705302868,-2.4258305762581145e-05,-0.03284441311226083
89,184.6,204.992,616.34,-3.49195e-06,355.451,-0.0637262,-0.109726,-0.00619864,0.0416741,-0.0338941,0.0832317,-1.37158e-05,-2.46813e-05,0.0630182,-0.006179468064837157,0.08679358945297011,-1.3715705938888156e-05,0.04255465481745602,-2.4680995419190666e-05,-0.033326130020003064
90,187.3,205.477,617.802,-3.57945e-06,356.292,-0.0639598,-0.110127,-0.0062938,0.0422708,-0.0343918,0.0844343,-1.39505e-05,-2.51042e-05,0.0639718,-0.006274035527064958,0.08810135362463023,-1.3950402692253228e-05,0.04317693281816348,-2.5103884892185846e-05,-0.03380712389983631
91,190.0,205.955,619.244,-3.6675e-06,357.123,-0.0641892,-0.110522,-0.00638888,0.0428669,-0.0348891,0.0856357,-1.41853e-05,-2.55272e-05,0.0649246,-0.006368514500165512,0.08940938416749167,-1.4185199389116221e-05,0.043798955963396224,-2.5526874183778858e-05,-0.034287492163652344
92,192.7,206.428,620.669,-3.75609e-06,357.943,-0.0644146,-0.11091,-0.00648389,0.0434624,-0.035386,0.0868361,-1.442e-05,-2.59502e-05,0.0658767,-0.0064629149430386335,0.09071789640416483,-1.4419896032347168e-05,0.044420723354538616,-2.594986329651494e-05,-0.03476723550669136
93,195.4,206.894,622.076,-3.84519e-06,358.754,-0.0646361,-0.111291,-0.00657882,0.0440574,-0.0358824,0.0880353,-1.46548e-05,-2.63734e-05,0.0668279,-0.00655722694193317,0.09202666988927066,-1.4654692618965015e-05,0.04504233859713036,-2.637305222497055e-05,-0.03524625814772997
94,198.1,207.355,623.466,-3.93482e-06,359.554,-0.0648538,-0.111666,-0.00667368,0.0446518,-0.0363784,0.0892334,-1.48897e-05,-2.67965e-05,0.0677784,-0.00665146045381948,0.0933358111269238,-1.4889589148969762e-05,0.045663696412440835,-2.6796140977003446e-05,-0.035724657350878375
95,200.8,207.81,624.84,-4.02495e-06,360.345,-0.0650678,-0.112034,-0.00676846,0.0452456,-0.0368739,0.0904304,-1.51245e-05,-2.72197e-05,0.068728,-0.00674560556679038,0.09464531767615636,-1.5124385625342462e-05,0.04628479590155887,-2.7219329547301108e-05,-0.03620233742814871
96,203.5,208.26,626.197,-4.11559e-06,361.126,-0.0652782,-0.112396,-0.00686317,0.0458389,-0.037369,0.0916263,-1.53594e-05,-2.76429e-05,0.0696769,-0.006839672235889549,0.09595518709187023,-1.535928204499104e-05,0.04690574085607335,-2.7642517938519795e-05,-0.036679395545406224
97,206.2,208.705,627.538,-4.20673e-06,361.898,-0.0654852,-0.112753,-0.0069578,0.0464316,-0.0378637,0.092821,-1.55942e-05,-2.80661e-05,0.070625,-0.006933650551051773,0.09726530719830584,-1.5594078411118595e-05,0.04752642581049504,-2.806570615065951e-05,-0.03715583239205944
98,208.9,209.144,628.863,-4.29836e-06,362.661,-0.0656888,-0.113103,-0.00705236,0.0470238,-0.0383579,0.0940147,-1.58291e-05,-2.84894e-05,0.0715723,-0.007027550465397825,0.09857589486413332,-1.5828974720411004e-05,0.04814695468032326,-2.8488994180841942e-05,-0.03763155241959004
99,211.7,209.579,630.174,-4.39047e-06,363.416,-0.0658892,-0.113448,-0.00714684,0.0476154,-0.0388517,0.0952073,-1.60639e-05,-2.89126e-05,0.0725187,-0.00712136207069991,0.09988683803638287,-1.6063770976293412e-05,0.04876722187565785,-2.8912182034823708e-05,-0.03810665264710522
100,214.4,210.008,631.469,-4.48306e-06,364.162,-0.0660865,-0.113788,-0.00724124,0.0482064,-0.039345,0.0963987,-1.62988e-05,-2.93358e-05,0.0734644,-0.0072150853903099055,0.10119802413368251,-1.6298667175229653e-05,0.04938722649710581,-2.9335369709615478e-05,-0.03858103761868126
101,217.1,210.433,632.75,-4.57613e-06,364.899,-0.0662807,-0.114123,-0.00733557,0.0487969,-0.0398379,0.097589,-1.65336e-05,-2.97589e-05,0.0744093,-0.007308730374469996,0.1025095605478552,-1.6533463320755892e-05,0.050007072645916306,-2.97584572083176e-05,-0.0390548042558595
102,219.8,210.853,634.017,-4.66967e-06,365.629,-0.0664719,-0.114452,-0.00742982,0.0493869,-0.0403303,0.0987783,-1.67684e-05,-3.0182e-05,0.0753534,-0.007402287117701523,0.10382155519118519,-1.676825941121507e-05,0.05062675960845531,-3.0181544528051774e-05,-0.03952785719505225
103,222.5,211.268,635.27,-4.76367e-06,366.35,-0.0666602,-0.114776,-0.007524,0.0499762,-0.0408223,0.0999664,-1.70031e-05,-3.06051e-05,0.0762967,-0.007495765568331425,0.10513378495664027,-1.7002955448153223e-05,0.05124607642166912,-3.060463166870697e-05,-0.040000293260510245
104,225.2,211.679,636.51,-4.85813e-06,367.064,-0.0668457,-0.115096,-0.0076181,0.0505651,-0.0413139,0.101153,-1.72378e-05,-3.10281e-05,0.0772392,-0.0075891558227110245,0.10644591503868872,-1.7237651430024314e-05,0.051865337559618974,-3.102761863349457e-05,-0.04047211313351651
105,227.9,212.086,637.736,-4.95305e-06,367.77,-0.0670285,-0.115411,-0.00771212,0.0511534,-0.041805,0.102339,-1.74725e-05,-3.1451e-05,0.0781809,-0.007682457904081064,0.10775893836284811,-1.747234735671732e-05,0.05248433199706648,-3.145050542252559e-05,-0.04094322158860708
106,230.6,212.488,638.95,-5.04842e-06,368.469,-0.0672086,-0.115722,-0.00780607,0.0517411,-0.0422956,0.103524,-1.77071e-05,-3.18739e-05,0.0791218,-0.007775681757901887,0.10907241078351637,-1.7706943230222372e-05,0.05310305883405353,-3.1873392032588654e-05,-0.041413619446066474
107,233.3,212.886,640.15,-5.14424e-06,369.16,-0.0673861,-0.116028,-0.00789994,0.0523283,-0.0427859,0.104708,-1.79417e-05,-3.22967e-05,0.0800619,-0.007868817483261514,0.11038633020468769,-1.794153904866036e-05,0.05372162254273238,-3.229617846722821e-05,-0.0418834991480298
108,236.0,213.28,641.339,-5.2405e-06,369.844,-0.0675611,-0.116329,-0.00799373,0.0529149,-0.0432757,0.105891,-1.81763e-05,-3.27193e-05,0.0810012,-0.00796186510333341,0.11170069452652953,-1.8176134812031286e-05,0.05433991697454288,-3.27187647295446e-05,-0.042352669700899126
109,238.7,213.67,642.515,-5.3372e-06,370.522,-0.0677337,-0.116627,-0.00808745,0.053501,-0.0437651,0.107072,-1.84107e-05,-3.31419e-05,0.0819397,-0.008054834560719093,0.11301438863044289,-1.841053052409336e-05,0.05495804672511051,-3.3141350813337134e-05,-0.042821227638867976
110,241.4,214.056,643.68,-5.43434e-06,371.192,-0.0679039,-0.11692,-0.00818109,0.0540866,-0.044254,0.108253,-1.86451e-05,-3.35644e-05,0.0828774,-0.008147715957235957,0.1143296351235985,-1.8644926181199395e-05,0.05557601107957599,-3.3563836721817175e-05,-0.0432890779653442
111,244.1,214.438,644.833,-5.53191e-06,371.856,-0.0680718,-0.11721,-0.00827465,0.0546716,-0.0447425,0.109432,-1.88795e-05,-3.39867e-05,0.0838143,-0.008240509315989963,0.11564420454981073,-1.887932178334939e-05,0.05619370370353427,-3.398612245864019e-05,-0.04375631711830341
112,246.8,214.817,645.974,-5.62992e-06,372.513,-0.0682374,-0.117496,-0.00836814,0.0552561,-0.0452305,0.110611,-1.91137e-05,-3.44089e-05,0.0847504,-0.00833322457673169,0.11696032476738805,-1.9113517334412577e-05,0.056811229377646155,-3.44083080205948e-05,-0.044222850192221164
113,249.5,215.191,647.105,-5.72835e-06,373.164,-0.0684008,-0.117778,-0.00846155,0.05584,-0.0457181,0.111788,-1.93479e-05,-3.4831e-05,0.0856856,-0.008425851844000243,0.1182757610520333,-1.9347712830630748e-05,0.05742848164374159,-3.483039340779204e-05,-0.04468877352912659
114,252.2,215.563,648.224,-5.8272e-06,373.809,-0.0685621,-0.118056,-0.00855488,0.0564234,-0.0462053,0.112964,-1.95821e-05,-3.5253e-05,0.0866202,-0.00851839114083408,0.11959162692451253,-1.9581908271892878e-05,0.05804556540576389,-3.525237862034292e-05,-0.04515408779890295
115,254.9,215.93,649.333,-5.92648e-06,374.447,-0.0687213,-0.118331,-0.00864814,0.0570062,-0.0466921,0.114139,-1.98161e-05,-3.56748e-05,0.0875539,-0.008610852404140501,0.12090792025703934,-1.981590366240127e-05,0.058662374081871915,-3.56741636619029e-05,-0.04561879367037658
116,257.6,216.294,650.431,-6.02618e-06,375.079,-0.0688785,-0.118602,-0.00874131,0.0575885,-0.0471784,0.115313,-2.00501e-05,-3.60965e-05,0.0884868,-0.008703215828205102,0.1222246389180417,-2.004989899806464e-05,0.05927901269920932,-3.60958485291496e-05,-0.04608279641960189
117,260.3,216.655,651.519,-6.12629e-06,375.706,-0.0690337,-0.11887,-0.00883442,0.0581703,-0.0476642,0.116486,-2.02839e-05,-3.6518e-05,0.0894189,-0.008795511174902959,0.12354178077216571,-2.0283694283085296e-05,0.0598954805419043,-3.651733322596051e-05,-0.04654609685231448
118,263.0,217.012,652.597,-6.22682e-06,376.327,-0.069187,-0.119135,-0.00892744,0.0587515,-0.0481497,0.117658,-2.05177e-05,-3.69394e-05,0.0903502,-0.008887708728278598,0.1248593436802794,-2.0517489513482978e-05,0.06051167084275111,-3.6938717748791206e-05,-0.04700888637104672
119,265.8,217.366,653.665,-6.32776e-06,376.941,-0.0693384,-0.119396,-0.00902039,0.0593322,-0.0486347,0.118829,-2.07514e-05,-3.73606e-05,0.0912807,-0.008979828334427231,0.12617732549947824,-2.0751184691136793e-05,0.06112768881351682,-3.735990210151918e-05,-0.047470974995607484
120,268.5,217.717,654.724,-6.42911e-06,377.551,-0.0694879,-0.119654,-0.00911326,0.0599123,-0.0491193,0.119999,-2.0985e-05,-3.77817e-05,0.0922104,-0.009071860104208684,0.12749572408308785,-2.0984779816379806e-05,0.06174342756355444,-3.7780986280600004e-05,-0.047932458734583405
121,270.5,217.98,655.517,-6.68372e-06,378.008,-0.0695996,-0.119847,-0.00918337,0.0603503,-0.0494851,0.120882,-2.11614e-05,-3.80996e-05,0.0929123,-0.0091413316407436,0.12849174248486217,-2.1161176099182555e-05,0.062208573044251425,-3.809887421946101e-05,-0.048280661351037035
