,Time,S11,S22,S33,S12,S13,S23,LE11,LE22,LE33,LE12,LE13,LE23,SDV_EPBAR,E11,E12,E13,E22,E23,E33
0,0.0002705,0.000519365,0.0015581,-7.79048e-12,0.000899567,2.21372e-21,3.68811e-20,2.50301e-10,6.7501e-09,-3.0004e-09,1.1258e-08,2.76762e-26,4.61603e-25,0.0,2.5030089112476617e-10,1.1258000087721598e-08,0.0,6.750100034480511e-09,0.0,-3.0004000395322805e-09
1,0.000541,0.00103873,0.00311619,4.33681e-19,0.00179913,-3.08331e-20,-2.03577e-20,5.00425e-10,1.35001e-08,-6.00057e-09,2.25162e-08,-1.63975e-24,4.6912e-25,0.0,5.00425034744012e-10,2.2516200237632233e-08,0.0,1.3500100148888805e-08,0.0,-6.000569929831556e-09
2,0.00094675,0.00181778,0.00545333,6.50521e-19,0.00314848,1.87371e-20,6.55005e-20,8.75688e-10,2.36252e-08,-1.05009e-08,3.94034e-08,-1.73568e-24,1.95724e-24,0.0,8.756879665838824e-10,3.9403400764470575e-08,0.0,2.3625200240573463e-08,0.0,-1.0500899927379237e-08
3,0.0015554,0.00298635,0.00895905,1.73472e-18,0.00517251,4.73565e-20,4.89771e-20,1.4375e-09,3.88125e-08,-1.725e-08,6.47354e-08,4.1359e-25,7.16359e-25,0.0,1.4374998968946784e-09,6.473540214990692e-08,0.0,3.8812500768869995e-08,0.0,-1.7249999872959165e-08
4,0.0024683,0.00473921,0.0142176,0.0,0.00820854,1.00168e-19,-5.78319e-20,2.28125e-09,6.15937e-08,-2.7375e-08,1.02732e-07,-7.41318e-35,-1.284e-34,0.0,2.281250077729169e-09,1.027320053470504e-07,0.0,6.159370191660685e-08,0.0,-2.7374999600482397e-08
5,0.0038377,0.00736849,0.0221055,-8.67362e-19,0.0127626,9.88226e-21,-8.20239e-20,3.54688e-09,9.57656e-08,-4.25625e-08,1.59728e-07,7.653e-32,1.32554e-31,0.0,3.5468799008953056e-09,1.597280128162737e-07,0.0,9.576560455748506e-08,0.0,-4.256249908074494e-08
6,0.0058918,0.0113124,0.0339373,-6.07153e-18,0.0195937,-4.73565e-20,-4.89771e-20,5.44671e-09,1.47024e-07,-6.53456e-08,2.45219e-07,-1.14621e-23,6.61761e-24,0.0,5.446709971934638e-09,2.452190299706558e-07,0.0,1.4702401074373483e-07,0.0,-6.534559782167548e-08
7,0.008973,0.0172283,0.0516849,7.80626e-18,0.0298403,6.7121e-20,-1.15071e-19,8.29297e-09,2.2391e-07,-9.95156e-08,3.7346e-07,1.78232e-31,3.08708e-31,0.0,8.292970088419338e-09,3.734600697580248e-07,0.0,2.2391002496569e-07,0.0,-9.951559509779884e-08
8,0.013595,0.0261021,0.0783064,9.54098e-18,0.0452102,-1.3116e-19,-4.58503e-19,1.25671e-08,3.39241e-07,-1.50777e-07,5.65816e-07,2.77687e-23,-3.13146e-23,0.0,1.2567100027283118e-08,5.658161601473921e-07,0.0,3.392410574676319e-07,0.0,-1.5077698867216327e-07
9,0.020527,0.0394129,0.118239,6.07153e-18,0.0682651,-4.56883e-19,3.48265e-20,1.89735e-08,5.12236e-07,-2.27663e-07,8.54355e-07,1.1462e-23,-6.61759e-24,0.0,1.8973500104380037e-08,8.543553648987512e-07,0.0,5.122361312892565e-07,0.0,-2.276629741393421e-07
10,0.030926,0.059379,0.178137,-8.67362e-19,0.102847,-1.54031e-18,-2.55477e-19,2.8587e-08,7.71729e-07,-3.42996e-07,1.28716e-06,-2.95414e-23,1.77334e-24,0.0,2.858700032248862e-08,1.2871608283671065e-06,0.0,7.717292977993395e-07,0.0,-3.429959412049044e-07
11,0.046525,0.0893282,0.267985,-4.94396e-17,0.154721,-5.5365e-19,3.95969e-19,4.30043e-08,1.16097e-06,-5.15992e-07,1.93637e-06,-9.16942e-23,5.29396e-23,0.0,4.300430100911967e-08,1.9363718748444114e-06,0.0,1.1609706738191505e-06,0.0,-5.159918669006558e-07
12,0.069922,0.134252,0.402756,-2.1684e-17,0.232531,2.20493e-19,-2.49317e-18,6.46307e-08,1.74483e-06,-7.75487e-07,2.91018e-06,-5.29397e-23,-9.16942e-23,0.0,6.463070212348043e-08,2.910184234483637e-06,0.0,1.744831522154655e-06,0.0,-7.754866993003873e-07
13,0.105,0.201637,0.604912,1.99493e-17,0.349246,-1.22407e-18,-2.88023e-18,9.70596e-08,2.62061e-06,-1.16471e-06,4.37091e-06,-1.05879e-22,-1.83388e-22,0.0,9.705960479777787e-08,4.370919552521002e-06,0.0,2.62061343381248e-06,0.0,-1.1647093217659332e-06
14,0.1577,0.302715,0.908146,-9.1073e-17,0.524319,2.72256e-18,-2.74454e-19,1.45719e-07,3.93429e-06,-1.74858e-06,6.56199e-06,1.03982e-22,-2.43423e-22,0.0,1.4571901063575865e-07,6.562011529931411e-06,0.0,3.934297739371928e-06,0.0,-1.748578471238993e-06
15,0.2366,0.454332,1.363,-7.80626e-18,0.786926,-1.38381e-17,-7.8084e-18,2.18705e-07,5.90479e-06,-2.62436e-06,9.8486e-06,-2.11758e-22,-3.66776e-22,0.0,2.1870502386889257e-07,9.848648497623458e-06,0.0,5.904807433232406e-06,0.0,-2.624356556402141e-06
16,0.3551,0.681756,2.04527,4.77049e-17,1.18084,-5.94481e-18,-2.59681e-18,3.28182e-07,8.86055e-06,-3.93804e-06,1.47785e-05,5.57568e-28,9.65736e-28,0.0,3.281820537548441e-07,1.4778609202625859e-05,0.0,8.860589254755524e-06,0.0,-3.938032245964784e-06
17,0.5328,1.02289,3.06867,7.13839e-16,1.7717,-5.94479e-18,-2.59677e-18,4.92389e-07,1.32942e-05,-5.90853e-06,2.21733e-05,8.36561e-28,1.44897e-27,0.0,4.923891212538223e-07,2.2173545829451413e-05,0.0,1.3294288368159712e-05,0.0,-5.908512544672284e-06
18,0.7993,1.53459,4.60377,-2.85362e-16,2.65799,-3.98145e-18,-3.30361e-17,7.38697e-07,1.99445e-05,-8.86424e-06,3.32654e-05,7.35553e-27,1.27402e-26,0.0,7.38697272906208e-07,3.326595329955495e-05,0.0,1.9944698892881974e-05,0.0,-8.864200712777048e-06
19,1.199,2.30213,6.90638,-1.61763e-15,3.9874,2.21215e-18,-5.61484e-17,1.10814e-06,2.99199e-05,-1.32977e-05,4.99034e-05,-4.23505e-22,-7.33532e-22,0.0,1.1081406139368255e-06,4.990464519538662e-05,0.0,2.992034760462836e-05,0.0,-1.3297611585971758e-05
20,1.799,3.45341,10.3602,-3.17194e-15,5.98148,6.53581e-17,-1.44564e-17,1.66234e-06,4.48827e-05,-1.99479e-05,7.48599e-05,-1.09041e-26,-1.88864e-26,0.0,1.6623413816585497e-06,7.486270207235357e-05,0.0,4.4883707243537074e-05,0.0,-1.994770104196686e-05
21,2.698,5.18029,15.5409,-2.8485e-14,8.97252,-6.87866e-17,2.39178e-17,2.49357e-06,6.73263e-05,-2.99228e-05,0.000112294,-4.23518e-22,-7.33555e-22,0.0,2.4935731088859825e-06,0.00011230030520725798,0.0,6.732856646629592e-05,0.0,-2.9922352317468537e-05
22,4.047,31.1929,93.5787,-1.03264e-09,54.0277,-8.08225e-16,-1.7395e-16,1.5015e-05,0.000405403,-0.000180179,0.000676171,-3.02527e-20,1.82072e-21,0.0,1.5015112725613733e-05,0.0006763996551444329,0.0,0.00040548518690219915,0.0,-0.00018016276873877857
23,6.071,70.3658,211.097,-9.04826e-07,121.877,1.29847e-16,-7.14917e-16,3.38711e-05,0.000914519,-0.000406453,0.00152533,-2.03309e-20,-3.52142e-20,0.0,3.3871673632113186e-05,0.0015264939075101402,0.0,0.0009149373000056915,0.0,-0.00040637040916957634
24,8.776,121.273,363.826,0.000116791,210.053,-0.000115833,-0.000200575,5.5521e-05,0.0015932,-0.0007147,0.00266338,-1.4712e-09,-2.54921e-09,2.75461e-05,5.5522541319241725e-05,0.0026669299474322283,-1.4712000506733602e-09,0.0015944698173882,-2.549209954239018e-09,-0.0007144446627884715
25,11.48,127.24,381.882,0.0745724,220.503,-0.00242614,-0.0041926,-3.59324e-05,0.0022329,-0.00121654,0.00393193,-4.39418e-08,-7.70403e-08,0.000935788,-3.593175443905583e-05,0.003939670178050303,-4.3941799088287326e-08,0.002235394777722721,-7.704029703070603e-08,-0.0012158003151966357
26,14.19,132.215,396.723,0.000129555,229.026,-0.00437709,-0.00756797,-0.000129313,0.00287129,-0.00172354,0.00520151,-9.24054e-08,-1.62819e-07,0.00186421,-0.00012930463943439108,0.005215061338760041,-9.240539577959339e-08,0.0028754161012649604,-1.6281898673753403e-07,-0.0017220555578885133
27,16.89,136.412,409.342,-4.89383e-06,236.303,-0.00596684,-0.0103126,-0.000224737,0.00350832,-0.00223277,0.0064723,-1.44522e-07,-2.55481e-07,0.00280605,-0.0002247117485320027,0.006493290595018575,-1.4452198959791218e-07,0.0035144813578424916,-2.5548096738159387e-07,-0.0022302792231856383
28,19.6,140.072,420.347,5.23591e-06,242.65,-0.00732147,-0.0126498,-0.000321413,0.00414425,-0.0027438,0.00774337,-2.0036e-07,-3.55081e-07,0.00375743,-0.0003213613523753711,0.007773427421301937,-2.0035997994050092e-07,0.004152849279114967,-3.5508093698677357e-07,-0.002740039221174606
29,22.3,143.323,430.122,2.38718e-06,248.287,-0.00849631,-0.0146755,-0.000419017,0.00477922,-0.00325607,0.00901435,-2.59486e-07,-4.60779e-07,0.00471583,-0.0004189292246370435,0.009055101610683014,-2.5948596638070143e-07,0.004790658687312321,-4.6077889381823667e-07,-0.0032507747528683906
30,25.01,146.252,438.928,1.07309e-06,253.366,-0.00953009,-0.0164571,-0.000517332,0.00541327,-0.00376922,0.010285,-3.2152e-07,-5.71854e-07,0.00567955,-0.0005171982068737924,0.010338072406346654,-3.2151994833196085e-07,0.005427948219816514,-5.718538365062642e-07,-0.0037621254067892185
31,27.71,148.921,446.95,4.43793e-07,257.992,-0.0104506,-0.0180428,-0.000616203,0.00604648,-0.00428297,0.0115551,-3.86138e-07,-6.87693e-07,0.00664738,-0.0006160131859215268,0.011622118052684316,-3.8613792541219993e-07,0.0060647968590934465,-6.876927635124375e-07,-0.004273811164327901
32,30.42,151.373,454.322,1.35363e-07,262.244,-0.0112786,-0.0194685,-0.000715516,0.00667888,-0.00479714,0.0128246,-4.5306e-07,-8.07769e-07,0.00761844,-0.0007152600794689823,0.012907187857022162,-4.530598973762068e-07,0.006701233456668287,-8.077686737273382e-07,-0.004785652100938065
33,33.12,153.643,461.148,-1.40778e-08,266.181,-0.0120295,-0.020761,-0.000815186,0.0073105,-0.00531158,0.0140933,-5.22048e-07,-9.31636e-07,0.00859206,-0.000814853826159978,0.014193078738656384,-5.22047863715791e-07,0.00733728694064939,-9.316355660260456e-07,-0.005297498501651843
34,35.83,155.759,467.508,-8.19343e-08,269.849,-0.0127155,-0.0219414,-0.000915144,0.00794136,-0.00582616,0.0153612,-5.92893e-07,-1.05891e-06,0.00956771,-0.0009147253834373981,0.015479789681217992,-5.928928242804332e-07,0.007972976235880225,-1.0589094393553822e-06,-0.005809220842539986
35,38.53,157.741,473.466,-1.07171e-07,273.285,-0.0133461,-0.0230262,-0.00101534,0.00857149,-0.0063408,0.0166282,-6.65417e-07,-1.18925e-06,0.010545,-0.00101482471675296,0.016767217988352012,-6.654167785669074e-07,0.0086083304042337,-1.1892492928211595e-06,-0.006320739549841914
36,41.24,159.605,479.071,-1.10187e-07,276.518,-0.0139288,-0.0240285,-0.00111573,0.00920089,-0.00685544,0.0178943,-7.39464e-07,-1.32238e-06,0.0115235,-0.001115107804705695,0.018055362250696705,-7.394637265845105e-07,0.009243348306560817,-1.3223791256455897e-06,-0.006831995076883812
37,43.94,161.367,484.367,-1.01974e-07,279.572,-0.01447,-0.024959,-0.00121627,0.00982958,-0.00737,0.0191594,-8.14898e-07,-1.45804e-06,0.0125031,-0.001215530643426277,0.019344119120752845,-8.148976680111275e-07,0.009878049001291966,-1.458038937030004e-06,-0.007342908146509508
38,46.65,163.037,489.387,-8.85659e-08,282.468,-0.0149747,-0.0258265,-0.00131695,0.0104576,-0.00788444,0.0204236,-8.91598e-07,-1.59601e-06,0.0134835,-0.0013160832019004642,0.0206335888582303,-8.915976025258843e-07,0.010512471807879287,-1.596008726401088e-06,-0.00785343933075211
39,49.35,164.624,494.161,-7.33033e-08,285.221,-0.0154471,-0.0266385,-0.00141773,0.0110849,-0.00839871,0.0216867,-9.69458e-07,-1.7361e-06,0.0144645,-0.001416725495585025,0.02192356565765996,-9.694575300311925e-07,0.011146565144026122,-1.736098492965965e-06,-0.00836353936669243
40,52.06,166.139,498.712,-5.80247e-08,287.846,-0.0158908,-0.027401,-0.00151859,0.0117115,-0.0089128,0.0229487,-1.04838e-06,-1.87812e-06,0.0154459,-0.0015174375256583605,0.023214047320175846,-1.0483794504745347e-06,0.011780348125216777,-1.8781182363758475e-06,-0.008873198738121535
41,54.76,167.586,503.063,-4.37187e-08,290.355,-0.0163088,-0.0281192,-0.00161953,0.0123375,-0.00942665,0.0242097,-1.12829e-06,-2.02193e-06,0.0164277,-0.0016182192689744301,0.024505134092974945,-1.1282893634945168e-06,0.012413920910734788,-2.021927955953018e-06,-0.00938235841789603
42,57.47,168.972,507.231,-3.0886e-08,292.759,-0.0167037,-0.0287977,-0.00172051,0.0129628,-0.00994026,0.0254697,-1.20911e-06,-2.1674e-06,0.0174096,-0.0017190307711342223,0.025796824155781106,-1.209109269040276e-06,0.0130471813037083,-2.1673976512426307e-06,-0.009891018907050131
43,60.17,170.303,511.232,-1.97461e-08,295.067,-0.0170778,-0.0294401,-0.00182153,0.0135874,-0.0104536,0.0267285,-1.29076e-06,-2.31438e-06,0.0183917,-0.0018198720210682584,0.027088910266408694,-1.290759166994171e-06,0.013680128221895904,-2.3143773217881858e-06,-0.01039915101797706
44,62.88,171.583,515.08,-1.03585e-08,297.286,-0.0174328,-0.0300499,-0.00192258,0.0142113,-0.0109666,0.0279862,-1.37319e-06,-2.46278e-06,0.0193737,-0.0019207330269124245,0.02838149265890344,-1.3731890571300198e-06,0.014312760583037543,-2.462776967360192e-06,-0.010906686059636073
45,65.58,172.816,518.786,-2.69249e-09,299.424,-0.0177706,-0.03063,-0.00202365,0.0148347,-0.0114794,0.0292429,-1.45634e-06,-2.61249e-06,0.0203557,-0.002021603800835048,0.029674672079824438,-1.4563389395538806e-06,0.014945280293894081,-2.612486587505458e-06,-0.011413763085363238
46,68.29,174.005,522.361,3.33058e-09,301.486,-0.0180925,-0.0311828,-0.00212473,0.0154573,-0.0119918,0.0304984,-1.54016e-06,-2.76341e-06,0.0213375,-0.002122474359039006,0.03096824049827629,-1.5401588139285494e-06,0.01557738197824099,-2.7634061817716216e-06,-0.011920184916804688
47,70.99,175.155,525.816,7.81371e-09,303.478,-0.0183998,-0.0317106,-0.00222581,0.0160793,-0.0125039,0.0317528,-1.62461e-06,-2.91547e-06,0.0223192,-0.0022233347217620603,0.03226229852266482,-1.6246086803617388e-06,0.016209267605889588,-2.915465750041868e-06,-0.012426051052029985
48,73.7,176.266,529.158,1.0868e-08,305.406,-0.0186938,-0.0322153,-0.00232688,0.0167007,-0.0130156,0.033006,-1.70964e-06,-3.06859e-06,0.0233006,-0.0023241749132769662,0.03355674056314495,-1.709638538516245e-06,0.016840936283912145,-3.0685852918654888e-06,-0.012931263372110924
49,76.4,177.343,532.394,1.26054e-08,307.272,-0.0189754,-0.0326988,-0.00242794,0.0173215,-0.013527,0.0342581,-1.79521e-06,-3.2227e-06,0.0242817,-0.0024249949376385915,0.034851667477821646,-1.7952083886108028e-06,0.017472387119216837,-3.22269480712567e-06,-0.013435921271998996
50,79.11,178.387,535.533,1.31347e-08,309.082,-0.0192456,-0.0331626,-0.00252898,0.0179416,-0.014038,0.0355091,-1.88129e-06,-3.37773e-06,0.0252624,-0.0025257848241592162,0.036147077023564345,-1.8812882304208856e-06,0.018103517408191605,-3.377724295483553e-06,-0.013939926731866725
51,81.81,179.4,538.579,1.25562e-08,310.839,-0.0195051,-0.0336081,-0.00263,0.018561,-0.0145486,0.036759,-1.96785e-06,-3.53362e-06,0.0262428,-0.002626544579915513,0.03744296695283866,-1.9678480638329887e-06,0.01873432606814851,-3.5336137568231507e-06,-0.014443280488127708
52,84.52,180.385,541.538,1.09646e-08,312.546,-0.0197547,-0.0340365,-0.00273099,0.0191799,-0.0150589,0.0380077,-2.05486e-06,-3.69032e-06,0.0272228,-0.002727264239253513,0.03873923113978406,-2.0548578887336078e-06,0.019365015889385884,-3.6903131908072595e-06,-0.014946081781433418
53,87.22,181.342,544.417,8.44539e-09,314.206,-0.019995,-0.0344491,-0.00283195,0.0197981,-0.0155688,0.0392552,-2.14228e-06,-3.84778e-06,0.0282023,-0.0028279438122654765,0.04003586693905259,-2.1422777053414777e-06,0.01999538216834984,-3.84777259732072e-06,-0.015448232740066348
54,89.93,182.274,547.218,5.07661e-09,315.822,-0.0202267,-0.0348468,-0.00293288,0.0204157,-0.0160782,0.0405016,-2.2301e-06,-4.00595e-06,0.0291813,-0.002928583309038779,0.04133297583394602,-2.230097513322704e-06,0.020625525884727214,-4.005941976248373e-06,-0.015949635692134145
55,92.63,183.182,549.947,9.29129e-10,317.396,-0.0204503,-0.0352305,-0.00303376,0.0210327,-0.0165873,0.0417469,-2.31828e-06,-4.16478e-06,0.0301599,-0.003029162800239904,0.04263055555908024,-2.318277312785e-06,0.021255446144614387,-4.164771327364036e-06,-0.016450488229772353
56,95.34,184.066,552.607,-3.93351e-09,318.93,-0.0206663,-0.0356012,-0.00313461,0.021649,-0.017096,0.042991,-2.40681e-06,-4.32425e-06,0.0311379,-0.003129702239385024,0.04392849945183808,-2.406807103616515e-06,0.02188503986545043,-4.324240650444011e-06,-0.016950692628634134
57,98.04,184.93,555.202,-9.45372e-09,320.427,-0.0208751,-0.0359597,-0.00323541,0.0222648,-0.0176043,0.0442339,-2.49567e-06,-4.4843e-06,0.0321154,-0.003230181701149193,0.04522680484856045,-2.495666885815595e-06,0.022514510467106064,-4.484289945594355e-06,-0.017450249618406244
58,100.7,185.772,557.735,-1.55799e-08,321.888,-0.0210772,-0.0363065,-0.00333616,0.0228799,-0.0181122,0.0454757,-2.58483e-06,-4.6449e-06,0.0330923,-0.003330601201625649,0.04652557373352306,-2.5848266593797575e-06,0.023143652615325916,-4.644889212479519e-06,-0.017949159927627023
59,103.5,186.596,560.21,-2.22649e-08,323.315,-0.0212729,-0.0366425,-0.00343686,0.0234944,-0.0186196,0.0467164,-2.67428e-06,-4.80603e-06,0.0340687,-0.0034309607568963063,0.04782480382357801,-2.6742764240861305e-06,0.02377256760419799,-4.806018451097849e-06,-0.018447326128426922
60,106.2,187.4,562.628,-2.94676e-08,324.71,-0.0214626,-0.0369681,-0.00353751,0.0241083,-0.0191267,0.0479559,-2.764e-06,-4.96765e-06,0.0350444,-0.0035312603830326417,0.049124387918774604,-2.763996180155104e-06,0.02440125453916031,-4.967637661223989e-06,-0.018944945307340588
61,108.9,188.187,564.994,-3.71492e-08,326.074,-0.0216466,-0.037284,-0.00363811,0.0247216,-0.0196333,0.0491942,-2.85398e-06,-5.12972e-06,0.0360195,-0.0036315000960960298,0.05042432333724012,-2.8539759273638055e-06,0.02502971252551167,-5.129706842965653e-06,-0.019441821928573022
62,111.6,188.957,567.308,-4.52759e-08,327.409,-0.0218253,-0.0375906,-0.00373865,0.0253343,-0.0201395,0.0504314,-2.94419e-06,-5.29224e-06,0.036994,-0.003731669949453731,0.05172471256497735,-2.9441856659317978e-06,0.025657940668414536,-5.292225996100797e-06,-0.01993805487115885
63,114.3,189.71,569.574,-5.38168e-08,328.716,-0.0219988,-0.0378886,-0.00383914,0.0259464,-0.0206453,0.0516674,-3.03463e-06,-5.45516e-06,0.0379679,-0.003831779923830325,0.05302544799861186,-3.034625395526014e-06,0.02628593807289592,-5.455145120625282e-06,-0.020433644857731914
64,117.0,190.449,571.793,-6.27438e-08,329.996,-0.0221675,-0.0381781,-0.00393956,0.0265578,-0.0211506,0.0529022,-3.12529e-06,-5.61846e-06,0.0389411,-0.003931810113890433,0.0543265269426243,-3.1252851162566486e-06,0.026913601152484867,-5.618444216537455e-06,-0.020928494702642575
65,119.7,191.172,573.968,-7.20315e-08,331.25,-0.0223316,-0.0384598,-0.00403993,0.0271687,-0.0216556,0.0541359,-3.21614e-06,-5.78213e-06,0.0399136,-0.004031780461013712,0.05562805225972678,-3.216134828232242e-06,0.027541134331922512,-5.7821132835034206e-06,-0.0214228009899754
66,122.4,191.881,576.1,-8.16571e-08,332.48,-0.0224913,-0.038734,-0.00414023,0.027779,-0.02216,0.0553685,-3.30718e-06,-5.94613e-06,0.0408855,-0.00413167106383594,0.056930021635828165,-3.30717453123075e-06,0.02816843408725478,-5.946112321852937e-06,-0.02191627086559078
67,125.1,192.577,578.192,-9.15997e-08,333.686,-0.0226468,-0.039001,-0.00424047,0.0283886,-0.0226641,0.0565999,-3.3984e-06,-6.11046e-06,0.0418566,-0.004231491902024431,0.05823232692927771,-3.398394225473389e-06,0.028795396643445992,-6.110441331141914e-06,-0.02240919862056856
68,127.8,193.26,580.244,-1.0184e-07,334.87,-0.0227983,-0.0392611,-0.00434064,0.0289977,-0.0231677,0.0578302,-3.48979e-06,-6.27509e-06,0.0428271,-0.004331233037862536,0.059535071380023785,-3.4897839107372874e-06,0.029422226801286255,-6.2750703117009365e-06,-0.02290138940410169
69,130.5,193.93,582.258,-1.1236e-07,336.031,-0.0229461,-0.0395148,-0.00444075,0.0296062,-0.0236709,0.0590593,-3.58133e-06,-6.44e-06,0.0437969,-0.004430904448987416,0.060838146577074426,-3.5813235870207905e-06,0.030048820848199487,-6.4399792631952835e-06,-0.023392941740013606
70,133.2,194.587,584.236,-1.23146e-07,337.172,-0.0230902,-0.0397622,-0.00454079,0.0302141,-0.0241737,0.0602872,-3.67302e-06,-6.60518e-06,0.044766,-0.004530496199643852,0.0621415497978981,-3.6730132544349203e-06,0.030675177888326743,-6.605158185846172e-06,-0.023883856342633458
71,135.9,195.234,586.179,-1.34181e-07,338.293,-0.0232308,-0.0400036,-0.00464077,0.0308214,-0.024676,0.061514,-3.76485e-06,-6.77061e-06,0.0457343,-0.004630018265442848,0.06344538465996763,-3.7648429129788497e-06,0.031301297025690955,-6.770587079429902e-06,-0.024374036362574292
72,138.6,195.869,588.088,-1.45454e-07,339.394,-0.0233681,-0.0402393,-0.00474067,0.0314281,-0.0251779,0.0627396,-3.85681e-06,-6.93628e-06,0.046702,-0.004729450759882292,0.06474954234799091,-3.856802562540729e-06,0.03192717736419892,-6.9362559440566685e-06,-0.0248635801724284
73,141.3,196.493,589.965,-1.56951e-07,340.476,-0.0235021,-0.0404696,-0.00484051,0.0320342,-0.0256794,0.0639641,-3.94889e-06,-7.10217e-06,0.0476689,-0.004828813611242322,0.06605412673137656,-3.94888220311973e-06,0.03255281800764376,-7.102144779613795e-06,-0.025352488482966118
74,144.0,197.107,591.811,-1.68662e-07,341.541,-0.0236332,-0.0406947,-0.00494028,0.0326397,-0.0261804,0.0651875,-4.04108e-06,-7.26826e-06,0.0486351,-0.0049280968876797004,0.06735913546109207,-4.041071834826049e-06,0.033178218059705555,-7.268233586210648e-06,-0.0258406645879109
75,146.7,197.711,593.626,-1.80576e-07,342.588,-0.0237613,-0.0409147,-0.00503998,0.0332446,-0.026681,0.0664097,-4.13338e-06,-7.43455e-06,0.0496005,-0.005027300611032293,0.06866445931737286,-4.133371457548662e-06,0.03380337662395538,-7.434522363847229e-06,-0.02632820670924363
76,149.4,198.305,595.412,-1.92685e-07,343.618,-0.0238866,-0.0411299,-0.0051396,0.033849,-0.0271811,0.0676308,-4.22578e-06,-7.60102e-06,0.0505652,-0.00512641485438281,0.06997020254792696,-4.225771071397766e-06,0.03442839624669025,-7.6009911122998375e-06,-0.026815018235700316
77,152.1,198.89,597.17,-2.04978e-07,344.632,-0.0240092,-0.0413405,-0.00523915,0.0344527,-0.0276808,0.0688507,-4.31828e-06,-7.76767e-06,0.0515291,-0.005225449590248288,0.07127625566314544,-4.318270676262337e-06,0.0350530692080655,-7.767639831679496e-06,-0.027301197289134715
78,154.8,199.465,598.901,-2.17449e-07,345.63,-0.0241291,-0.0415466,-0.00533863,0.0350559,-0.0281801,0.0700695,-4.41087e-06,-7.93447e-06,0.0524923,-0.005324404840407415,0.07258272316311487,-4.410860272141548e-06,0.03567760155943289,-7.934438522205767e-06,-0.027786744574361255
79,157.6,200.032,600.605,-2.30089e-07,346.613,-0.0242466,-0.0417484,-0.00543804,0.0356585,-0.0286789,0.0712871,-4.50353e-06,-8.10142e-06,0.0534547,-0.005423280626619786,0.07388949528826205,-4.503519859144767e-06,0.03630188896103537,-8.101387183545583e-06,-0.028271563622245033
80,160.3,200.59,602.283,-2.42892e-07,347.581,-0.0243617,-0.0419462,-0.00553737,0.0362605,-0.0291773,0.0725036,-4.59627e-06,-8.26851e-06,0.0544164,-0.005522067025847455,0.07519667679122422,-4.596259437161798e-06,0.03692593051585158,-8.268475815920162e-06,-0.028755752405068224
81,163.0,201.141,603.937,-2.55852e-07,348.534,-0.0244745,-0.0421399,-0.00563663,0.0368619,-0.0296752,0.073719,-4.68909e-06,-8.43572e-06,0.0553773,-0.0056207740065659095,0.07650426529276477,-4.689079006192642e-06,0.03754972532676226,-8.435684419438871e-06,-0.029239214548057557
82,165.7,201.683,605.567,-2.68962e-07,349.474,-0.024585,-0.0423298,-0.00573581,0.0374628,-0.0301727,0.0749332,-4.78197e-06,-8.60306e-06,0.0563375,-0.005719391647670435,0.07781215062818791,-4.781958566346667e-06,0.03817337631388451,-8.603022993769471e-06,-0.02972204792405897
83,168.4,202.217,607.173,-2.82217e-07,350.401,-0.0246934,-0.0425161,-0.00583492,0.0380631,-0.0306697,0.0761463,-4.87491e-06,-8.77051e-06,0.0572968,-0.005817929915619691,0.07912043792933621,-4.8748981176238715e-06,0.038796778887247196,-8.770471539243374e-06,-0.030204156252397252
84,171.1,202.744,608.757,-2.95612e-07,351.314,-0.0247997,-0.0426988,-0.00593395,0.0386628,-0.0311663,0.0773583,-4.9679e-06,-8.93806e-06,0.0582554,-0.005916378891238638,0.0804291248041542,-4.967887660023429e-06,0.03941993214937556,-8.938020055637708e-06,-0.03068563730676177
85,173.8,203.263,610.319,-3.09143e-07,352.215,-0.0249039,-0.0428781,-0.00603291,0.0392619,-0.0316625,0.0785691,-5.06095e-06,-9.1057e-06,0.0592133,-0.0060147485389729916,0.08173810068254661,-5.060937193435144e-06,0.04004283520270491,-9.105658543284711e-06,-0.03116649178366837
86,176.5,203.776,611.859,-3.22804e-07,353.103,-0.0250063,-0.043054,-0.00613179,0.0398605,-0.0321582,0.0797788,-5.15404e-06,-9.27343e-06,0.0601703,-0.006113028941574394,0.08304747107594967,-5.154026717968385e-06,0.04066559121613644,-9.273387001851319e-06,-0.031646623543203356
87,179.2,204.281,613.379,-3.36592e-07,353.98,-0.0251068,-0.0432268,-0.00623059,0.0404585,-0.0326535,0.0809874,-5.24718e-06,-9.44124e-06,0.0611266,-0.006211220123590655,0.08435723357954061,-5.247166233623979e-06,0.04128809534986888,-9.441195431669769e-06,-0.032126130210933135
88,181.9,204.78,614.878,-3.50503e-07,354.845,-0.0252055,-0.0433965,-0.00632932,0.0410559,-0.0331484,0.0821948,-5.34036e-06,-9.60912e-06,0.062082,-0.00630933204645312,0.08566727721755862,-5.340345740290076e-06,0.04191034670600491,-9.60907383251719e-06,-0.032605012479899886
89,184.6,205.272,616.358,-3.64533e-07,355.698,-0.0253024,-0.0435632,-0.00642797,0.0416527,-0.0336428,0.0834012,-5.43357e-06,-9.77707e-06,0.0630367,-0.006407354795795239,0.08697781657919035,-5.433555238187893e-06,0.04253234438656528,-9.777022204615626e-06,-0.033083174350375666
90,187.3,205.758,617.819,-3.78679e-07,356.541,-0.0253977,-0.043727,-0.00652654,0.042249,-0.0341367,0.0846064,-5.52682e-06,-9.94508e-06,0.0639906,-0.006505288396095987,0.08828863198242942,-5.526804727207235e-06,0.043154191808906006,-9.945030547853229e-06,-0.033560616656481135
91,190.0,206.238,619.261,-3.92938e-07,357.372,-0.0254913,-0.043888,-0.00662503,0.0428447,-0.0346302,0.0858104,-5.62009e-06,-1.01131e-05,0.0649438,-0.006603132871811579,0.08959972061231025,-5.620074207346448e-06,0.04377578388378489,-1.0113048862780971e-05,-0.034037436827106915
92,192.7,206.711,620.686,-4.07306e-07,358.194,-0.0255833,-0.0440463,-0.00672344,0.0434399,-0.0351233,0.0870134,-5.71339e-06,-1.02812e-05,0.0658961,-0.006700888247373582,0.09091129783172702,-5.713373678606359e-06,0.04439722415263003,-1.028114714862749e-05,-0.034513635550563304
93,195.4,207.179,622.092,-4.21782e-07,359.005,-0.0256738,-0.044202,-0.00682178,0.0440345,-0.035616,0.0882153,-5.80671e-06,-1.04494e-05,0.0668476,-0.00679856447920435,0.09222325238174456,-5.806693141097163e-06,0.04501840740158958,-1.0449345405172394e-05,-0.03498921351407558
94,198.1,207.641,623.482,-4.36361e-07,359.806,-0.0257628,-0.0443551,-0.00692004,0.0446285,-0.0361082,0.089416,-5.90005e-06,-1.06176e-05,0.0677984,-0.0068961516577219495,0.09353547247456184,-5.900032594707838e-06,0.04563933273215248,-1.0617543633517634e-05,-0.035464074950197766
95,200.8,208.098,624.854,-4.51043e-07,360.598,-0.0258504,-0.0445058,-0.00701822,0.0452219,-0.0365999,0.0906156,-5.99341e-06,-1.07858e-05,0.0687483,-0.00699364980728967,0.09484806476279073,-5.993392039549406e-06,0.04625999924573754,-1.0785741833441165e-05,-0.035938220686262734
96,203.5,208.549,626.211,-4.65824e-07,361.38,-0.0259366,-0.0446541,-0.00711632,0.0458148,-0.0370912,0.0918141,-6.08678e-06,-1.0954e-05,0.0696975,-0.007091058952247042,0.09616102680375027,-6.086761475621039e-06,0.04688051073174315,-1.095394000516503e-05,-0.03641174790695312
97,206.2,208.995,627.551,-4.80703e-07,362.153,-0.0260215,-0.0448001,-0.00721434,0.0464072,-0.0375821,0.0930115,-6.18017e-06,-1.11223e-05,0.0706459,-0.0071883791169091715,0.09747435615060751,-6.180150902812542e-06,0.04750086647753027,-1.112223814747626e-05,-0.03688465729479928
98,208.9,209.435,628.876,-4.95678e-07,362.917,-0.026105,-0.0449439,-0.00731228,0.0469989,-0.0380725,0.0942078,-6.27356e-06,-1.12906e-05,0.0715935,-0.0072856103255685145,0.09878805035238458,-6.273540321233284e-06,0.04812085614607975,-1.129053626136578e-05,-0.037356853266946155
99,211.7,209.871,630.186,-5.10746e-07,363.673,-0.0261872,-0.0450855,-0.00741014,0.0475902,-0.0385625,0.0954029,-6.36695e-06,-1.14589e-05,0.0725402,-0.007382752602492992,0.10010199694375777,-6.366929730994286e-06,0.048740793274668404,-1.1458834347055635e-05,-0.03782843286240889
100,214.4,210.302,631.481,-5.25905e-07,364.42,-0.0262683,-0.045225,-0.00750793,0.0481808,-0.0390521,0.096597,-6.46035e-06,-1.16272e-05,0.0734862,-0.007479815897128872,0.10141641335444374,-6.460329131985354e-06,0.049360362527967716,-1.1627132404323781e-05,-0.03829939676030947
101,217.1,210.728,632.761,-5.41155e-07,365.158,-0.0263481,-0.0453624,-0.00760563,0.0487709,-0.0395412,0.09779,-6.55375e-06,-1.17955e-05,0.0744314,-0.007576780382323456,0.10273118724226182,-6.55372852420566e-06,0.04997977281692689,-1.1795430433392262e-05,-0.038769649515668414
102,219.8,211.149,634.028,-5.56494e-07,365.888,-0.0264268,-0.0454979,-0.00770325,0.0493605,-0.0400299,0.0989818,-6.64716e-06,-1.19638e-05,0.0753758,-0.007673656008446272,0.10404620573508438,-6.647137907656031e-06,0.05059902342812084,-1.1963728434039034e-05,-0.03923928802243404
103,222.5,211.565,635.28,-5.71919e-07,366.611,-0.0265043,-0.0456314,-0.00780079,0.0499495,-0.0405181,0.100173,-6.74055e-06,-1.21321e-05,0.0763194,-0.007770442799670763,0.10536212918375853,-6.74052728255603e-06,0.05121800852613667,-1.2132026406375118e-05,-0.03970821692716209
104,225.2,211.978,636.519,-5.8743e-07,367.325,-0.0265807,-0.0457631,-0.00789826,0.0505379,-0.041006,0.101362,-6.83395e-06,-1.23004e-05,0.0772622,-0.007867150701474701,0.10667718640194734,-6.833926648575073e-06,0.05183672721153987,-1.2300324350400516e-05,-0.04017662900970387
105,227.9,212.385,637.745,-6.03026e-07,368.032,-0.0266561,-0.0458929,-0.00799564,0.0511258,-0.0414933,0.102551,-6.92733e-06,-1.24686e-05,0.0782042,-0.007963759894361488,0.10799380815309889,-6.927306006154765e-06,0.05245528383036979,-1.2468522267328197e-05,-0.040644236996448146
106,230.6,212.789,638.958,-6.18704e-07,368.732,-0.0267304,-0.046021,-0.00809294,0.0517132,-0.0419803,0.103738,-7.02071e-06,-1.26369e-05,0.0791453,-0.00806028032472872,0.10930977767677574,-7.020685354852674e-06,0.0530736776685814,-1.263682015473222e-05,-0.0411113295067731
107,233.3,213.188,640.159,-6.34465e-07,369.424,-0.0268037,-0.0461473,-0.00819017,0.0523,-0.0424668,0.104925,-7.11408e-06,-1.28051e-05,0.0800857,-0.008156721935087985,0.11062731018372407,-7.1140546950010375e-06,0.05369180264276774,-1.2805018015038527e-05,-0.041577715387403735
108,236.0,213.583,641.347,-6.50305e-07,370.109,-0.0268761,-0.046272,-0.00828731,0.0528862,-0.0429528,0.10611,-7.20744e-06,-1.29734e-05,0.0810253,-0.008253064911664887,0.11194418363971548,-7.207414026488834e-06,0.05430965785314612,-1.2973315845821176e-05,-0.04204339544830471
109,238.7,213.974,642.523,-6.66226e-07,370.787,-0.0269475,-0.0463951,-0.00838437,0.0534719,-0.0434384,0.107294,-7.30078e-06,-1.31416e-05,0.0819641,-0.008349319197888505,0.11326150525364898,-7.3007533493152366e-06,0.05492734789262088,-1.3141513649506109e-05,-0.042508466247146104
110,241.4,214.361,643.687,-6.82225e-07,371.459,-0.0270179,-0.0465165,-0.00848135,0.0540571,-0.0439236,0.108477,-7.39411e-06,-1.33098e-05,0.0829021,-0.008445484817766635,0.11457927292025571,-7.394082663592094e-06,0.05554487204655212,-1.3309711424991377e-05,-0.042972928451680215
111,244.1,214.745,644.839,-6.98302e-07,372.123,-0.0270875,-0.0466364,-0.00857825,0.0546417,-0.0444084,0.109659,-7.48742e-06,-1.34779e-05,0.0838393,-0.008541561795282981,0.11589748453043369,-7.48739196931858e-06,0.05616212398391274,-1.3477809173489952e-05,-0.04343678272860518
112,246.8,215.124,645.98,-7.14456e-07,372.781,-0.0271562,-0.0467549,-0.00867507,0.0552258,-0.0448927,0.11084,-7.58071e-06,-1.3646e-05,0.0847757,-0.008637550154398599,0.11721613797125374,-7.580681266494693e-06,0.056779208482515164,-1.3645906893788862e-05,-0.04389993413356441
113,249.5,215.5,647.11,-7.30686e-07,373.433,-0.027224,-0.0468718,-0.00877181,0.0558093,-0.0453766,0.11202,-7.67398e-06,-1.38141e-05,0.0857113,-0.008733449919050229,0.11853523112596198,-7.673950555120435e-06,0.05739601908765812,-1.3814004585777084e-05,-0.04436247903367285
114,252.2,215.872,648.229,-7.46991e-07,374.078,-0.027291,-0.0469874,-0.00886847,0.0563923,-0.0458601,0.113199,-7.76723e-06,-1.39822e-05,0.0866461,-0.00882926111315141,0.11985476187398536,-7.767199835195804e-06,0.058012660700350605,-1.398210224945462e-05,-0.04482441809229343
115,254.9,216.241,649.337,-7.63371e-07,374.717,-0.0273572,-0.0471015,-0.00896505,0.0569748,-0.0463431,0.114377,-7.86047e-06,-1.41502e-05,0.0875801,-0.00892498376059192,0.12117472809093344,-7.860439106610606e-06,0.058629132605219736,-1.4150099886367506e-05,-0.04528565650031269
116,257.6,216.606,650.435,-7.79824e-07,375.35,-0.0274226,-0.0472144,-0.00906155,0.0575567,-0.0468257,0.115553,-7.95367e-06,-1.43182e-05,0.0885133,-0.009020617885238336,0.12249400515403752,-7.953638369695426e-06,0.05924532816219252,-1.4318097495080728e-05,-0.0457462904825654
117,260.3,216.967,651.523,-7.9635e-07,375.978,-0.0274872,-0.0473259,-0.00915797,0.058138,-0.0473079,0.116729,-8.04686e-06,-1.44861e-05,0.0894457,-0.009116163510933362,0.12381483459958975,-8.046827624119679e-06,0.05986124647076596,-1.4485995076918279e-05,-0.04620632069909569
118,263.0,217.326,652.6,-8.12949e-07,376.599,-0.0275511,-0.0474361,-0.0092543,0.0587189,-0.0477896,0.117903,-8.14001e-06,-1.4654e-05,0.0903773,-0.009211610753611987,0.12513496798207924,-8.13997687021395e-06,0.06047709872581031,-1.4653892630667187e-05,-0.04666565247547505
119,265.8,217.681,653.668,-8.2962e-07,377.215,-0.0276143,-0.0475451,-0.00935056,0.0592992,-0.0482709,0.119077,-8.23314e-06,-1.48218e-05,0.0913081,-0.009306979453791553,0.12645665211127044,-8.233106107757848e-06,0.061092672177563534,-1.4821690157651446e-05,-0.047124381894848355
120,268.5,218.033,654.726,-8.46362e-07,377.825,-0.0276767,-0.0476528,-0.00944673,0.0598789,-0.0487518,0.120249,-8.32625e-06,-1.49896e-05,0.0922381,-0.009402249820428477,0.12777763325128633,-8.326215336862397e-06,0.0617079659252866,-1.4989487656547062e-05,-0.04758250961395605
121,270.5,218.296,655.518,-9.73102e-07,378.282,-0.0277233,-0.0477334,-0.00951935,0.0603166,-0.0491148,0.121134,-8.39655e-06,-1.51163e-05,0.0929402,-0.00947418441706982,0.12877615823884825,-8.396514749042794e-06,0.062172777218503006,-1.5116185749342037e-05,-0.04792817442100805
