,Time,S11,S22,S33,S12,S13,S23,LE11,LE22,LE33,LE12,LE13,LE23,SDV_EPBAR,E11,E12,E13,E22,E23,E33
0,0.0002705,0.000519365,0.0015581,-7.79048e-12,0.000899567,2.21372e-21,3.68811e-20,2.50301e-10,6.7501e-09,-3.0004e-09,1.1258e-08,2.76762e-26,4.61603e-25,0.0,2.5030089112476617e-10,1.1258000087721598e-08,0.0,6.750100034480511e-09,0.0,-3.0004000395322805e-09
1,0.000541,0.00103873,0.00311619,4.33681e-19,0.00179913,-3.08331e-20,-2.03577e-20,5.00425e-10,1.35001e-08,-6.00057e-09,2.25162e-08,-1.63975e-24,4.6912e-25,0.0,5.00425034744012e-10,2.2516200237632233e-08,0.0,1.3500100148888805e-08,0.0,-6.000569929831556e-09
2,0.00094675,0.00181778,0.00545333,6.50521e-19,0.00314848,1.87371e-20,6.55005e-20,8.75688e-10,2.36252e-08,-1.05009e-08,3.94034e-08,-1.73568e-24,1.95724e-24,0.0,8.756879665838824e-10,3.9403400764470575e-08,0.0,2.3625200240573463e-08,0.0,-1.0500899927379237e-08
3,0.0015554,0.00298635,0.00895905,1.73472e-18,0.00517251,4.73565e-20,4.89771e-20,1.4375e-09,3.88125e-08,-1.725e-08,6.47354e-08,4.1359e-25,7.16359e-25,0.0,1.4374998968946784e-09,6.473540214990692e-08,0.0,3.8812500768869995e-08,0.0,-1.7249999872959165e-08
4,0.0024683,0.00473921,0.0142176,0.0,0.00820854,1.00168e-19,-5.78319e-20,2.28125e-09,6.15937e-08,-2.7375e-08,1.02732e-07,-7.41318e-35,-1.284e-34,0.0,2.281250077729169e-09,1.027320053470504e-07,0.0,6.159370191660685e-08,0.0,-2.7374999600482397e-08
5,0.0038377,0.00736849,0.0221055,-8.67362e-19,0.0127626,9.88226e-21,-8.20239e-20,3.54688e-09,9.57656e-08,-4.25625e-08,1.59728e-07,7.653e-32,1.32554e-31,0.0,3.5468799008953056e-09,1.597280128162737e-07,0.0,9.576560455748506e-08,0.0,-4.256249908074494e-08
6,0.0058918,0.0113124,0.0339373,-6.07153e-18,0.0195937,-4.73565e-20,-4.89771e-20,5.44671e-09,1.47024e-07,-6.53456e-08,2.45219e-07,-1.14621e-23,6.61761e-24,0.0,5.446709971934638e-09,2.452190299706558e-07,0.0,1.4702401074373483e-07,0.0,-6.534559782167548e-08
7,0.008973,0.0172283,0.0516849,7.80626e-18,0.0298403,6.7121e-20,-1.15071e-19,8.29297e-09,2.2391e-07,-9.95156e-08,3.7346e-07,1.78232e-31,3.08708e-31,0.0,8.292970088419338e-09,3.734600697580248e-07,0.0,2.2391002496569e-07,0.0,-9.951559509779884e-08
8,0.013595,0.0261021,0.0783064,9.54098e-18,0.0452102,-1.3116e-19,-4.58503e-19,1.25671e-08,3.39241e-07,-1.50777e-07,5.65816e-07,2.77687e-23,-3.13146e-23,0.0,1.2567100027283118e-08,5.658161601473921e-07,0.0,3.392410574676319e-07,0.0,-1.5077698867216327e-07
9,0.020527,0.0394129,0.118239,6.07153e-18,0.0682651,-4.56883e-19,3.48265e-20,1.89735e-08,5.12236e-07,-2.27663e-07,8.54355e-07,1.1462e-23,-6.61759e-24,0.0,1.8973500104380037e-08,8.543553648987512e-07,0.0,5.122361312892565e-07,0.0,-2.276629741393421e-07
10,0.030926,0.059379,0.178137,-8.67362e-19,0.102847,-1.54031e-18,-2.55477e-19,2.8587e-08,7.71729e-07,-3.42996e-07,1.28716e-06,-2.95414e-23,1.77334e-24,0.0,2.858700032248862e-08,1.2871608283671065e-06,0.0,7.717292977993395e-07,0.0,-3.429959412049044e-07
11,0.046525,0.0893282,0.267985,-4.94396e-17,0.154721,-5.5365e-19,3.95969e-19,4.30043e-08,1.16097e-06,-5.15992e-07,1.93637e-06,-9.16942e-23,5.29396e-23,0.0,4.300430100911967e-08,1.9363718748444114e-06,0.0,1.1609706738191505e-06,0.0,-5.159918669006558e-07
12,0.069922,0.134252,0.402756,-2.1684e-17,0.232531,2.20493e-19,-2.49317e-18,6.46307e-08,1.74483e-06,-7.75487e-07,2.91018e-06,-5.29397e-23,-9.16942e-23,0.0,6.463070212348043e-08,2.910184234483637e-06,0.0,1.744831522154655e-06,0.0,-7.754866993003873e-07
13,0.105,0.201637,0.604912,1.99493e-17,0.349246,-1.22407e-18,-2.88023e-18,9.70596e-08,2.62061e-06,-1.16471e-06,4.37091e-06,-1.05879e-22,-1.83388e-22,0.0,9.705960479777787e-08,4.370919552521002e-06,0.0,2.62061343381248e-06,0.0,-1.1647093217659332e-06
14,0.1577,0.302715,0.908146,-9.1073e-17,0.524319,2.72256e-18,-2.74454e-19,1.45719e-07,3.93429e-06,-1.74858e-06,6.56199e-06,1.03982e-22,-2.43423e-22,0.0,1.4571901063575865e-07,6.562011529931411e-06,0.0,3.934297739371928e-06,0.0,-1.748578471238993e-06
15,0.2366,0.454332,1.363,-7.80626e-18,0.786926,-1.38381e-17,-7.8084e-18,2.18705e-07,5.90479e-06,-2.62436e-06,9.8486e-06,-2.11758e-22,-3.66776e-22,0.0,2.1870502386889257e-07,9.848648497623458e-06,0.0,5.904807433232406e-06,0.0,-2.624356556402141e-06
16,0.3551,0.681756,2.04527,4.77049e-17,1.18084,-5.94481e-18,-2.59681e-18,3.28182e-07,8.86055e-06,-3.93804e-06,1.47785e-05,5.57568e-28,9.65736e-28,0.0,3.281820537548441e-07,1.4778609202625859e-05,0.0,8.860589254755524e-06,0.0,-3.938032245964784e-06
17,0.5328,1.02289,3.06867,7.13839e-16,1.7717,-5.94479e-18,-2.59677e-18,4.92389e-07,1.32942e-05,-5.90853e-06,2.21733e-05,8.36561e-28,1.44897e-27,0.0,4.923891212538223e-07,2.2173545829451413e-05,0.0,1.3294288368159712e-05,0.0,-5.908512544672284e-06
18,0.7993,1.53459,4.60377,-2.85362e-16,2.65799,-3.98145e-18,-3.30361e-17,7.38697e-07,1.99445e-05,-8.86424e-06,3.32654e-05,7.35553e-27,1.27402e-26,0.0,7.38697272906208e-07,3.326595329955495e-05,0.0,1.9944698892881974e-05,0.0,-8.864200712777048e-06
19,1.199,2.30213,6.90638,-1.61763e-15,3.9874,2.21215e-18,-5.61484e-17,1.10814e-06,2.99199e-05,-1.32977e-05,4.99034e-05,-4.23505e-22,-7.33532e-22,0.0,1.1081406139368255e-06,4.990464519538662e-05,0.0,2.992034760462836e-05,0.0,-1.3297611585971758e-05
20,1.799,3.45341,10.3602,-3.17194e-15,5.98148,6.53581e-17,-1.44564e-17,1.66234e-06,4.48827e-05,-1.99479e-05,7.48599e-05,-1.09041e-26,-1.88864e-26,0.0,1.6623413816585497e-06,7.486270207235357e-05,0.0,4.4883707243537074e-05,0.0,-1.994770104196686e-05
21,2.698,5.18029,15.5409,-2.8485e-14,8.97252,-6.87866e-17,2.39178e-17,2.49357e-06,6.73263e-05,-2.99228e-05,0.000112294,-4.23518e-22,-7.33555e-22,0.0,2.4935731088859825e-06,0.00011230030520725798,0.0,6.732856646629592e-05,0.0,-2.9922352317468537e-05
22,4.047,31.1929,93.5787,-1.03264e-09,54.0277,-8.08225e-16,-1.7395e-16,1.5015e-05,0.000405403,-0.000180179,0.000676171,-3.02527e-20,1.82072e-21,0.0,1.5015112725613733e-05,0.0006763996551444329,0.0,0.00040548518690219915,0.0,-0.00018016276873877857
23,6.071,70.3658,211.097,-9.04826e-07,121.877,1.29847e-16,-7.14917e-16,3.38711e-05,0.000914519,-0.000406453,0.00152533,-2.03309e-20,-3.52142e-20,0.0,3.3871673632113186e-05,0.0015264939075101402,0.0,0.0009149373000056915,0.0,-0.00040637040916957634
24,8.776,121.267,363.809,0.000123897,210.043,-0.00016804,-0.000290978,5.55275e-05,0.0015932,-0.000714748,0.00266338,-2.13442e-09,-3.6984e-09,2.76585e-05,5.552904168015793e-05,0.0026669299474322283,-2.134419974098023e-09,0.0015944698173882,-3.698400030671678e-09,-0.0007144926284939901
25,11.48,127.226,381.868,0.0781866,220.49,-0.00345472,-0.0059701,-3.51843e-05,0.00223288,-0.00121732,0.00393153,-6.25712e-08,-1.09702e-07,0.000935863,-3.5183681039718806e-05,0.003939268602262569,-6.257119800068267e-08,0.0022353747330148277,-1.0970199393334212e-07,-0.0012165793665684932
26,14.19,132.199,396.711,0.000140724,229.008,-0.00630682,-0.0109045,-0.00012776,0.00287126,-0.00172512,0.00520067,-1.32913e-07,-2.34185e-07,0.00186424,-0.00012775183903868115,0.005214216958463025,-1.329129911686877e-07,0.002875386015002812,-2.3418497252514214e-07,-0.0017236328357945752
27,16.89,136.393,409.331,-5.31786e-06,236.283,-0.00860374,-0.0148702,-0.000222389,0.00350827,-0.00223513,0.00647102,-2.08117e-07,-3.67894e-07,0.00280605,-0.0002223642733992781,0.006492002284431031,-2.08116978317463e-07,0.0035144311821198038,-3.6789393231817513e-07,-0.00223263395694806
28,19.6,140.05,420.338,5.52059e-06,242.628,-0.0105603,-0.0182458,-0.000318264,0.0041442,-0.00274695,0.00774165,-2.88689e-07,-5.11609e-07,0.00375738,-0.000318213359385755,0.0077716940524974465,-2.8868895829425867e-07,0.004152799071473812,-5.116088691581311e-07,-0.0027431805851033664
29,22.3,143.299,430.115,2.5182e-06,248.264,-0.0122571,-0.0211715,-0.000415065,0.00477915,-0.00326002,0.00901217,-3.74006e-07,-6.64129e-07,0.00471573,-0.0004149788724394643,0.009052901872959263,-3.740059301149401e-07,0.00479058835196855,-6.641287794151296e-07,-0.0032547119045321926
30,25.01,146.225,438.922,1.12919e-06,253.341,-0.0137499,-0.0237443,-0.000512574,0.00541321,-0.00377398,0.0102824,-4.63522e-07,-8.24412e-07,0.00567941,-0.0005124426563893891,0.010335445530773368,-4.635218925352902e-07,0.005427887894141392,-8.244116601607843e-07,-0.0037668674877859853
31,27.71,148.891,446.944,4.61437e-07,257.965,-0.0150792,-0.0260341,-0.000610637,0.00604641,-0.00428854,0.011552,-5.56767e-07,-9.9157e-07,0.00664719,-0.000610450599170087,0.011618982028979152,-5.567668449613095e-07,0.00606472643456013,-9.915695083906328e-07,-0.00427935734375362
32,30.42,151.341,454.318,1.31633e-07,262.216,-0.0162746,-0.0280924,-0.000709143,0.00667881,-0.00480352,0.012821,-6.53339e-07,-1.16485e-06,0.0076182,-0.0007088916175282955,0.01290354139770944,-6.533387866269891e-07,0.006701162987584608,-1.1648493215554723e-06,-0.004792001548222902
33,33.12,153.61,461.145,-3.08014e-08,266.151,-0.0173587,-0.0299585,-0.000808004,0.00731043,-0.00531876,0.0140893,-7.52891e-07,-1.34359e-06,0.00859177,-0.0008076776526705354,0.014189021974455152,-7.528907165488263e-07,0.007337216427041771,-1.3435890974244913e-06,-0.0053046404399729186
34,35.83,155.724,467.506,-1.07482e-07,269.818,-0.0183489,-0.0316624,-0.000907154,0.0079413,-0.00583416,0.0153567,-8.55123e-07,-1.52725e-06,0.00956737,-0.0009067426602022977,0.015475220032446169,-8.551226343689322e-07,0.007972915757503474,-1.527248833732564e-06,-0.005817174336959163
35,38.53,157.704,473.465,-1.39508e-07,273.253,-0.0192591,-0.0332282,-0.00100654,0.00857143,-0.00634961,0.0166232,-9.59778e-07,-1.71534e-06,0.0105446,-0.0010060336085296884,0.016762134164971743,-9.597775394443175e-07,0.008608269887735887,-1.7153385287738132e-06,-0.006329493825563914
36,41.24,159.567,479.071,-1.48399e-07,276.485,-0.0201002,-0.0346747,-0.00110612,0.00920083,-0.00686506,0.0178889,-1.06663e-06,-1.90745e-06,0.0115231,-0.0011055084747668698,0.01804986476658388,-1.0666294311123536e-06,0.009243287751961704,-1.9074481808489807e-06,-0.0068415493071352085
37,43.94,161.327,484.367,-1.4575e-07,279.539,-0.0208811,-0.0360176,-0.00120586,0.00982953,-0.00738044,0.0191535,-1.17548e-06,-2.10321e-06,0.0125026,-0.0012051332429819928,0.019338105008191553,-1.1754793091123261e-06,0.009877998507390684,-2.103207788262118e-06,-0.007353271432452013
38,46.65,162.996,489.388,-1.37921e-07,282.433,-0.0216094,-0.0372695,-0.00130573,0.0104575,-0.00789569,0.0204172,-1.28616e-06,-2.3023e-06,0.013483,-0.0013048779054922743,0.020627056824164214,-1.2861591729418365e-06,0.010512370756637246,-2.3022973496544807e-06,-0.007864600916775544
39,49.35,164.583,494.162,-1.2843e-07,285.185,-0.022291,-0.0384411,-0.0014057,0.0110849,-0.00841079,0.0216798,-1.39851e-06,-2.50444e-06,0.0144639,-0.0014047124665343969,0.021916514409383803,-1.3985090220325347e-06,0.011146565144026122,-2.5044368638926784e-06,-0.008375518262784265
40,52.06,166.096,498.715,-1.19207e-07,287.81,-0.0229312,-0.0395412,-0.00150576,0.0117115,-0.00892568,0.0229414,-1.5124e-06,-2.70938e-06,0.0154453,-0.0015046269122019895,0.023206577884893775,-1.5123988563736646e-06,0.011780348125216777,-2.7093763296237583e-06,-0.008885964369110932
41,54.76,167.542,503.066,-1.11285e-07,290.318,-0.0235343,-0.0405774,-0.00160589,0.0123375,-0.00944036,0.0242019,-1.6277e-06,-2.9169e-06,0.016427,-0.0016046012486106154,0.024497142984094333,-1.627698675288336e-06,0.012413920910734788,-2.916895745830317e-06,-0.00939593969266228
42,57.47,168.927,507.235,-1.05183e-07,292.721,-0.024104,-0.0415561,-0.00170607,0.0129628,-0.00995478,0.0254613,-1.74431e-06,-3.12679e-06,0.0174089,-0.0017046154898605614,0.025788207498648186,-1.7443084786572527e-06,0.0130471813037083,-3.1267851116068e-06,-0.009905395185083488
43,60.17,170.257,511.237,-1.01123e-07,295.028,-0.0246434,-0.0424828,-0.00180629,0.0135874,-0.0104689,0.0267197,-1.86213e-06,-3.33888e-06,0.0183909,-0.0018046596399999837,0.02707987192376704,-1.862128266250096e-06,0.013680128221895904,-3.3388744259399417e-06,-0.010414291795139197
44,62.88,171.536,515.085,-9.91571e-08,297.247,-0.0251555,-0.0433623,-0.00190654,0.0142114,-0.0109828,0.0279769,-1.98106e-06,-3.553e-06,0.0193729,-0.0019047237070759504,0.028371928755494213,-1.981058037725525e-06,0.014312862014318695,-3.5529936881495416e-06,-0.010922709241533712
45,65.58,172.768,518.792,-9.9244e-08,299.384,-0.0256426,-0.0441988,-0.00200681,0.0148347,-0.0114963,0.0292331,-2.10104e-06,-3.76901e-06,0.0203548,-0.0020047977031362185,0.02966458131748273,-2.1010377928565305e-06,0.014945280293894081,-3.769002897335838e-06,-0.011430470051592923
46,68.29,173.957,522.368,-1.01292e-07,301.445,-0.0261068,-0.0449959,-0.00210708,0.0154574,-0.0120096,0.0304881,-2.22198e-06,-3.98678e-06,0.0213366,-0.0021048616652799,0.030957621580086636,-2.2219775314136214e-06,0.015577483535984316,-3.986772052821941e-06,-0.01193777258098272
47,70.99,175.105,525.823,-1.05183e-07,303.437,-0.02655,-0.045757,-0.00220736,0.0160794,-0.0125225,0.031742,-2.34383e-06,-4.20618e-06,0.0223182,-0.0022049255724638783,0.03225115015004221,-2.3438272532816384e-06,0.01620936922682148,-4.206171154041982e-06,-0.012444419756651115
48,73.7,176.216,529.165,-1.10794e-07,305.364,-0.0269739,-0.0464847,-0.00230764,0.0167008,-0.013035,0.0329947,-2.46651e-06,-4.42711e-06,0.0232995,-0.0023049794457424833,0.033545061437963986,-2.4665069581208954e-06,0.01684103796801084,-4.427100200321554e-06,-0.012950412319856164
49,76.4,177.291,532.402,-1.17996e-07,307.23,-0.0273799,-0.0471818,-0.0024079,0.0173216,-0.0135472,0.0342464,-2.58997e-06,-4.64945e-06,0.0242806,-0.002405003334222,0.034839559784142216,-2.5899666460382775e-06,0.017472488866460578,-4.649439191317661e-06,-0.013455849665111708
50,79.11,178.335,535.541,-1.26671e-07,309.04,-0.0277693,-0.0478503,-0.00250814,0.0179417,-0.014059,0.0354969,-2.71417e-06,-4.87312e-06,0.0252613,-0.0025049972449091573,0.03613443610633427,-2.7141663166974084e-06,0.018103619218548417,-4.87310812635755e-06,-0.013960633775980447
51,81.81,179.347,538.587,-1.36703e-07,310.796,-0.0281434,-0.0484925,-0.00260837,0.0185612,-0.0145705,0.0367462,-2.83906e-06,-5.09804e-06,0.0262416,-0.0026049711587587954,0.03742968776784861,-2.8390559698721063e-06,0.018734529815034096,-5.098027004990513e-06,-0.014464863943945194
52,84.52,180.331,541.548,-1.47987e-07,312.502,-0.0285031,-0.04911,-0.00270857,0.0191801,-0.0150816,0.0379944,-2.96458e-06,-5.32412e-06,0.0272215,-0.0027049051338731145,0.038725415999880664,-2.964575605668429e-06,0.019365219762409458,-5.3241058268760355e-06,-0.014968442251584668
53,87.22,181.288,544.426,-1.60428e-07,314.162,-0.0288495,-0.0497045,-0.00280873,0.0197983,-0.0155923,0.0392415,-3.09071e-06,-5.55129e-06,0.028201,-0.002804789208296854,0.040021618545277304,-3.0907052237516552e-06,0.01999558616744679,-5.551274591564237e-06,-0.015471369434739701
54,89.93,182.219,547.228,-1.73936e-07,315.777,-0.0291834,-0.0502776,-0.00290887,0.0204159,-0.0161026,0.0404874,-3.2174e-06,-5.77948e-06,0.02918,-0.0029046433369258606,0.04131818901067574,-3.21739482422867e-06,0.020625730009852683,-5.779463298827281e-06,-0.015973646228093608
55,92.63,183.126,549.957,-1.88433e-07,317.351,-0.0295055,-0.0508306,-0.00300896,0.0210329,-0.0166125,0.0417322,-3.34463e-06,-6.00863e-06,0.0301585,-0.0030044376168862907,0.04261522900256387,-3.3446244067647513e-06,0.02125565039572419,-6.008611948216114e-06,-0.01647527336517496
56,95.34,184.01,552.618,-2.03846e-07,318.884,-0.0298167,-0.0513648,-0.00310902,0.0216493,-0.017122,0.0429758,-3.47234e-06,-6.23868e-06,0.0311364,-0.003104192002063244,0.04391263185924066,-3.4723339714659573e-06,0.021885346431008257,-6.2386605395037265e-06,-0.016976251578358026
57,98.04,184.873,555.213,-2.2011e-07,320.381,-0.0301175,-0.0518811,-0.00320903,0.0222651,-0.017631,0.0442182,-3.60053e-06,-6.46958e-06,0.0321139,-0.0032038865665113825,0.045210394916542995,-3.6005235181102435e-06,0.02251481722150528,-6.469559072352915e-06,-0.017476483346519633
58,100.7,185.715,557.747,-2.37165e-07,321.841,-0.0304086,-0.0523808,-0.00330899,0.0228802,-0.0181397,0.0454595,-3.72916e-06,-6.70127e-06,0.0330907,-0.0033035213261818352,0.04650862015655299,-3.7291530466943e-06,0.023143959558467708,-6.7012475465366705e-06,-0.01797616595439444
59,103.5,186.537,560.222,-2.54958e-07,323.268,-0.0306906,-0.0528647,-0.00340891,0.0234947,-0.018648,0.0466997,-3.8582e-06,-6.93371e-06,0.034067,-0.0034031062629846787,0.047807305295467284,-3.858192557104623e-06,0.023772874736014193,-6.933685961940661e-06,-0.01847520182852791
60,106.2,187.341,562.641,-2.73442e-07,324.663,-0.0309638,-0.0533337,-0.00350877,0.0241087,-0.0191559,0.0479387,-3.98762e-06,-7.16685e-06,0.0350427,-0.003502621459916755,0.04910634313448803,-3.987612049449751e-06,0.024401664299743997,-7.1668243182276825e-06,-0.018973591696698322
61,108.9,188.127,565.007,-2.92572e-07,326.026,-0.0312288,-0.0537887,-0.00360859,0.024722,-0.0196633,0.0491765,-4.11742e-06,-7.40066e-06,0.0360178,-0.003602086863841669,0.05040573099125978,-4.117411523396619e-06,0.025030122537478716,-7.400632615173208e-06,-0.019471238232668386
62,111.6,188.897,567.321,-3.12308e-07,327.361,-0.0314861,-0.0542303,-0.00370835,0.0253347,-0.0201703,0.0504132,-4.24755e-06,-7.63508e-06,0.0369922,-0.0037014825617164293,0.051705571349394575,-4.2475409791631336e-06,0.02565835093167279,-7.635050852883296e-06,-0.019968240314210517
63,114.3,189.65,569.588,-3.32616e-07,328.667,-0.031736,-0.0546593,-0.00380805,0.0259468,-0.0206769,0.0516487,-4.37801e-06,-7.8701e-06,0.037966,-0.003800808572421155,0.053005756606849586,-4.37800041652725e-06,0.026286348587353237,-7.870069030802007e-06,-0.02046459866548167
64,117.0,190.387,571.807,-3.53461e-07,329.947,-0.0319789,-0.0550762,-0.00390769,0.0265583,-0.021183,0.0528831,-4.50878e-06,-8.10566e-06,0.0389392,-0.0039000649148217548,0.05430638949827271,-4.508769835487314e-06,0.02691411460941384,-8.105627149257444e-06,-0.020960216105524787
65,119.7,191.11,573.982,-3.74815e-07,331.201,-0.0322151,-0.0554817,-0.00400727,0.0271692,-0.0216888,0.0541163,-4.63983e-06,-8.34174e-06,0.0399116,-0.00399925160777026,0.05560736215266626,-4.639819236040843e-06,0.027541648102618055,-8.341705207803862e-06,-0.0214552892136749
66,122.4,191.819,576.115,-3.9665e-07,332.43,-0.032445,-0.0558764,-0.0041068,0.0277795,-0.0221941,0.0553483,-4.77115e-06,-8.57831e-06,0.0408835,-0.004098378629119659,0.05690867186502446,-4.771138618075987e-06,0.028168948171600316,-8.57827320643878e-06,-0.021949622952098014
67,125.1,192.514,578.207,-4.18941e-07,333.636,-0.0326689,-0.0562607,-0.00420626,0.0283892,-0.022699,0.0565792,-4.90272e-06,-8.81534e-06,0.0418546,-0.004197426078669797,0.058210421746829555,-4.902707981702115e-06,0.028796013920869168,-8.815301145048693e-06,-0.022443315944186026
68,127.8,193.196,580.259,-4.41666e-07,334.819,-0.032887,-0.0566352,-0.00430566,0.0289983,-0.0232034,0.057809,-5.03454e-06,-9.0528e-06,0.042825,-0.00429640393523667,0.05951260947460746,-5.03452732669718e-06,0.029422844454807695,-9.052759023520096e-06,-0.02293627120185615
69,130.5,193.866,582.274,-4.64804e-07,335.98,-0.0330996,-0.0570002,-0.00440499,0.0296068,-0.0237074,0.0590376,-5.16657e-06,-9.29067e-06,0.0437947,-0.004395302261567258,0.06081512663906108,-5.166556653279919e-06,0.030049438877677526,-9.290626841851335e-06,-0.023428587247105614
70,133.2,194.523,584.252,-4.88336e-07,337.121,-0.0333069,-0.0573562,-0.00450426,0.0302147,-0.024211,0.060265,-5.29882e-06,-9.52892e-06,0.0447638,-0.004494131034464166,0.06211797051722345,-5.298805961229114e-06,0.03067579629361905,-9.528874600039927e-06,-0.02392026479577003
71,135.9,195.169,586.195,-5.12244e-07,338.241,-0.0335092,-0.0577036,-0.00460346,0.030822,-0.0247141,0.0614913,-5.43127e-06,-9.76752e-06,0.0457321,-0.004592880318620041,0.06342124472372523,-5.431255250654132e-06,0.031301915806654756,-9.767472297972368e-06,-0.024411207003683932
72,138.6,195.803,588.105,-5.36513e-07,339.342,-0.0337067,-0.0580428,-0.00470259,0.0314287,-0.0252168,0.0627165,-5.5639e-06,-1.00065e-05,0.0466997,-0.00469155013574396,0.06472494691764075,-5.5638845215533195e-06,0.03192779652069122,-1.0006449935096029e-05,-0.024901512241376156
73,141.3,196.427,589.982,-5.61128e-07,340.424,-0.0338996,-0.0583741,-0.00480165,0.0320349,-0.025719,0.0639405,-5.6967e-06,-1.02457e-05,0.0476665,-0.004790140507525686,0.06602896815085812,-5.696683773814826e-06,0.032553540794869384,-1.0245647512951983e-05,-0.025391083760230693
74,144.0,197.041,591.828,-5.86074e-07,341.488,-0.0340881,-0.0586978,-0.00490065,0.0326404,-0.0262209,0.0651633,-5.82967e-06,-1.04853e-05,0.0486326,-0.004888661406750483,0.06733330568255558,-5.829653007549673e-06,0.033178941284711216,-1.04852450294457e-05,-0.025880117242073397
75,146.7,197.644,593.643,-6.11339e-07,342.535,-0.0342724,-0.0590143,-0.00499957,0.0332454,-0.0267222,0.066385,-5.96279e-06,-1.07251e-05,0.049598,-0.004987092951859617,0.06863806363121583,-5.962772222645185e-06,0.03380420366698744,-1.0725042486336989e-05,-0.02636832116076404
76,149.4,198.238,595.43,-6.36912e-07,343.565,-0.0344526,-0.0593238,-0.00509843,0.0338498,-0.0272232,0.0676056,-6.09605e-06,-1.09652e-05,0.0505627,-0.005085455065730993,0.06994323963855686,-6.096031419100534e-06,0.03442922378973812,-1.0965139882412878e-05,-0.026855988461003233
77,152.1,198.822,597.188,-6.62782e-07,344.578,-0.0346288,-0.0596266,-0.00519721,0.0344536,-0.0277237,0.068825,-6.22945e-06,-1.12055e-05,0.0515265,-0.005183727870705757,0.07124872421715533,-6.229430597026742e-06,0.035054000756246984,-1.1205437218664294e-05,-0.02734292517270165
78,154.8,199.397,598.919,-6.88938e-07,345.576,-0.0348014,-0.059923,-0.00529593,0.0350568,-0.0282237,0.0700433,-6.36297e-06,-1.14461e-05,0.0524897,-0.0052819312856901,0.07255462186389638,-6.3629497563111315e-06,0.035678533669693646,-1.144603449365622e-05,-0.02782913214824201
79,157.6,199.964,600.623,-7.15371e-07,346.559,-0.0349703,-0.0602132,-0.00539457,0.0356594,-0.0287234,0.0712605,-6.49661e-06,-1.16868e-05,0.0534521,-0.005380045436918723,0.07386093020760454,-6.496588897064726e-06,0.036302821633155125,-1.1686731709592557e-05,-0.028314804575545582
80,160.3,200.521,602.302,-7.42072e-07,347.526,-0.0351357,-0.0604974,-0.00549313,0.0362614,-0.0292225,0.0724765,-6.63036e-06,-1.19278e-05,0.0544137,-0.00547807034889336,0.07516753935609732,-6.6303380191756744e-06,0.03692686374960896,-1.192772886404736e-05,-0.02879965165292908
81,163.0,201.071,603.956,-7.69034e-07,348.48,-0.0352978,-0.060776,-0.00559163,0.0368629,-0.0297213,0.0736913,-6.7642e-06,-1.2169e-05,0.0553745,-0.005576025934572182,0.07647444653760793,-6.764177122864368e-06,0.037550762877006205,-1.2168925958011556e-05,-0.029283965588747463
82,165.7,201.613,605.586,-7.96249e-07,349.419,-0.0354567,-0.061049,-0.00569005,0.0374638,-0.0302195,0.0749051,-6.89814e-06,-1.24103e-05,0.0563346,-0.005673892326015562,0.07778186453227698,-6.898116207909588e-06,0.03817441448778003,-1.2410222992587094e-05,-0.029767455869661896
83,168.4,202.147,607.193,-8.23709e-07,350.346,-0.0356124,-0.0613166,-0.00578839,0.0380641,-0.0307174,0.0761177,-7.03216e-06,-1.26517e-05,0.0572939,-0.005771669547659508,0.07908957552614626,-7.032135274420703e-06,0.03879781768454538,-1.265161996755193e-05,-0.030250414410878168
84,171.1,202.673,608.777,-8.51408e-07,351.259,-0.0357652,-0.0615792,-0.00588666,0.0386639,-0.0312148,0.0773291,-7.16627e-06,-1.28934e-05,0.0582525,-0.005869367565222161,0.08039757673431369,-7.166244322398541e-06,0.03942107551192975,-1.2893316880480121e-05,-0.030732647913335964
85,173.8,203.192,610.339,-8.7934e-07,352.159,-0.035915,-0.0618368,-0.00598486,0.039263,-0.0317118,0.0785395,-7.30044e-06,-1.31351e-05,0.0592103,-0.0059669864001641315,0.08170608170864946,-7.300413351840618e-06,0.04004397925045278,-1.3135013734899559e-05,-0.03121425409827261
86,176.5,203.704,611.88,-9.07499e-07,353.047,-0.0360621,-0.0620896,-0.00608298,0.0398616,-0.0322083,0.0797487,-7.43468e-06,-1.3377e-05,0.0601672,-0.006064516134571596,0.0830148718376913,-7.434652362858785e-06,0.040666735948916566,-1.33769105283843e-05,-0.03169513683209557
87,179.2,204.209,613.4,-9.3588e-07,353.923,-0.0362065,-0.0623378,-0.00618102,0.0404596,-0.0327044,0.0809567,-7.56898e-06,-1.36189e-05,0.0611235,-0.006161956792790746,0.08432394432346246,-7.568951355341191e-06,0.0412892407674037,-1.3618807263249266e-05,-0.03217539373713796
88,181.9,204.707,614.899,-9.64477e-07,354.788,-0.0363482,-0.0625816,-0.00627899,0.0410571,-0.0332,0.0821637,-7.70334e-06,-1.3861e-05,0.0620789,-0.006259318336550579,0.08563351349026593,-7.70331032939886e-06,0.04191159699917124,-1.3860903936735447e-05,-0.03265492877340459
89,184.6,205.199,616.38,-9.93286e-07,355.641,-0.0364875,-0.062821,-0.00637688,0.041654,-0.0336952,0.0833695,-7.83774e-06,-1.41032e-05,0.0630335,-0.006356590850797761,0.0869433599285454,-7.837709285030137e-06,0.04253369967949383,-1.410310055038888e-05,-0.033133839464602244
90,187.3,205.685,617.841,-1.0223e-06,356.483,-0.0366243,-0.0630562,-0.00647469,0.0422503,-0.0341899,0.0845742,-7.97219e-06,-1.43454e-05,0.0639874,-0.006453774359809761,0.08825358965266417,-7.972158222124825e-06,0.04315554791023679,-1.4345297105200494e-05,-0.033612029864071746
91,190.0,206.164,619.283,-1.05152e-06,357.315,-0.0367587,-0.0632875,-0.00657243,0.042846,-0.0346843,0.0857778,-8.10668e-06,-1.45878e-05,0.0649405,-0.006550878822331296,0.08956420024040357,-8.106647140904144e-06,0.043777140793185954,-1.45876935985223e-05,-0.034089693988205494
92,192.7,206.637,620.708,-1.08094e-06,358.136,-0.0368908,-0.0635148,-0.00667009,0.0434412,-0.0351781,0.0869803,-8.24121e-06,-1.48301e-05,0.0658927,-0.006647894326161308,0.09087518926536897,-8.241176041368092e-06,0.044398581869903975,-1.4829990034659346e-05,-0.03456654275366455
93,195.4,207.105,622.115,-1.11055e-06,358.947,-0.0370208,-0.0637383,-0.00676767,0.0440358,-0.0356716,0.0881816,-8.37576e-06,-1.50726e-05,0.0668442,-0.006744820895508763,0.09218644507834584,-8.375724923403993e-06,0.04501976592640222,-1.5072486408973518e-05,-0.03504286662223377
94,198.1,207.567,623.504,-1.14036e-06,359.748,-0.0371486,-0.0639582,-0.00686518,0.0446299,-0.0361645,0.0893819,-8.51034e-06,-1.53151e-05,0.0677949,-0.006841668486142205,0.09349818355073003,-8.510303787123696e-06,0.04564079662824305,-1.531498272444587e-05,-0.035518376794166806
95,200.8,208.023,624.877,-1.17035e-06,360.54,-0.0372743,-0.0641745,-0.00696261,0.0452234,-0.0366571,0.090581,-8.64494e-06,-1.55576e-05,0.0687448,-0.006938427188704854,0.09481018367509653,-8.644902632637397e-06,0.04626156863691344,-1.5557478981187423e-05,-0.03599336344294157
96,203.5,208.474,626.234,-1.20053e-06,361.322,-0.037398,-0.0643874,-0.00705996,0.0458163,-0.0371492,0.091779,-8.77956e-06,-1.58002e-05,0.069694,-0.007035097027337289,0.09612255222694222,-8.77952145972305e-06,0.046882081053686964,-1.5800075177541117e-05,-0.036467634404850346
97,206.2,208.919,627.574,-1.23089e-06,362.094,-0.0375197,-0.0645969,-0.00715723,0.0464087,-0.0376409,0.0929759,-8.91419e-06,-1.60428e-05,0.0706423,-0.0071316780261564405,0.09743528675896784,-8.914150268712895e-06,0.047502437730008396,-1.604267131494197e-05,-0.03694128681202602
98,208.9,209.359,628.9,-1.26143e-06,362.858,-0.0376396,-0.0648032,-0.00725442,0.0470005,-0.0381321,0.0941717,-9.04883e-06,-1.62854e-05,0.0715898,-0.00722817020925548,0.09874838481973414,-9.04878905949591e-06,0.04812253314079129,-1.6285267393612024e-05,-0.037414225088794106
99,211.7,209.795,630.21,-1.29214e-06,363.613,-0.0377576,-0.0650064,-0.00735153,0.0475918,-0.0386229,0.0953663,-9.18348e-06,-1.6528e-05,0.0725365,-0.007324573600704043,0.10006173394748696,-9.183437831961072e-06,0.04874247126128006,-1.6527863413329236e-05,-0.03788654627002164
100,214.4,210.225,631.505,-1.32303e-06,364.36,-0.0378739,-0.0652065,-0.00744857,0.0481825,-0.0391132,0.0965599,-9.31813e-06,-1.67706e-05,0.0734825,-0.007420898150339084,0.10137555156349909,-9.3180865863296e-06,0.04936214644210035,-1.677045937431565e-05,-0.038358154872088934
101,217.1,210.651,632.786,-1.3541e-06,365.098,-0.0379884,-0.0654037,-0.00754552,0.0487726,-0.0396031,0.0977524,-9.45279e-06,-1.70133e-05,0.0744276,-0.0075171240296385555,0.10268972532911058,-9.452745322491296e-06,0.049981557784058106,-1.7013155274581138e-05,-0.03882914783287161
102,219.8,211.072,634.052,-1.38533e-06,365.828,-0.0381012,-0.065598,-0.0076424,0.0493622,-0.0400926,0.0989437,-9.58744e-06,-1.72559e-05,0.0753719,-0.0076132711132225195,0.10400414237595812,-9.587394040666553e-06,0.050600809447978845,-1.725575111777289e-05,-0.039299525830600035
103,222.5,211.488,635.305,-1.41673e-06,366.551,-0.0382124,-0.0657895,-0.0077392,0.0499512,-0.0405816,0.100134,-9.72208e-06,-1.74985e-05,0.0763155,-0.007709329499277939,0.10531902090133727,-9.722032740744346e-06,0.05121979559827028,-1.749834690212282e-05,-0.039769193519360035
104,225.2,211.9,636.544,-1.44829e-06,367.265,-0.038322,-0.0659783,-0.00783592,0.0505397,-0.0410702,0.101323,-9.85671e-06,-1.77411e-05,0.0772582,-0.007805299211758654,0.10663402683329481,-9.8566614228357e-06,0.05183862051935262,-1.774094262763093e-05,-0.04023824769214046
105,227.9,212.307,637.77,-1.48002e-06,367.972,-0.0384301,-0.0661645,-0.00793256,0.0511277,-0.0415583,0.102511,-9.99133e-06,-1.79837e-05,0.0782001,-0.007901180274595188,0.10794948928715598,-9.99128008682959e-06,0.052457283497308715,-1.7983538294186197e-05,-0.04070659309444824
106,230.6,212.71,638.984,-1.51191e-06,368.671,-0.0385366,-0.0663481,-0.00802912,0.0517151,-0.0420461,0.103698,-1.01259e-05,-1.82263e-05,0.0791413,-0.007996972711694639,0.10926540617310487,-1.012584873327782e-05,0.05307567851046979,-1.8226133902010666e-05,-0.0411744223055156
107,233.3,213.109,640.184,-1.54396e-06,369.363,-0.0386417,-0.0665292,-0.0081256,0.0523019,-0.0425333,0.104884,-1.02605e-05,-1.84688e-05,0.0800816,-0.008092676546940236,0.11058177539747605,-1.026044736129883e-05,0.05369380465909468,-1.8468629452761398e-05,-0.04164144835018602
108,236.0,213.504,641.372,-1.57616e-06,370.048,-0.0387454,-0.0667079,-0.008222,0.0528882,-0.0430202,0.106069,-1.03951e-05,-1.87113e-05,0.0810212,-0.008188291804191672,0.11189859486276266,-1.0395045971112182e-05,0.05431176647457048,-1.871112494467031e-05,-0.042107959547616924
109,238.7,213.895,642.548,-1.60853e-06,370.726,-0.0388478,-0.0668842,-0.00831833,0.0534739,-0.0435066,0.107253,-1.05297e-05,-1.89538e-05,0.0819599,-0.00828382842444686,0.11321586246761717,-1.0529644562939922e-05,0.05492945774942659,-1.8953620377848424e-05,-0.04257376494303722
110,241.4,214.281,643.713,-1.64105e-06,371.397,-0.0389487,-0.0670583,-0.00841457,0.0540591,-0.0439926,0.108435,-1.06642e-05,-1.91962e-05,0.0828978,-0.008379266596240775,0.1145324615738379,-1.0664143137661952e-05,0.055546983138407224,-1.9196015754174844e-05,-0.04303896104146665
111,244.1,214.664,644.865,-1.67372e-06,372.061,-0.0390484,-0.0672302,-0.00851073,0.0546438,-0.0444781,0.109617,-1.07987e-05,-1.94386e-05,0.083835,-0.008474616261479606,0.11585061782029116,-1.0798641694287348e-05,0.056164341926701944,-1.9438411071659445e-05,-0.04350345286136781
112,246.8,215.043,646.007,-1.70655e-06,372.719,-0.0391468,-0.0673998,-0.00860682,0.0552279,-0.0449632,0.110797,-1.09331e-05,-1.96809e-05,0.0847713,-0.008569887358229833,0.11716809871017242,-1.0933040233918057e-05,0.05678142772118311,-1.9680706332403375e-05,-0.04396733681223575
113,249.5,215.419,647.137,-1.73953e-06,373.371,-0.039244,-0.0675674,-0.00870282,0.0558115,-0.0454479,0.111977,-1.10676e-05,-1.99232e-05,0.0857069,-0.008665060080679798,0.11848713514509468,-1.1067538754350181e-05,0.05739834536145905,-1.9923001534416507e-05,-0.04443061355989297
114,252.2,215.791,648.256,-1.77266e-06,374.016,-0.0393399,-0.0677329,-0.00879875,0.0563945,-0.0459321,0.113155,-1.1202e-05,-2.01654e-05,0.0866416,-0.00876015428020005,0.11980548934846635,-1.120193725778762e-05,0.05801498833076457,-2.0165196679688968e-05,-0.044893188258435246
115,254.9,216.159,649.364,-1.80593e-06,374.655,-0.0394347,-0.0678964,-0.00889459,0.056977,-0.0464159,0.114332,-1.13364e-05,-2.04076e-05,0.0875755,-0.0088551501547387,0.12112427636334178,-1.1336335743239445e-05,0.05863146159187349,-2.0407391766341654e-05,-0.04535515717466421
116,257.6,216.524,650.462,-1.83936e-06,375.288,-0.0395284,-0.068058,-0.00899035,0.0575589,-0.0468993,0.115508,-1.14707e-05,-2.06497e-05,0.0885087,-0.008950057641316955,0.12244349406031385,-1.1470634211807607e-05,0.059247658504477885,-2.064948679636469e-05,-0.04581652097107225
117,260.3,216.885,651.55,-1.87293e-06,375.915,-0.0396209,-0.0682176,-0.00908604,0.0581404,-0.0473822,0.116683,-1.1605e-05,-2.08918e-05,0.089441,-0.009044886673133856,0.12376314030617608,-1.1604932662279133e-05,0.05986379014080989,-2.0891581767878975e-05,-0.046277184936828863
118,263.0,217.243,652.628,-1.90665e-06,376.536,-0.0397124,-0.0683755,-0.00918164,0.0587212,-0.0478647,0.117857,-1.17393e-05,-2.11337e-05,0.0903726,-0.00913961745376446,0.12508321296392677,-1.1739231094654023e-05,0.060479537825942176,-2.1133476684975783e-05,-0.0467372451966338
119,265.8,217.598,653.696,-1.94051e-06,377.151,-0.0398028,-0.0685315,-0.00927717,0.0593016,-0.0483468,0.11903,-1.18735e-05,-2.13756e-05,0.0913033,-0.009234269824966557,0.12640370989277305,-1.1873429510256273e-05,0.0610952188030327,-2.1375371543452815e-05,-0.04719670240966434
120,268.5,217.95,654.754,-1.97452e-06,377.761,-0.0398921,-0.0686858,-0.00937262,0.0598814,-0.0488284,0.120202,-1.20077e-05,-2.16175e-05,0.0922333,-0.009328833900769551,0.1277246289481344,-1.2007627907872909e-05,0.06171062019851914,-2.1617266343532116e-05,-0.04765546199960757
121,270.5,218.213,655.547,-2.12796e-06,378.218,-0.0399589,-0.068801,-0.00944468,0.0603191,-0.0491921,0.121087,-1.2109e-05,-2.18001e-05,0.0929354,-0.009400219092959294,0.12872310700612477,-1.2108926686349442e-05,0.06217543265376513,-2.1799862379490165e-05,-0.0480017667287459
