,Time,S11,S22,S33,S12,S13,S23,LE11,LE22,LE33,LE12,LE13,LE23,SDV_EPBAR,E11,E12,E13,E22,E23,E33
0,0.0002705,0.000519365,0.0015581,-7.79048e-12,0.000899567,2.21372e-21,3.68811e-20,2.50301e-10,6.7501e-09,-3.0004e-09,1.1258e-08,2.76762e-26,4.61603e-25,0.0,2.5030089112476617e-10,1.1258000087721598e-08,0.0,6.750100034480511e-09,0.0,-3.0004000395322805e-09
1,0.000541,0.00103873,0.00311619,4.33681e-19,0.00179913,-3.08331e-20,-2.03577e-20,5.00425e-10,1.35001e-08,-6.00057e-09,2.25162e-08,-1.63975e-24,4.6912e-25,0.0,5.00425034744012e-10,2.2516200237632233e-08,0.0,1.3500100148888805e-08,0.0,-6.000569929831556e-09
2,0.00094675,0.00181778,0.00545333,6.50521e-19,0.00314848,1.87371e-20,6.55005e-20,8.75688e-10,2.36252e-08,-1.05009e-08,3.94034e-08,-1.73568e-24,1.95724e-24,0.0,8.756879665838824e-10,3.9403400764470575e-08,0.0,2.3625200240573463e-08,0.0,-1.0500899927379237e-08
3,0.0015554,0.00298635,0.00895905,1.73472e-18,0.00517251,4.73565e-20,4.89771e-20,1.4375e-09,3.88125e-08,-1.725e-08,6.47354e-08,4.1359e-25,7.16359e-25,0.0,1.4374998968946784e-09,6.473540214990692e-08,0.0,3.8812500768869995e-08,0.0,-1.7249999872959165e-08
4,0.0024683,0.00473921,0.0142176,0.0,0.00820854,1.00168e-19,-5.78319e-20,2.28125e-09,6.15937e-08,-2.7375e-08,1.02732e-07,-7.41318e-35,-1.284e-34,0.0,2.281250077729169e-09,1.027320053470504e-07,0.0,6.159370191660685e-08,0.0,-2.7374999600482397e-08
5,0.0038377,0.00736849,0.0221055,-8.67362e-19,0.0127626,9.88226e-21,-8.20239e-20,3.54688e-09,9.57656e-08,-4.25625e-08,1.59728e-07,7.653e-32,1.32554e-31,0.0,3.5468799008953056e-09,1.597280128162737e-07,0.0,9.576560455748506e-08,0.0,-4.256249908074494e-08
6,0.0058918,0.0113124,0.0339373,-6.07153e-18,0.0195937,-4.73565e-20,-4.89771e-20,5.44671e-09,1.47024e-07,-6.53456e-08,2.45219e-07,-1.14621e-23,6.61761e-24,0.0,5.446709971934638e-09,2.452190299706558e-07,0.0,1.4702401074373483e-07,0.0,-6.534559782167548e-08
7,0.008973,0.0172283,0.0516849,7.80626e-18,0.0298403,6.7121e-20,-1.15071e-19,8.29297e-09,2.2391e-07,-9.95156e-08,3.7346e-07,1.78232e-31,3.08708e-31,0.0,8.292970088419338e-09,3.734600697580248e-07,0.0,2.2391002496569e-07,0.0,-9.951559509779884e-08
8,0.013595,0.0261021,0.0783064,9.54098e-18,0.0452102,-1.3116e-19,-4.58503e-19,1.25671e-08,3.39241e-07,-1.50777e-07,5.65816e-07,2.77687e-23,-3.13146e-23,0.0,1.2567100027283118e-08,5.658161601473921e-07,0.0,3.392410574676319e-07,0.0,-1.5077698867216327e-07
9,0.020527,0.0394129,0.118239,6.07153e-18,0.0682651,-4.56883e-19,3.48265e-20,1.89735e-08,5.12236e-07,-2.27663e-07,8.54355e-07,1.1462e-23,-6.61759e-24,0.0,1.8973500104380037e-08,8.543553648987512e-07,0.0,5.122361312892565e-07,0.0,-2.276629741393421e-07
10,0.030926,0.059379,0.178137,-8.67362e-19,0.102847,-1.54031e-18,-2.55477e-19,2.8587e-08,7.71729e-07,-3.42996e-07,1.28716e-06,-2.95414e-23,1.77334e-24,0.0,2.858700032248862e-08,1.2871608283671065e-06,0.0,7.717292977993395e-07,0.0,-3.429959412049044e-07
11,0.046525,0.0893282,0.267985,-4.94396e-17,0.154721,-5.5365e-19,3.95969e-19,4.30043e-08,1.16097e-06,-5.15992e-07,1.93637e-06,-9.16942e-23,5.29396e-23,0.0,4.300430100911967e-08,1.9363718748444114e-06,0.0,1.1609706738191505e-06,0.0,-5.159918669006558e-07
12,0.069922,0.134252,0.402756,-2.1684e-17,0.232531,2.20493e-19,-2.49317e-18,6.46307e-08,1.74483e-06,-7.75487e-07,2.91018e-06,-5.29397e-23,-9.16942e-23,0.0,6.463070212348043e-08,2.910184234483637e-06,0.0,1.744831522154655e-06,0.0,-7.754866993003873e-07
13,0.105,0.201637,0.604912,1.99493e-17,0.349246,-1.22407e-18,-2.88023e-18,9.70596e-08,2.62061e-06,-1.16471e-06,4.37091e-06,-1.05879e-22,-1.83388e-22,0.0,9.705960479777787e-08,4.370919552521002e-06,0.0,2.62061343381248e-06,0.0,-1.1647093217659332e-06
14,0.1577,0.302715,0.908146,-9.1073e-17,0.524319,2.72256e-18,-2.74454e-19,1.45719e-07,3.93429e-06,-1.74858e-06,6.56199e-06,1.03982e-22,-2.43423e-22,0.0,1.4571901063575865e-07,6.562011529931411e-06,0.0,3.934297739371928e-06,0.0,-1.748578471238993e-06
15,0.2366,0.454332,1.363,-7.80626e-18,0.786926,-1.38381e-17,-7.8084e-18,2.18705e-07,5.90479e-06,-2.62436e-06,9.8486e-06,-2.11758e-22,-3.66776e-22,0.0,2.1870502386889257e-07,9.848648497623458e-06,0.0,5.904807433232406e-06,0.0,-2.624356556402141e-06
16,0.3551,0.681756,2.04527,4.77049e-17,1.18084,-5.94481e-18,-2.59681e-18,3.28182e-07,8.86055e-06,-3.93804e-06,1.47785e-05,5.57568e-28,9.65736e-28,0.0,3.281820537548441e-07,1.4778609202625859e-05,0.0,8.860589254755524e-06,0.0,-3.938032245964784e-06
17,0.5328,1.02289,3.06867,7.13839e-16,1.7717,-5.94479e-18,-2.59677e-18,4.92389e-07,1.32942e-05,-5.90853e-06,2.21733e-05,8.36561e-28,1.44897e-27,0.0,4.923891212538223e-07,2.2173545829451413e-05,0.0,1.3294288368159712e-05,0.0,-5.908512544672284e-06
18,0.7993,1.53459,4.60377,-2.85362e-16,2.65799,-3.98145e-18,-3.30361e-17,7.38697e-07,1.99445e-05,-8.86424e-06,3.32654e-05,7.35553e-27,1.27402e-26,0.0,7.38697272906208e-07,3.326595329955495e-05,0.0,1.9944698892881974e-05,0.0,-8.864200712777048e-06
19,1.199,2.30213,6.90638,-1.61763e-15,3.9874,2.21215e-18,-5.61484e-17,1.10814e-06,2.99199e-05,-1.32977e-05,4.99034e-05,-4.23505e-22,-7.33532e-22,0.0,1.1081406139368255e-06,4.990464519538662e-05,0.0,2.992034760462836e-05,0.0,-1.3297611585971758e-05
20,1.799,3.45341,10.3602,-3.17194e-15,5.98148,6.53581e-17,-1.44564e-17,1.66234e-06,4.48827e-05,-1.99479e-05,7.48599e-05,-1.09041e-26,-1.88864e-26,0.0,1.6623413816585497e-06,7.486270207235357e-05,0.0,4.4883707243537074e-05,0.0,-1.994770104196686e-05
21,2.698,5.18029,15.5409,-2.8485e-14,8.97252,-6.87866e-17,2.39178e-17,2.49357e-06,6.73263e-05,-2.99228e-05,0.000112294,-4.23518e-22,-7.33555e-22,0.0,2.4935731088859825e-06,0.00011230030520725798,0.0,6.732856646629592e-05,0.0,-2.9922352317468537e-05
22,4.047,31.1929,93.5787,-1.03264e-09,54.0277,-8.08225e-16,-1.7395e-16,1.5015e-05,0.000405403,-0.000180179,0.000676171,-3.02527e-20,1.82072e-21,0.0,1.5015112725613733e-05,0.0006763996551444329,0.0,0.00040548518690219915,0.0,-0.00018016276873877857
23,6.071,70.3658,211.097,-9.04826e-07,121.877,1.29847e-16,-7.14917e-16,3.38711e-05,0.000914519,-0.000406453,0.00152533,-2.03309e-20,-3.52142e-20,0.0,3.3871673632113186e-05,0.0015264939075101402,0.0,0.0009149373000056915,0.0,-0.00040637040916957634
24,8.776,121.138,363.432,0.000245603,209.823,-0.000392481,-0.000679601,5.549e-05,0.00159316,-0.000715649,0.00266347,-4.9914e-09,-8.6491e-09,3.01044e-05,5.549153959849562e-05,0.002667020187460123,-4.991399960019294e-09,0.001594429753610127,-8.64909999176433e-09,-0.0007153929843304319
25,11.48,127.038,381.455,0.124862,220.254,-0.00740996,-0.0128055,-2.68254e-05,0.00223461,-0.00122848,0.0039237,-1.34181e-07,-2.35254e-07,0.000937506,-2.6825040202127504e-05,0.0039314077885646,-1.3418099098494451e-07,0.0022371086017130004,-2.3525397230272915e-07,-0.001227725727345974
26,14.19,132.013,396.281,0.000294859,228.723,-0.0134628,-0.0232777,-0.000110354,0.00287498,-0.00174744,0.00518416,-2.83824e-07,-5.00095e-07,0.00186504,-0.00011034791122133125,0.005197621008741216,-2.838239596680836e-07,0.0028791167183779276,-5.000948749556144e-07,-0.001745914115649616
27,16.89,136.186,408.884,-9.46027e-06,235.975,-0.0183467,-0.0317101,-0.000195996,0.00351396,-0.00226847,0.00644593,-4.43917e-07,-7.84745e-07,0.0028059,-0.00019597679403871027,0.006466749716888431,-4.4391690146028395e-07,0.003520141195477944,-7.847446921172008e-07,-0.0022658989664011697
28,19.6,139.825,419.877,9.20103e-06,242.301,-0.0225025,-0.0388804,-0.000282796,0.00415188,-0.00279141,0.00770788,-6.15316e-07,-1.09049e-06,0.00375626,-0.00028275601698024566,0.0077376621770208764,-6.153158107480294e-07,0.0041605109945843655,-1.0904894054419856e-06,-0.002787517637674597
29,22.3,143.059,429.643,4.23145e-06,247.92,-0.0261019,-0.0450872,-0.000370461,0.00478884,-0.00331568,0.00896964,-7.96691e-07,-1.41475e-06,0.00471359,-0.00037039238779679184,0.009009987765617566,-7.966906826473164e-07,0.004800324819942636,-1.4147489992843987e-06,-0.0033101892033201574
30,25.01,145.972,438.44,1.89097e-06,252.982,-0.0292646,-0.0505383,-0.000458788,0.00542493,-0.00384089,0.010231,-9.86878e-07,-1.75532e-06,0.00567623,-0.00045868277287841597,0.010283515623483064,-9.868775130428276e-07,0.0054396715780395954,-1.7553184594731874e-06,-0.003833523216690171
31,27.71,148.626,446.454,7.46986e-07,257.594,-0.0320769,-0.0553832,-0.000547636,0.00606018,-0.00436676,0.0114918,-1.18488e-06,-2.11029e-06,0.00664296,-0.000547486074775061,0.011558084399297952,-1.1848792980106992e-06,0.006078580041224857,-2.1102877733047976e-06,-0.004357239566408766
32,30.42,151.065,453.82,1.65719e-07,261.833,-0.0346023,-0.0597324,-0.0006369,0.00669464,-0.00489307,0.0127519,-1.38983e-06,-2.47806e-06,0.0076129,-0.000636697222247018,0.012833552181154229,-1.3898290341929354e-06,0.00671709919312935,-2.4780569296556365e-06,-0.004881118434216125
33,33.12,153.324,460.64,-1.36335e-07,265.758,-0.0368892,-0.0636694,-0.0007265,0.00732833,-0.00541968,0.0140112,-1.60099e-06,-2.85725e-06,0.00858539,-0.0007262361627714542,0.014109816904837036,-1.60098871837544e-06,0.007355247924597075,-2.8572459180864485e-06,-0.0054050200304203155
34,35.83,155.429,466.995,-2.95563e-07,269.416,-0.038975,-0.0672591,-0.000816375,0.00796127,-0.00594646,0.0152697,-1.81773e-06,-3.24666e-06,0.0095599,-0.0008160418565924532,0.015386877531257781,-1.817728347952574e-06,0.00799304517762267,-3.2466547296161608e-06,-0.005928814799551874
35,38.53,157.401,472.948,-3.80954e-07,272.841,-0.0408891,-0.0705524,-0.000906474,0.00859349,-0.00647332,0.0165272,-2.0395e-06,-3.64528e-06,0.010536,-0.0009060632765564014,0.01666452968518195,-2.039497920214295e-06,0.008630520031587707,-3.6452733559455552e-06,-0.006452413200548013
36,41.24,159.256,478.549,-4.28754e-07,276.065,-0.0426551,-0.0735903,-0.000996759,0.009225,-0.00700019,0.0177839,-2.26581e-06,-4.05222e-06,0.0115134,-0.000996262400758341,0.017942975142587025,-2.265807433010636e-06,0.009267681457023391,-4.052211789784543e-06,-0.006975745741391148
37,43.94,161.009,483.841,-4.58535e-07,279.111,-0.0442923,-0.0764059,-0.0010872,0.0098558,-0.00752699,0.0190395,-2.49624e-06,-4.46669e-06,0.0124919,-0.0010866092122008286,0.019221907087627832,-2.496236884419467e-06,0.009904528350879627,-4.466680024406422e-06,-0.007498733151555803
38,46.65,162.671,488.857,-4.81044e-07,281.998,-0.0458163,-0.0790264,-0.00117776,0.0104859,-0.00805368,0.0202941,-2.73043e-06,-4.88803e-06,0.0134711,-0.0011770667128929713,0.020501425366243886,-2.7304262724126005e-06,0.010541069715489959,-4.888018053650356e-06,-0.0080213360068625
39,49.35,164.251,493.627,-5.02214e-07,284.743,-0.0472403,-0.0814746,-0.00126843,0.0111153,-0.00858022,0.0215477,-2.96806e-06,-5.31562e-06,0.0144509,-0.001267625882692358,0.021781528153868912,-2.9680555952982246e-06,0.011177304466841953,-5.3156058721359756e-06,-0.008543514966482313
40,52.06,165.757,498.175,-5.25288e-07,287.361,-0.0485754,-0.0837695,-0.00135918,0.0117441,-0.00910656,0.0228002,-3.20882e-06,-5.74894e-06,0.0154312,-0.0013582567332064421,0.02306211131567637,-3.2088148517184223e-06,0.011813332702211188,-5.748923474824252e-06,-0.009065220863429868
41,54.76,167.198,502.523,-5.51981e-07,289.863,-0.0498308,-0.0859272,-0.00145,0.0123722,-0.00963269,0.0240517,-3.45246e-06,-6.18751e-06,0.0164117,-0.0014489492579200514,0.024343275068987813,-3.452454040320241e-06,0.012449052283316275,-6.187490857345601e-06,-0.009586444251122983
42,57.47,168.577,506.688,-5.83127e-07,292.261,-0.0510146,-0.0879615,-0.00154087,0.0129996,-0.0101586,0.0253021,-3.69875e-06,-6.6309e-06,0.0173925,-0.0015396834693295336,0.025624915014440974,-3.69874315964136e-06,0.013084462125943164,-6.6308780156676406e-06,-0.010107175703285787
43,60.17,169.902,510.686,-6.19059e-07,294.562,-0.0521336,-0.0898842,-0.00163179,0.0136264,-0.0106842,0.0265514,-3.94747e-06,-7.07873e-06,0.0183734,-0.0016304593545742874,0.026907028926468568,-3.9474622087753986e-06,0.013719662517810205,-7.078704945873149e-06,-0.010627326664089165
44,62.88,171.176,514.531,-6.59818e-07,296.775,-0.0531937,-0.0917056,-0.00172274,0.0142525,-0.0112095,0.0277996,-4.19845e-06,-7.53066e-06,0.0193542,-0.001721256935213411,0.02818961457515523,-4.198441186487045e-06,0.014354551129653004,-7.530631644603325e-06,-0.011146907649498883
45,65.58,172.403,518.235,-7.05288e-07,298.907,-0.0542001,-0.0934347,-0.00181371,0.014878,-0.0117345,0.0290466,-4.45151e-06,-7.98637e-06,0.020335,-0.0018120662219468509,0.02947256677897947,-4.451500092095273e-06,0.01498922837600003,-7.986338109056135e-06,-0.011665919270511305
46,68.29,173.587,521.808,-7.55263e-07,300.963,-0.0551574,-0.0950792,-0.00190469,0.0155028,-0.0122592,0.0302926,-4.7065e-06,-8.44558e-06,0.0213157,-0.0019028772291067586,0.030756089065513192,-4.706488924477448e-06,0.015623591800386416,-8.445544336210808e-06,-0.012184362137289684
47,70.99,174.73,525.26,-8.09499e-07,302.95,-0.0560696,-0.0966461,-0.00199568,0.016127,-0.0127835,0.0315374,-4.96327e-06,-8.90804e-06,0.0222961,-0.001993689954720046,0.03203997316886342,-4.9632576829550246e-06,0.016257741944058157,-8.908000323493148e-06,-0.012702138129383922
48,73.7,175.837,528.599,-8.67741e-07,304.873,-0.0569402,-0.0981415,-0.00208666,0.0167505,-0.0133075,0.0327811,-5.22169e-06,-9.3735e-06,0.0232763,-0.002084484438504397,0.033324319788887946,-5.221676366962136e-06,0.016891576223463156,-9.373456068884067e-06,-0.013219346688526978
49,76.4,176.908,531.834,-9.29731e-07,306.734,-0.0577723,-0.0995709,-0.00217765,0.0173734,-0.0138311,0.0340237,-5.48165e-06,-9.84176e-06,0.0242562,-0.002175280640429378,0.03460912667385774,-5.481634975823546e-06,0.01752519530646901,-9.84171157003555e-06,-0.013735889795814415
50,79.11,177.947,534.97,-9.95222e-07,308.54,-0.0585689,-0.100939,-0.00226862,0.0179957,-0.0143544,0.0352651,-5.74304e-06,-1.03126e-05,0.0252358,-0.002266048626505035,0.0358942879782882,-5.743023508752998e-06,0.01815859829840827,-1.031254682537508e-05,-0.014251866787529544
51,81.81,178.956,538.014,-1.06398e-06,310.292,-0.0593323,-0.10225,-0.00235957,0.0186173,-0.0148773,0.0365054,-6.00575e-06,-1.07859e-05,0.026215,-0.0023567884029287445,0.03717990477411348,-6.005731965519345e-06,0.018791682425272294,-1.0785841832339216e-05,-0.014767179746071668
52,84.52,179.936,540.972,-1.1358e-06,311.994,-0.060065,-0.103509,-0.0024505,0.0192383,-0.0153998,0.0377445,-6.2697e-06,-1.12614e-05,0.0271938,-0.0024474999758951066,0.03846587094992726,-6.269680345449835e-06,0.019424548544650255,-1.1261336590684401e-05,-0.015281829430715654
53,87.22,180.889,543.848,-1.21047e-06,313.65,-0.0607689,-0.104718,-0.00254141,0.0198587,-0.0159219,0.0389825,-6.5348e-06,-1.1739e-05,0.0281721,-0.0025381833515968344,0.039752287825907784,-6.534778648203954e-06,0.02005719576144216,-1.1738931098181915e-05,-0.015795816599543988
54,89.93,181.817,546.648,-1.28781e-06,315.261,-0.0614458,-0.10588,-0.00263229,0.0204785,-0.0164436,0.0402194,-6.80097e-06,-1.22185e-05,0.02915,-0.002628828562513119,0.04103915312849926,-6.800946873442015e-06,0.020689623180386807,-1.2218425354482143e-05,-0.016309142009447997
55,92.63,182.72,549.375,-1.36765e-06,316.831,-0.0620976,-0.107,-0.00272314,0.0210976,-0.0169649,0.0414551,-7.06813e-06,-1.26998e-05,0.0301273,-0.002719435617550503,0.04232636034720816,-7.0681050208243335e-06,0.021321727773884858,-1.2699719357911476e-05,-0.01682180641613107
56,95.34,183.601,552.033,-1.44985e-06,318.361,-0.0627256,-0.108078,-0.00281396,0.0217162,-0.0174858,0.0426896,-7.33622e-06,-1.31828e-05,0.0311042,-0.0028100045256111983,0.04361390681359589,-7.336193090012877e-06,0.021953712847515794,-1.3182713107240396e-05,-0.017333810574108877
57,98.04,184.46,554.627,-1.53426e-06,319.854,-0.0633314,-0.109119,-0.00290474,0.0223341,-0.0180063,0.043923,-7.60517e-06,-1.36674e-05,0.0320804,-0.002900525324599168,0.04490189434488823,-7.605141080779809e-06,0.022585373178046098,-1.3667306601461426e-05,-0.01784515523671215
58,100.7,185.299,557.158,-1.62076e-06,321.311,-0.0639162,-0.110123,-0.00299548,0.0229514,-0.0185263,0.0451552,-7.87493e-06,-1.41535e-05,0.0330562,-0.002990998026122793,0.046190216031084086,-7.874898992787926e-06,0.023216810001833288,-1.4153399839678116e-05,-0.018355742991667534
59,103.5,186.119,559.631,-1.70923e-06,322.735,-0.0644811,-0.111094,-0.00308618,0.0235681,-0.019046,0.0463863,-8.14543e-06,-1.46409e-05,0.0340313,-0.00308142264178346,0.047478973938198665,-8.145396826031437e-06,0.02384802242290629,-1.464079282254005e-05,-0.018865770969785367
60,106.2,186.919,562.048,-1.79956e-06,324.126,-0.0650274,-0.112032,-0.00317683,0.0241841,-0.0195652,0.0476163,-8.41663e-06,-1.51295e-05,0.0350059,-0.0031717892148941385,0.048768165766582605,-8.416594580284986e-06,0.024478907097249092,-1.5129385549705887e-05,-0.01937504364287157
61,108.9,187.703,564.412,-1.89165e-06,325.487,-0.0655559,-0.11294,-0.00326744,0.0247996,-0.020084,0.0488451,-8.68848e-06,-1.56194e-05,0.0359798,-0.0032621077271314247,0.05005768420654677,-8.68844225521137e-06,0.02510966796131031,-1.5619278017853233e-05,-0.019883659923758512
62,111.6,188.469,566.725,-1.98542e-06,326.818,-0.0660676,-0.113819,-0.003358,0.0254145,-0.0206024,0.0500727,-8.96093e-06,-1.61103e-05,0.0369531,-0.003352368223598634,0.051347526562934176,-8.960889851028497e-06,0.025740201733880808,-1.6110170229843845e-05,-0.020391620559681467
63,114.3,189.219,568.989,-2.08078e-06,328.122,-0.0665633,-0.11467,-0.00344851,0.0260287,-0.0211203,0.0512992,-9.23393e-06,-1.66023e-05,0.0379258,-0.003442570718575233,0.05263779539988178,-9.233887367399163e-06,0.026370404881360887,-1.6602162182577374e-05,-0.02089882838658974
64,117.0,189.954,571.207,-2.17767e-06,329.398,-0.0670439,-0.115496,-0.00353897,0.0266424,-0.0216378,0.0525245,-9.50745e-06,-1.70951e-05,0.0388978,-0.003532715226330474,0.053928383007613157,-9.507404804320885e-06,0.027000481718138403,-1.709495387958171e-05,-0.021405382160805897
65,119.7,190.674,573.381,-2.276e-06,330.65,-0.0675101,-0.116297,-0.00362938,0.0272554,-0.0221549,0.0537487,-9.78145e-06,-1.75889e-05,0.0398691,-0.0036228017611236174,0.05521939219958494,-9.781402161790353e-06,0.027630226010337378,-1.7588745316210463e-05,-0.02191128262585229
66,122.4,191.38,575.512,-2.37572e-06,331.876,-0.0679625,-0.117074,-0.00371974,0.0278679,-0.0226715,0.0549718,-1.00559e-05,-1.80835e-05,0.0408398,-0.003712830337204376,0.05651082065025825,-1.0055849439583042e-05,0.028259842324081186,-1.808333649444549e-05,-0.022416432765732464
67,125.1,192.073,577.602,-2.47676e-06,333.079,-0.0684019,-0.117829,-0.00381004,0.0284797,-0.0231877,0.0561937,-1.03307e-05,-1.85788e-05,0.0418098,-0.0038027910068394455,0.05780256024960062,-1.0330646638467833e-05,0.028889124173304248,-1.8578627415166693e-05,-0.02292093118089511
68,127.8,192.753,579.652,-2.57907e-06,334.26,-0.0688288,-0.118563,-0.00390029,0.029091,-0.0237035,0.0574144,-1.0606e-05,-1.90748e-05,0.0427791,-0.003892693748028919,0.05909460827596935,-1.0605943756569758e-05,0.029518276375689823,-1.9074618077152827e-05,-0.023424778611169095
69,130.5,193.42,581.665,-2.68261e-06,335.419,-0.0692437,-0.119276,-0.00399047,0.0297016,-0.0242188,0.058634,-1.08816e-05,-1.95714e-05,0.0437477,-0.003982518654640832,0.060387068041985126,-1.0881540795648625e-05,0.030147092193177016,-1.957120848139482e-05,-0.02392787818801223
70,133.2,194.075,583.642,-2.78731e-06,336.556,-0.0696472,-0.11997,-0.00408061,0.0303117,-0.0247336,0.0598524,-1.11574e-05,-2.00686e-05,0.0447155,-0.004072295624100497,0.061679831036978605,-1.1157337756473318e-05,0.030775776694830448,-2.006839862700449e-05,-0.024430230799664554
71,135.9,194.718,585.584,-2.89314e-06,337.674,-0.0700398,-0.120644,-0.00417068,0.0309212,-0.0252481,0.0610697,-1.14336e-05,-2.05663e-05,0.0456827,-0.004161994792770907,0.06297300082340329,-1.1433534636617892e-05,0.031404226031206184,-2.056608851508379e-05,-0.024932032346400734
72,138.6,195.35,587.492,-3.00006e-06,338.773,-0.070422,-0.121301,-0.00426069,0.03153,-0.025762,0.0622859,-1.17101e-05,-2.10645e-05,0.0466492,-0.0042516261377003595,0.06426657505004374,-1.1710031437073276e-05,0.03203233610131906,-2.1064278144966586e-05,-0.025432991042615982
73,141.3,195.972,589.368,-3.10803e-06,339.852,-0.0707941,-0.121941,-0.00435064,0.0321383,-0.0262756,0.0635009,-1.19867e-05,-2.15632e-05,0.0476149,-0.004341189675748813,0.06556044480543566,-1.1986628159821322e-05,0.03266031235098166,-2.156296751587572e-05,-0.025933400142359564
74,144.0,196.583,591.212,-3.21701e-06,340.914,-0.0711566,-0.122564,-0.00444053,0.032746,-0.0267886,0.0647148,-1.22636e-05,-2.20622e-05,0.0485799,-0.004430685423762237,0.06685471402715804,-1.2263524802325065e-05,0.033288050741788755,-2.206195663145838e-05,-0.026432968157934722
75,146.7,197.184,593.026,-3.32697e-06,341.958,-0.0715099,-0.123172,-0.00453036,0.0333531,-0.0273013,0.0659276,-1.25407e-05,-2.25616e-05,0.0495441,-0.004520113398572834,0.06814938035129692,-1.2540621365797477e-05,0.033915550375635206,-2.2561345489058304e-05,-0.026931988040482135
76,149.4,197.775,594.812,-3.43788e-06,342.986,-0.0718543,-0.123764,-0.00462013,0.0339596,-0.0278134,0.0671391,-1.2818e-05,-2.30613e-05,0.0505076,-0.004609473616999704,0.06944422752089152,-1.2817917849794469e-05,0.034542810354298625,-2.3061034090221533e-05,-0.027430168599387406
77,152.1,198.358,596.568,-3.5497e-06,343.997,-0.0721901,-0.124342,-0.00470983,0.0345656,-0.0283252,0.0683496,-1.30954e-05,-2.35613e-05,0.0514704,-0.004698756142835214,0.07073957360835115,-1.3095314255640034e-05,0.03516993329643281,-2.356102243472602e-05,-0.02792780248372484
78,154.8,198.931,598.298,-3.66241e-06,344.993,-0.0725178,-0.124905,-0.00479947,0.0351709,-0.0288365,0.0695589,-1.3373e-05,-2.40616e-05,0.0524324,-0.004787970947667253,0.07203520221866055,-1.3372910581788133e-05,0.035796711332292785,-2.4061310522016655e-05,-0.028424695956673296
79,157.6,199.495,600.001,-3.77599e-06,345.973,-0.0728375,-0.125455,-0.00488905,0.0357757,-0.0293473,0.0707671,-1.36506e-05,-2.4562e-05,0.0533936,-0.0048771180482715115,0.07333121791540864,-1.3650506830997777e-05,0.03642335065993785,-2.456169835651778e-05,-0.02892084989347532
80,160.3,200.051,601.678,-3.89041e-06,346.939,-0.0731496,-0.125992,-0.00497856,0.0363799,-0.0298577,0.0719742,-1.39284e-05,-2.50627e-05,0.0543541,-0.004966187511071696,0.07462761831360054,-1.3928303000287912e-05,0.03704974686364415,-2.506238593313892e-05,-0.029416362226185266
81,163.0,200.598,603.331,-4.00563e-06,347.89,-0.0734544,-0.126517,-0.005068,0.0369835,-0.0303676,0.0731801,-1.42062e-05,-2.55635e-05,0.0553138,-0.005055179355486161,0.07592429343165241,-1.4206099092417546e-05,0.03767589904456847,-2.556317325652646e-05,-0.02991113666962164
82,165.7,201.138,604.96,-4.12166e-06,348.828,-0.0737521,-0.127029,-0.00515738,0.0375865,-0.0308771,0.0743849,-1.44842e-05,-2.60644e-05,0.0562728,-0.005144103549473811,0.07722134820928273,-1.4484095104516648e-05,0.03830180630376545,-2.606406032645836e-05,-0.030405271054064875
83,168.4,201.67,606.565,-4.23845e-06,349.752,-0.0740429,-0.12753,-0.00524669,0.038189,-0.0313861,0.0755886,-1.47621e-05,-2.65654e-05,0.057231,-0.00523295016208114,0.07851878024894199,-1.4761991040779243e-05,0.03892757163493976,-2.6565047142934617e-05,-0.03089866919062001
84,171.1,202.195,608.148,-4.356e-06,350.663,-0.0743272,-0.128019,-0.00533594,0.0387909,-0.0318947,0.0767912,-1.50401e-05,-2.70665e-05,0.0581884,-0.005321729159457722,0.0798165871489458,-1.5039986898224278e-05,0.03955309037128618,-2.7066133705622164e-05,-0.03139142880807699
85,173.8,202.712,609.709,-4.47427e-06,351.561,-0.0746051,-0.128497,-0.00542512,0.0393922,-0.0324028,0.0779926,-1.53181e-05,-2.75676e-05,0.0591451,-0.005410430612394657,0.08111465839201015,-1.5317982678508812e-05,0.04017836161348565,-2.7567220017177263e-05,-0.03188345381356161
86,176.5,203.222,611.248,-4.59327e-06,352.447,-0.0748768,-0.128965,-0.00551423,0.0399929,-0.0329105,0.0791929,-1.55962e-05,-2.80688e-05,0.0601009,-0.005499054540225035,0.0824130994199701,-1.5596078379864764e-05,0.04080338446212495,-2.8068406074943653e-05,-0.03237484183465611
87,179.2,203.725,612.767,-4.71296e-06,353.322,-0.0751426,-0.129423,-0.00560327,0.0405931,-0.0334177,0.0803921,-1.58742e-05,-2.85699e-05,0.061056,-0.005587600962263517,0.08371190781866122,-1.5874074005606253e-05,0.04142826216051776,-2.8569491884344878e-05,-0.03286549687424112
88,181.9,204.222,614.266,-4.83333e-06,354.184,-0.0754026,-0.129871,-0.00569224,0.0411927,-0.0339245,0.0815901,-1.61522e-05,-2.9071e-05,0.0620103,-0.005676069897807001,0.08501097266870428,-1.6152069553965198e-05,0.042052889791158954,-2.9070577442613654e-05,-0.03335551645897428
89,184.6,204.712,615.745,-4.95437e-06,355.036,-0.075657,-0.130309,-0.00578115,0.0417917,-0.0344308,0.0827871,-1.64302e-05,-2.95721e-05,0.0629638,-0.0057644713084894494,0.08631050841997068,-1.643006502505262e-05,0.0426772664542856,-2.9571662749749983e-05,-0.03384480468722406
90,187.3,205.196,617.205,-5.07606e-06,355.876,-0.075906,-0.130738,-0.00586999,0.0423901,-0.0349367,0.0839829,-1.67081e-05,-3.00731e-05,0.0639166,-0.0058527952694498175,0.0876102955137581,-1.670796042052558e-05,0.04330139125004684,-3.0072647808854214e-05,-0.03433345898500617
91,190.0,205.673,618.646,-5.19839e-06,356.706,-0.0761497,-0.131158,-0.00595876,0.042988,-0.0354421,0.0851776,-1.6986e-05,-3.05741e-05,0.0648685,-0.0059410417999336,0.08891044002048698,-1.6985855738727018e-05,0.043925367671037385,-3.057363261693702e-05,-0.0348213835459128
92,192.7,206.145,620.069,-5.32134e-06,357.525,-0.0763884,-0.131569,-0.00604746,0.0435853,-0.035947,0.0863712,-1.72638e-05,-3.10749e-05,0.0658197,-0.00602921091916786,0.0902109395053885,-1.7263650981425016e-05,0.04454909054944145,-3.107441718031012e-05,-0.03530857922646102
93,195.4,206.611,621.475,-5.44491e-06,358.335,-0.0766222,-0.131972,-0.00613609,0.0441821,-0.0364516,0.0875637,-1.75416e-05,-3.15756e-05,0.06677,-0.0061173026463614555,0.09151179152961086,-1.7541446147073536e-05,0.04517266350234239,-3.157510149598419e-05,-0.035795239722614114
94,198.1,207.071,622.864,-5.56907e-06,359.134,-0.0768512,-0.132367,-0.00622465,0.0447783,-0.0369556,0.0887551,-1.78193e-05,-3.20762e-05,0.0677196,-0.006205317000705923,0.09281299365022821,-1.7819141237218616e-05,0.04579598123687578,-3.207568556418128e-05,-0.03628107648064671
95,200.8,207.525,624.236,-5.69382e-06,359.924,-0.0770755,-0.132754,-0.00631314,0.0453739,-0.0374592,0.0899453,-1.80969e-05,-3.25767e-05,0.0686684,-0.006293254001374593,0.09411443400879582,-1.80967362520823e-05,0.046419042852630765,-3.25761693850124e-05,-0.03676628314523833
96,203.5,207.975,625.591,-5.81915e-06,360.704,-0.0772953,-0.133133,-0.00640156,0.0459689,-0.0379624,0.0911345,-1.83744e-05,-3.30769e-05,0.0696164,-0.006381113667522698,0.09541632884696205,-1.8374231191775614e-05,0.047041847449121654,-3.307635296534439e-05,-0.0372508604216919
97,206.2,208.419,626.931,-5.94504e-06,361.475,-0.0775108,-0.133504,-0.00648991,0.0465634,-0.0384651,0.0923226,-1.86518e-05,-3.3577e-05,0.0705636,-0.0064688960182878175,0.09671856642831589,-1.8651626056298554e-05,0.04766449889223301,-3.357643629886553e-05,-0.03773471278767615
98,208.9,208.857,628.255,-6.07149e-06,362.237,-0.077722,-0.133869,-0.00657819,0.0471574,-0.0389674,0.0935095,-1.8929e-05,-3.40769e-05,0.07151,-0.006556601072788992,0.09802103449157906,-1.8928820847641248e-05,0.04828699646805168,-3.4076319389009235e-05,-0.03821793726945444
99,211.7,209.291,629.564,-6.19848e-06,362.991,-0.0779291,-0.134226,-0.0066664,0.0477508,-0.0394692,0.0946954,-1.92062e-05,-3.45766e-05,0.0724556,-0.006644228850128497,0.0993239500474643,-1.920601556215651e-05,0.048909234571542504,-3.4576002236219594e-05,-0.038700438438864615
100,214.4,209.72,630.858,-6.32601e-06,363.736,-0.0781321,-0.134576,-0.00675454,0.0483436,-0.0399706,0.0958802,-1.94832e-05,-3.5076e-05,0.0734004,-0.006731779369389623,0.10062720095686628,-1.948301020371357e-05,0.04953121230178148,-3.507538484426309e-05,-0.039182313222927645
101,217.1,210.144,632.138,-6.45406e-06,364.472,-0.0783313,-0.13492,-0.00684261,0.0489358,-0.0404715,0.0970638,-1.97601e-05,-3.55752e-05,0.0743444,-0.00681925264963823,0.1019306745554236,-1.9759904770544345e-05,0.05015292875777955,-3.5574567210039376e-05,-0.03966346628738904
102,219.8,210.563,633.403,-6.58264e-06,365.201,-0.0785267,-0.135257,-0.00693061,0.0495276,-0.040972,0.0982464,-2.00369e-05,-3.60742e-05,0.0752877,-0.00690664870992197,0.1032345886235766,-2.0036699262648838e-05,0.05077459319338118,-3.6073549333881516e-05,-0.04014399446030603
103,222.5,210.978,634.655,-6.71172e-06,365.922,-0.0787183,-0.135588,-0.00701853,0.0501187,-0.041472,0.0994279,-2.03135e-05,-3.65729e-05,0.0762301,-0.006993957639210513,0.1045388306192736,-2.031329368223922e-05,0.051395889661498995,-3.657223121966702e-05,-0.04062380250106956
104,225.2,211.389,635.893,-6.8413e-06,366.634,-0.0789064,-0.135913,-0.00710639,0.0507093,-0.0419716,0.100608,-2.059e-05,-3.70713e-05,0.0771717,-0.007081199317509501,0.10584306630619422,-2.0589788027436384e-05,0.052017027477875066,-3.707061286783997e-05,-0.04110298713905047
105,227.9,211.795,637.119,-6.97138e-06,367.34,-0.079091,-0.136232,-0.00719417,0.0512994,-0.0424707,0.101788,-2.08662e-05,-3.75695e-05,0.0781125,-0.007168353904562497,0.1071487313152899,-2.086598230233161e-05,0.05263800592746204,-3.7568794275189e-05,-0.04158145322702489
106,230.6,212.196,638.331,-7.10195e-06,368.038,-0.0792721,-0.136545,-0.00728188,0.0518889,-0.0429694,0.102966,-2.11424e-05,-3.80674e-05,0.0790526,-0.007255431349404429,0.10845372100879946,-2.1142176501065535e-05,0.05325871896915002,-3.8066675445702636e-05,-0.04205929739595382
107,233.3,212.594,639.53,-7.23299e-06,368.728,-0.0794499,-0.136852,-0.00736953,0.0524778,-0.0434676,0.104143,-2.14183e-05,-3.85649e-05,0.0799918,-0.007342441597566807,0.10975913912628599,-2.1418070629830588e-05,0.053879165701359755,-3.85641563838135e-05,-0.04253642459173779
108,236.0,212.987,640.718,-7.36451e-06,369.411,-0.0796245,-0.137154,-0.0074571,0.0530662,-0.0439654,0.105319,-2.16941e-05,-3.90622e-05,0.0809302,-0.007429364813967498,0.11106498355992978,-2.1693864684757536e-05,0.05449945067240103,-3.906143708221066e-05,-0.04301293134720474
109,238.7,213.377,641.893,-7.49649e-06,370.088,-0.0797959,-0.13745,-0.00754459,0.0536541,-0.0444627,0.106494,-2.19697e-05,-3.95591e-05,0.0818679,-0.007516201020134727,0.11237125219814859,-2.1969458667947528e-05,0.05511957316659766,-3.9558317549093225e-05,-0.04348872270112003
110,241.4,213.762,643.056,-7.62893e-06,370.758,-0.0799642,-0.137741,-0.00763202,0.0542414,-0.0449596,0.107668,-2.22451e-05,-4.00557e-05,0.0828047,-0.007602970085514471,0.11367794292560451,-2.224485257962261e-05,0.0557394268941489,-4.00548977811388e-05,-0.04396389508845322
111,244.1,214.144,644.208,-7.76182e-06,371.421,-0.0801296,-0.138027,-0.00771937,0.0548282,-0.0454561,0.108841,-2.25203e-05,-4.05519e-05,0.0837407,-0.007689652180181916,0.11498505362320621,-2.2520046419893802e-05,0.05635911658902515,-4.055107778278e-05,-0.044438449196735674
112,246.8,214.522,645.348,-7.89516e-06,372.077,-0.0802919,-0.138308,-0.00780666,0.0554144,-0.0459521,0.110012,-2.27953e-05,-4.10478e-05,0.084676,-0.007776267170077067,0.11629146587608896,-2.2795040189094173e-05,0.05697853583721346,-4.104695755058341e-05,-0.04491229020364995
113,249.5,214.896,646.477,-8.02894e-06,372.727,-0.0804515,-0.138584,-0.00789387,0.0560001,-0.0464477,0.111183,-2.30702e-05,-4.15434e-05,0.0856104,-0.007862795228706143,0.11759940883377307,-2.306993388501155e-05,0.057597789496385055,-4.154253708488209e-05,-0.04538551439798366
114,252.2,215.267,647.596,-8.16315e-06,373.371,-0.0806082,-0.138855,-0.00798101,0.0565852,-0.0469428,0.112352,-2.33448e-05,-4.20386e-05,0.086544,-0.0079492462980022,0.1189066464742321,-2.3344527512292323e-05,0.05821677102840783,-4.203771639044174e-05,-0.045858027049646255
115,254.9,215.634,648.703,-8.2978e-06,374.009,-0.0807622,-0.139122,-0.00806808,0.0571698,-0.0474375,0.113521,-2.36192e-05,-4.25334e-05,0.0874769,-0.008035620396775967,0.12021541316905138,-2.361892106883534e-05,0.058835585414572567,-4.253249546770643e-05,-0.046329924350243634
116,257.6,215.997,649.8,-8.43287e-06,374.64,-0.0809136,-0.139384,-0.00815507,0.0577538,-0.0479317,0.114688,-2.38934e-05,-4.30278e-05,0.0884089,-0.008121907625040281,0.12152346765756139,-2.389311455497367e-05,0.059454125992723705,-4.3026874317453334e-05,-0.046801111661655126
117,260.3,216.357,650.887,-8.56836e-06,375.266,-0.0810623,-0.139641,-0.00824199,0.0583373,-0.0484255,0.115855,-2.41673e-05,-4.35219e-05,0.0893402,-0.008208117922075764,0.12283304953671892,-2.416700797314153e-05,0.06007249786769009,-4.3520952935804935e-05,-0.04727168507857815
118,263.0,216.714,651.964,-8.70426e-06,375.886,-0.0812085,-0.139895,-0.00832885,0.0589203,-0.0489189,0.11702,-2.44411e-05,-4.40155e-05,0.0902706,-0.008294261223695254,0.12414191230395621,-2.444080131869253e-05,0.060690700322452384,-4.401453133207056e-05,-0.047741645280444334
119,265.8,217.068,653.031,-8.84058e-06,376.5,-0.0813522,-0.140144,-0.00841563,0.0595028,-0.0494118,0.118184,-2.47146e-05,-4.45088e-05,0.0912003,-0.008380317713661212,0.12545117533313443,-2.4714294596828168e-05,0.06130873263982761,-4.450780949805111e-05,-0.04821089776670984
120,268.5,217.418,654.088,-8.9773e-06,377.108,-0.0814935,-0.140388,-0.00850233,0.0600847,-0.0499043,0.119347,-2.49879e-05,-4.50016e-05,0.0921291,-0.008466287413275042,0.12676083647038117,-2.498758780500321e-05,0.06192648790981514,-4.500058744316693e-05,-0.04867953848730966
121,270.5,217.681,654.88,-9.3429e-06,377.565,-0.0815983,-0.14057,-0.0085678,0.060524,-0.0502761,0.120226,-2.51942e-05,-4.53736e-05,0.0928304,-0.008531201000468558,0.12775169466401648,-2.5193882628782305e-05,0.06239309469863108,-4.537257063375044e-05,-0.04903317369004223
