,Time,S11,S22,S33,S12,S13,S23,LE11,LE22,LE33,LE12,LE13,LE23,SDV_EPBAR,E11,E12,E13,E22,E23,E33
0,0.0002705,0.000519365,0.0015581,-7.79048e-12,0.000899567,2.21372e-21,3.68811e-20,2.50301e-10,6.7501e-09,-3.0004e-09,1.1258e-08,2.76762e-26,4.61603e-25,0.0,2.5030089112476617e-10,1.1258000087721598e-08,0.0,6.750100034480511e-09,0.0,-3.0004000395322805e-09
1,0.000541,0.00103873,0.00311619,4.33681e-19,0.00179913,-3.08331e-20,-2.03577e-20,5.00425e-10,1.35001e-08,-6.00057e-09,2.25162e-08,-1.63975e-24,4.6912e-25,0.0,5.00425034744012e-10,2.2516200237632233e-08,0.0,1.3500100148888805e-08,0.0,-6.000569929831556e-09
2,0.00094675,0.00181778,0.00545333,6.50521e-19,0.00314848,1.87371e-20,6.55005e-20,8.75688e-10,2.36252e-08,-1.05009e-08,3.94034e-08,-1.73568e-24,1.95724e-24,0.0,8.756879665838824e-10,3.9403400764470575e-08,0.0,2.3625200240573463e-08,0.0,-1.0500899927379237e-08
3,0.0015554,0.00298635,0.00895905,1.73472e-18,0.00517251,4.73565e-20,4.89771e-20,1.4375e-09,3.88125e-08,-1.725e-08,6.47354e-08,4.1359e-25,7.16359e-25,0.0,1.4374998968946784e-09,6.473540214990692e-08,0.0,3.8812500768869995e-08,0.0,-1.7249999872959165e-08
4,0.0024683,0.00473921,0.0142176,0.0,0.00820854,1.00168e-19,-5.78319e-20,2.28125e-09,6.15937e-08,-2.7375e-08,1.02732e-07,-7.41318e-35,-1.284e-34,0.0,2.281250077729169e-09,1.027320053470504e-07,0.0,6.159370191660685e-08,0.0,-2.7374999600482397e-08
5,0.0038377,0.00736849,0.0221055,-8.67362e-19,0.0127626,9.88226e-21,-8.20239e-20,3.54688e-09,9.57656e-08,-4.25625e-08,1.59728e-07,7.653e-32,1.32554e-31,0.0,3.5468799008953056e-09,1.597280128162737e-07,0.0,9.576560455748506e-08,0.0,-4.256249908074494e-08
6,0.0058918,0.0113124,0.0339373,-6.07153e-18,0.0195937,-4.73565e-20,-4.89771e-20,5.44671e-09,1.47024e-07,-6.53456e-08,2.45219e-07,-1.14621e-23,6.61761e-24,0.0,5.446709971934638e-09,2.452190299706558e-07,0.0,1.4702401074373483e-07,0.0,-6.534559782167548e-08
7,0.008973,0.0172283,0.0516849,7.80626e-18,0.0298403,6.7121e-20,-1.15071e-19,8.29297e-09,2.2391e-07,-9.95156e-08,3.7346e-07,1.78232e-31,3.08708e-31,0.0,8.292970088419338e-09,3.734600697580248e-07,0.0,2.2391002496569e-07,0.0,-9.951559509779884e-08
8,0.013595,0.0261021,0.0783064,9.54098e-18,0.0452102,-1.3116e-19,-4.58503e-19,1.25671e-08,3.39241e-07,-1.50777e-07,5.65816e-07,2.77687e-23,-3.13146e-23,0.0,1.2567100027283118e-08,5.658161601473921e-07,0.0,3.392410574676319e-07,0.0,-1.5077698867216327e-07
9,0.020527,0.0394129,0.118239,6.07153e-18,0.0682651,-4.56883e-19,3.48265e-20,1.89735e-08,5.12236e-07,-2.27663e-07,8.54355e-07,1.1462e-23,-6.61759e-24,0.0,1.8973500104380037e-08,8.543553648987512e-07,0.0,5.122361312892565e-07,0.0,-2.276629741393421e-07
10,0.030926,0.059379,0.178137,-8.67362e-19,0.102847,-1.54031e-18,-2.55477e-19,2.8587e-08,7.71729e-07,-3.42996e-07,1.28716e-06,-2.95414e-23,1.77334e-24,0.0,2.858700032248862e-08,1.2871608283671065e-06,0.0,7.717292977993395e-07,0.0,-3.429959412049044e-07
11,0.046525,0.0893282,0.267985,-4.94396e-17,0.154721,-5.5365e-19,3.95969e-19,4.30043e-08,1.16097e-06,-5.15992e-07,1.93637e-06,-9.16942e-23,5.29396e-23,0.0,4.300430100911967e-08,1.9363718748444114e-06,0.0,1.1609706738191505e-06,0.0,-5.159918669006558e-07
12,0.069922,0.134252,0.402756,-2.1684e-17,0.232531,2.20493e-19,-2.49317e-18,6.46307e-08,1.74483e-06,-7.75487e-07,2.91018e-06,-5.29397e-23,-9.16942e-23,0.0,6.463070212348043e-08,2.910184234483637e-06,0.0,1.744831522154655e-06,0.0,-7.754866993003873e-07
13,0.105,0.201637,0.604912,1.99493e-17,0.349246,-1.22407e-18,-2.88023e-18,9.70596e-08,2.62061e-06,-1.16471e-06,4.37091e-06,-1.05879e-22,-1.83388e-22,0.0,9.705960479777787e-08,4.370919552521002e-06,0.0,2.62061343381248e-06,0.0,-1.1647093217659332e-06
14,0.1577,0.302715,0.908146,-9.1073e-17,0.524319,2.72256e-18,-2.74454e-19,1.45719e-07,3.93429e-06,-1.74858e-06,6.56199e-06,1.03982e-22,-2.43423e-22,0.0,1.4571901063575865e-07,6.562011529931411e-06,0.0,3.934297739371928e-06,0.0,-1.748578471238993e-06
15,0.2366,0.454332,1.363,-7.80626e-18,0.786926,-1.38381e-17,-7.8084e-18,2.18705e-07,5.90479e-06,-2.62436e-06,9.8486e-06,-2.11758e-22,-3.66776e-22,0.0,2.1870502386889257e-07,9.848648497623458e-06,0.0,5.904807433232406e-06,0.0,-2.624356556402141e-06
16,0.3551,0.681756,2.04527,4.77049e-17,1.18084,-5.94481e-18,-2.59681e-18,3.28182e-07,8.86055e-06,-3.93804e-06,1.47785e-05,5.57568e-28,9.65736e-28,0.0,3.281820537548441e-07,1.4778609202625859e-05,0.0,8.860589254755524e-06,0.0,-3.938032245964784e-06
17,0.5328,1.02289,3.06867,7.13839e-16,1.7717,-5.94479e-18,-2.59677e-18,4.92389e-07,1.32942e-05,-5.90853e-06,2.21733e-05,8.36561e-28,1.44897e-27,0.0,4.923891212538223e-07,2.2173545829451413e-05,0.0,1.3294288368159712e-05,0.0,-5.908512544672284e-06
18,0.7993,1.53459,4.60377,-2.85362e-16,2.65799,-3.98145e-18,-3.30361e-17,7.38697e-07,1.99445e-05,-8.86424e-06,3.32654e-05,7.35553e-27,1.27402e-26,0.0,7.38697272906208e-07,3.326595329955495e-05,0.0,1.9944698892881974e-05,0.0,-8.864200712777048e-06
19,1.199,2.30213,6.90638,-1.61763e-15,3.9874,2.21215e-18,-5.61484e-17,1.10814e-06,2.99199e-05,-1.32977e-05,4.99034e-05,-4.23505e-22,-7.33532e-22,0.0,1.1081406139368255e-06,4.990464519538662e-05,0.0,2.992034760462836e-05,0.0,-1.3297611585971758e-05
20,1.799,3.45341,10.3602,-3.17194e-15,5.98148,6.53581e-17,-1.44564e-17,1.66234e-06,4.48827e-05,-1.99479e-05,7.48599e-05,-1.09041e-26,-1.88864e-26,0.0,1.6623413816585497e-06,7.486270207235357e-05,0.0,4.4883707243537074e-05,0.0,-1.994770104196686e-05
21,2.698,5.18029,15.5409,-2.8485e-14,8.97252,-6.87866e-17,2.39178e-17,2.49357e-06,6.73263e-05,-2.99228e-05,0.000112294,-4.23518e-22,-7.33555e-22,0.0,2.4935731088859825e-06,0.00011230030520725798,0.0,6.732856646629592e-05,0.0,-2.9922352317468537e-05
22,4.047,31.1929,93.5787,-1.03264e-09,54.0277,-8.08225e-16,-1.7395e-16,1.5015e-05,0.000405403,-0.000180179,0.000676171,-3.02527e-20,1.82072e-21,0.0,1.5015112725613733e-05,0.0006763996551444329,0.0,0.00040548518690219915,0.0,-0.00018016276873877857
23,6.071,70.3658,211.097,-9.04826e-07,121.877,1.29847e-16,-7.14917e-16,3.38711e-05,0.000914519,-0.000406453,0.00152533,-2.03309e-20,-3.52142e-20,0.0,3.3871673632113186e-05,0.0015264939075101402,0.0,0.0009149373000056915,0.0,-0.00040637040916957634
24,8.776,121.152,363.495,0.000273829,209.853,-0.000896194,-0.00155181,5.56105e-05,0.00159315,-0.000715613,0.00266341,-1.13953e-08,-1.97456e-08,2.9736e-05,5.561204629245253e-05,0.0026669600274407124,-1.1395299925887059e-08,0.001594419737666053,-1.9745599821874293e-08,-0.0007153570100839612
25,11.48,126.995,381.572,0.140721,220.267,-0.0166674,-0.0288037,-2.38638e-05,0.00223317,-0.00122983,0.00392449,-3.01829e-07,-5.29186e-07,0.000937243,-2.3863515261735024e-05,0.003932200894690041,-3.0182895449648584e-07,0.002235665381315588,-5.291858600209309e-07,-0.0012290740690060753
26,14.19,131.958,396.43,0.00038961,228.719,-0.031003,-0.0536056,-0.000104188,0.00287201,-0.00175045,0.00518575,-6.51435e-07,-1.14772e-06,0.00186491,-0.00010418257261879393,0.005199219274229172,-6.514347877795146e-07,0.002876138171824305,-1.1477193413433895e-06,-0.001748918855926096
27,16.89,136.104,409.066,-1.13827e-05,235.957,-0.0423296,-0.0731612,-0.000186737,0.00350949,-0.00227307,0.00644832,-1.02157e-06,-1.80578e-06,0.00280592,-0.00018671956573157455,0.006469155175294894,-1.021569478232287e-06,0.0035156554704727228,-1.8057783696123764e-06,-0.0022704885327098356
28,19.6,139.72,420.087,1.01534e-05,242.27,-0.0519649,-0.0897854,-0.000270443,0.00414592,-0.00279761,0.00771105,-1.41791e-06,-2.51272e-06,0.00375642,-0.0002704064335883327,0.0077408567104733095,-1.4179089947718992e-06,0.004154526215773391,-2.5127168431504643e-06,-0.0027937003358988743
29,22.3,142.934,429.877,4.54607e-06,247.879,-0.0603128,-0.10418,-0.000355016,0.00478141,-0.00332349,0.0089736,-1.83744e-06,-3.26272e-06,0.00471391,-0.00035495298927668006,0.009013983453080465,-1.8374383119468263e-06,0.004792859181264264,-3.262714677321199e-06,-0.0033179733203454465
30,25.01,145.829,438.697,1.82799e-06,252.932,-0.0676501,-0.116825,-0.000440259,0.00541603,-0.0038503,0.0102357,-2.27747e-06,-4.05063e-06,0.0056767,-0.0004401621002272371,0.01028826396716509,-2.27746740655288e-06,0.0054307232047829945,-4.050621796203302e-06,-0.0038428970991325473
31,27.71,148.466,446.731,4.24162e-07,257.535,-0.0741768,-0.128068,-0.000526032,0.00604982,-0.00437778,0.0114973,-2.73569e-06,-4.87208e-06,0.00664359,-0.0005258936694239047,0.011563647984061953,-2.7356862579708263e-06,0.006068157121126516,-4.872068131489549e-06,-0.004368211489173435
32,30.42,150.89,454.114,-3.72407e-07,261.766,-0.0800402,-0.138165,-0.000612231,0.00668283,-0.00490571,0.0127581,-3.2101e-06,-5.72333e-06,0.00761369,-0.0006120436248422401,0.012839831768644228,-3.2100948476054825e-06,0.006705209934394052,-5.723313621808224e-06,-0.004893696657384594
33,33.12,153.136,460.952,-8.76523e-07,265.684,-0.0853523,-0.147309,-0.000698777,0.00731509,-0.00543393,0.0140181,-3.69901e-06,-6.6012e-06,0.00858634,-0.0006985329122097816,0.01411681428671474,-3.699003158663672e-06,0.0073419106294077,-6.6011782121622176e-06,-0.005419192907902937
34,35.83,155.227,467.322,-1.23884e-06,269.335,-0.0901996,-0.155651,-0.000785609,0.00794661,-0.00596233,0.0152773,-4.20093e-06,-7.50293e-06,0.00956101,-0.0007853004900442162,0.015394594500851344,-4.200921176145123e-06,0.007978268107896591,-7.502901853140287e-06,-0.005944590584079812
35,38.53,157.187,473.289,-1.53498e-06,272.755,-0.0946504,-0.163308,-0.000872676,0.00857742,-0.00649081,0.0165356,-4.7146e-06,-8.42616e-06,0.0105373,-0.0008722953290416502,0.01667306970309923,-4.714588886289839e-06,0.008614311469367086,-8.426124500027221e-06,-0.0064697901958790105
36,41.24,159.031,478.903,-1.80419e-06,275.973,-0.0987592,-0.170374,-0.00095994,0.00920752,-0.00701929,0.0177929,-5.2389e-06,-9.36884e-06,0.0115149,-0.0009594794049911926,0.017952136670589924,-5.238886277014743e-06,0.00925003961214177,-9.368796112574351e-06,-0.006994712323515895
37,43.94,160.773,484.207,-2.06729e-06,279.012,-0.10257,-0.176928,-0.00104737,0.00983694,-0.0075477,0.0190492,-5.77286e-06,-1.03292e-05,0.0124935,-0.0010468216994826696,0.01923179358807614,-5.772843337026323e-06,0.009885481731084944,-1.0329146653997867e-05,-0.007519287639949801
38,46.65,162.425,489.235,-2.33536e-06,281.894,-0.10612,-0.183031,-0.00113493,0.0104657,-0.00807601,0.0203045,-6.31564e-06,-1.13056e-05,0.0134729,-0.0011342862105225837,0.020512038636256724,-6.315620056374094e-06,0.01052065699205107,-1.1305536091965607e-05,-0.008043486643116493
39,49.35,163.996,494.017,-2.61424e-06,284.635,-0.10944,-0.188737,-0.00122261,0.0110937,-0.00860416,0.0215587,-6.86646e-06,-1.22967e-05,0.0144528,-0.0012218629168885276,0.021792767812496505,-6.866436425889688e-06,0.011155463272951138,-1.2296624395946587e-05,-0.008567250150622763
40,52.06,165.494,498.576,-2.90683e-06,287.248,-0.112554,-0.194088,-0.00131039,0.0117211,-0.00913212,0.0228119,-7.42466e-06,-1.33012e-05,0.0154333,-0.001309531813917686,0.023074081212402398,-7.424632437302847e-06,0.011790061263181828,-1.3301111539409938e-05,-0.00909054883269178
41,54.76,166.925,502.934,-3.21443e-06,289.746,-0.115484,-0.199124,-0.00139824,0.0123479,-0.00965985,0.024064,-7.98965e-06,-1.43181e-05,0.016414,-0.001397262917902653,0.024355874568757763,-7.989618082793193e-06,0.012424450070263715,-1.4317997496515744e-05,-0.009613343518003359
42,57.47,168.297,507.108,-3.5374e-06,292.139,-0.118249,-0.203874,-0.00148615,0.0129739,-0.0101873,0.025315,-8.56089e-06,-1.53464e-05,0.017395,-0.0014850462259476949,0.025638145661182277,-8.560853355654707e-06,0.013058426189829664,-1.534628224464374e-05,-0.010135585219664622
43,60.17,169.614,511.116,-3.8756e-06,294.436,-0.120865,-0.208368,-0.00157412,0.0135994,-0.0107145,0.0265649,-9.13789e-06,-1.63851e-05,0.018376,-0.0015728817229301306,0.026920892264936436,-9.137848249629599e-06,0.013692292456419786,-1.638496576494841e-05,-0.01065730420192934
44,62.88,170.88,514.97,-4.22861e-06,296.645,-0.123345,-0.212627,-0.00166213,0.0142242,-0.0112415,0.0278137,-9.72022e-06,-1.74336e-05,0.019357,-0.0016607494269348377,0.02820411215092844,-9.720172758798107e-06,0.014325845302045392,-1.743344803573077e-05,-0.011178550442166868
45,65.58,172.1,518.682,-4.59586e-06,298.773,-0.125701,-0.216674,-0.00175017,0.0148483,-0.0117681,0.0290613,-1.03075e-05,-1.8491e-05,0.020338,-0.0017486393455842242,0.02948770013694091,-1.0307446877910742e-05,0.014959083643568682,-1.8490829042483448e-05,-0.011699126737735321
46,68.29,173.276,522.263,-4.97675e-06,300.826,-0.127944,-0.220527,-0.00183823,0.0154718,-0.0122944,0.0303079,-1.08993e-05,-1.95567e-05,0.0213188,-0.001836541490015109,0.030771859754321174,-1.08992406028241e-05,0.015592107957042689,-1.9556508768947545e-05,-0.012219132635778007
47,70.99,174.413,525.723,-5.37063e-06,302.809,-0.130083,-0.2242,-0.00192631,0.0160947,-0.0128203,0.0315533,-1.14954e-05,-2.06302e-05,0.0222994,-0.0019244558556352764,0.03205638273489253,-1.149533392819091e-05,0.016224917349113577,-2.0629987198872435e-05,-0.012738470022189863
48,73.7,175.513,529.071,-5.7769e-06,304.728,-0.132127,-0.227709,-0.00201439,0.0167169,-0.0133459,0.0327976,-1.20955e-05,-2.17108e-05,0.0232798,-0.0020123624780991056,0.03334136978082647,-1.2095426849767499e-05,0.016857409240510712,-2.1710564322319215e-05,-0.013257238338089894
49,76.4,176.578,532.312,-6.19494e-06,306.587,-0.134082,-0.231065,-0.00210248,0.0173385,-0.0138711,0.0340407,-1.26992e-05,-2.27981e-05,0.0242599,-0.0021002713370857906,0.0346267151785129,-1.2699119365522371e-05,0.017489684296823516,-2.2797840125265978e-05,-0.01377533957122179
50,79.11,177.611,535.456,-6.62421e-06,308.389,-0.135954,-0.234281,-0.00219057,0.0179595,-0.014396,0.0352827,-1.33063e-05,-2.38916e-05,0.0252397,-0.00218817245252223,0.03591251987819688,-1.3306211471553198e-05,0.018121741624259613,-2.3891314598012414e-05,-0.01429287305693483
51,81.81,178.614,538.507,-7.06417e-06,310.138,-0.137751,-0.237366,-0.00227864,0.0185799,-0.0149205,0.0365235,-1.39167e-05,-2.49909e-05,0.026219,-0.002276045870611587,0.03719867790028619,-1.3916603163188768e-05,0.01875358032886343,-2.499058773008933e-05,-0.014809740884579536
52,84.52,179.588,541.472,-7.51433e-06,311.837,-0.139477,-0.240329,-0.00236671,0.0191996,-0.0154446,0.0377632,-1.453e-05,-2.60956e-05,0.027198,-0.002363911550029907,0.03848529044328575,-1.4529894440062918e-05,0.019385097578002997,-2.6095259512803892e-05,-0.015325943816587806
53,87.22,180.536,544.355,-7.97424e-06,313.49,-0.141137,-0.243178,-0.00245475,0.0198187,-0.0159683,0.0390017,-1.51461e-05,-2.72054e-05,0.0281765,-0.0024517395650109908,0.03977225126148243,-1.5145985298392617e-05,0.020016394289646522,-2.7205029936472336e-05,-0.015841482614193936
54,89.93,181.458,547.161,-8.44348e-06,315.098,-0.142735,-0.245922,-0.00254278,0.0204373,-0.0164916,0.0402391,-1.57648e-05,-2.83199e-05,0.0291545,-0.0025395498733497,0.04105966180182552,-1.5764675736162914e-05,0.02064757163417963,-2.8319498995399428e-05,-0.016356358037437846
55,92.63,182.356,549.894,-8.92165e-06,316.665,-0.144274,-0.248565,-0.00263079,0.0210551,-0.0170145,0.0414754,-1.63859e-05,-2.94388e-05,0.030132,-0.0026273325046338725,0.042347519787090615,-1.6385765751913972e-05,0.02127832252282258,-2.9438366682787986e-05,-0.016870570845165078
56,95.34,183.231,552.559,-9.4084e-06,318.193,-0.14576,-0.251115,-0.00271876,0.0216724,-0.017537,0.0427104,-1.70093e-05,-3.05617e-05,0.031109,-0.002715067519112324,0.043635614208613616,-1.7009155342639914e-05,0.021908952255156988,-3.05612329960514e-05,-0.01738412179502935
57,98.04,184.086,555.158,-9.90338e-06,319.683,-0.147194,-0.253577,-0.00280671,0.0222891,-0.018059,0.0439443,-1.76348e-05,-3.16886e-05,0.0320855,-0.0028027748719366974,0.044924150992269984,-1.7634644507880104e-05,0.022539357871605326,-3.168809792164495e-05,-0.017896913433190775
58,100.7,184.919,557.695,-1.04063e-05,321.138,-0.14858,-0.255957,-0.00289463,0.0229052,-0.0185807,0.0451771,-1.82623e-05,-3.2819e-05,0.0330614,-0.00289044459795218,0.04621312784769849,-1.8262133245183776e-05,0.02316953847719172,-3.281846146252487e-05,-0.01840914298675589
59,103.5,185.734,560.174,-1.09168e-05,322.558,-0.14992,-0.258258,-0.00298251,0.0235206,-0.0191019,0.0464087,-1.88917e-05,-3.39528e-05,0.0340367,-0.0029780667355078227,0.047502437730008396,-1.8891521552988344e-05,0.02379939079685145,-3.395222361024519e-05,-0.01892061484028773
60,106.2,186.53,562.597,-1.14347e-05,323.947,-0.151218,-0.260486,-0.00307035,0.0241355,-0.0196227,0.0476391,-1.95228e-05,-3.50898e-05,0.0350114,-0.0030656412957950074,0.048792077953359714,-1.9522609431388283e-05,0.02442911863223385,-3.5089184360126424e-05,-0.01943142795679753
61,108.9,187.309,564.966,-1.19597e-05,325.305,-0.152475,-0.262643,-0.00315816,0.0247497,-0.0201431,0.0488684,-2.01555e-05,-3.62297e-05,0.0359855,-0.0031531782584660606,0.05008215083562395,-2.0155296879265094e-05,0.025058516265124453,-3.6229043712365794e-05,-0.019941583087810466
62,111.6,188.07,567.284,-1.24916e-05,326.634,-0.153693,-0.264735,-0.00324593,0.0253634,-0.0206631,0.0500966,-2.07898e-05,-3.73723e-05,0.036959,-0.0032406676644815002,0.05137265406909175,-2.0789583893621177e-05,0.025687787748760904,-3.737160166428222e-05,-0.020451080983671432
63,114.3,188.816,569.554,-1.30301e-05,327.935,-0.154875,-0.266764,-0.00333365,0.0259764,-0.0211826,0.0513235,-2.14255e-05,-3.85175e-05,0.0379318,-0.003328099558295161,0.05266337480909877,-2.142527047566123e-05,0.026316727112871252,-3.851675821064937e-05,-0.02095982448953293
64,117.0,189.547,571.777,-1.35751e-05,329.21,-0.156022,-0.268734,-0.00342133,0.0265889,-0.0217016,0.0525494,-2.20624e-05,-3.96652e-05,0.038904,-0.003415483919539497,0.053954626151075935,-2.2062156627034035e-05,0.026945538662106472,-3.9664413346351957e-05,-0.021467814505811034
65,119.7,190.263,573.956,-1.41264e-05,330.459,-0.157136,-0.270646,-0.00350896,0.0272007,-0.0222203,0.053774,-2.27007e-05,-4.0815e-05,0.0398755,-0.0035028107944007347,0.05524608958792809,-2.2700442341094806e-05,0.027574016174327642,-4.081416707923946e-05,-0.021975247536293208
66,122.4,190.964,576.091,-1.46837e-05,331.683,-0.158218,-0.272505,-0.00359655,0.027812,-0.0227385,0.0549975,-2.334e-05,-4.1967e-05,0.0408464,-0.0035900901607475166,0.056537973327259516,-2.3339727624360762e-05,0.028202364205423658,-4.196611939777384e-05,-0.022481928670599616
67,125.1,191.653,578.186,-1.52469e-05,332.884,-0.159271,-0.274313,-0.00368409,0.0284226,-0.0232563,0.0562199,-2.39805e-05,-4.31209e-05,0.0418166,-0.003677312066496352,0.05783027503974125,-2.398021247007609e-05,0.02883037628158225,-4.311997030737036e-05,-0.022987956506021257
68,127.8,192.328,580.242,-1.58158e-05,334.062,-0.160295,-0.276071,-0.00377158,0.0290327,-0.0237736,0.0574411,-2.46219e-05,-4.42766e-05,0.042786,-0.0037644765253989076,0.059122886479522574,-2.4621596883545038e-05,0.029458257209752814,-4.4275619805800304e-05,-0.023493234134794316
69,130.5,192.991,582.259,-1.63904e-05,335.219,-0.161292,-0.277783,-0.00385902,0.0296422,-0.0242904,0.0586612,-2.52643e-05,-4.5434e-05,0.0437548,-0.0038515835511966356,0.060415910962497765,-2.5263980860223967e-05,0.030085903273229686,-4.5432967891501086e-05,-0.02399776245004759
70,133.2,193.642,584.241,-1.69703e-05,336.355,-0.162262,-0.27945,-0.00394641,0.030251,-0.0248069,0.0598801,-2.59076e-05,-4.6593e-05,0.0447228,-0.003938633157622218,0.061709239975610286,-2.590726440099278e-05,0.030713210504088373,-4.659191456302114e-05,-0.02450173744299633
71,135.9,194.282,586.187,-1.75556e-05,337.47,-0.163208,-0.281074,-0.00403374,0.0308593,-0.0253229,0.0610978,-2.65516e-05,-4.77534e-05,0.0456902,-0.004025615398653759,0.06300287078439748,-2.6551247509387643e-05,0.031340384085543516,-4.775225982456277e-05,-0.025004964702677213
72,138.6,194.91,588.1,-1.81461e-05,338.567,-0.16413,-0.282658,-0.00412102,0.031467,-0.0258384,0.0623144,-2.71964e-05,-4.89152e-05,0.0466568,-0.004112540249486152,0.06429690707966174,-2.7196030181309006e-05,0.03196732011216974,-4.891400367112997e-05,-0.02550744511791836
73,141.3,195.528,589.98,-1.87416e-05,339.644,-0.165029,-0.284202,-0.00420825,0.0320742,-0.0263535,0.0635299,-2.78419e-05,-5.00782e-05,0.0476227,-0.004199407723820214,0.06559134650640752,-2.7841512417858816e-05,0.03259412094641734,-5.0076946107813214e-05,-0.026009276975047513
74,144.0,196.136,591.829,-1.93421e-05,340.704,-0.165906,-0.285709,-0.00429542,0.0326807,-0.0268681,0.0647442,-2.8488e-05,-5.12424e-05,0.0485879,-0.004286207878209214,0.06688608001682828,-2.8487594220805157e-05,0.03322057923504418,-5.1241087130615703e-05,-0.026510363660454228
75,146.7,196.733,593.647,-1.99474e-05,341.747,-0.166761,-0.287179,-0.00438254,0.0332867,-0.0273823,0.0659574,-2.91347e-05,-5.24076e-05,0.0495523,-0.004372950685207488,0.06818121167711566,-2.913427558870474e-05,0.033846900662285684,-5.240622674573814e-05,-0.02701080335738759
76,149.4,197.321,595.436,-2.05574e-05,342.772,-0.167597,-0.288615,-0.0044696,0.033892,-0.027896,0.0671694,-2.97819e-05,-5.35738e-05,0.050516,-0.004459626203080602,0.06947663217191336,-2.978145652365871e-05,0.034472877624071474,-5.3572364949627804e-05,-0.027510499549747047
77,152.1,197.9,597.197,-2.11721e-05,343.782,-0.168413,-0.290018,-0.0045566,0.0344968,-0.0284093,0.0683803,-3.04296e-05,-5.47409e-05,0.0514789,-0.00454623444808766,0.07077244581784692,-3.042913702444583e-05,0.03509871605492321,-5.473940174427483e-05,-0.028009550317991128
78,154.8,198.469,598.931,-2.17913e-05,344.775,-0.169211,-0.291388,-0.00464354,0.035101,-0.0289222,0.0695901,-3.10778e-05,-5.59088e-05,0.0524411,-0.004632775436473557,0.07206865023875597,-3.1077317090177914e-05,0.03572431167256829,-5.590723713211343e-05,-0.02850795639246928
79,157.6,199.03,600.638,-2.24149e-05,345.754,-0.16999,-0.292728,-0.00473043,0.0357047,-0.0294345,0.0707987,-3.17263e-05,-5.70774e-05,0.0534025,-0.004719259137276999,0.07336513571779357,-3.172579672627851e-05,0.03634976721428429,-5.7075771116132934e-05,-0.02900552430350678
80,160.3,199.582,602.319,-2.30429e-05,346.718,-0.170753,-0.294038,-0.00481725,0.0363077,-0.0299465,0.0720062,-3.23752e-05,-5.82467e-05,0.0543632,-0.004805665660237324,0.07466200694760183,-3.237467592887011e-05,0.03697487457484261,-5.824500369389085e-05,-0.029502546226593318
81,163.0,200.127,603.976,-2.36752e-05,347.667,-0.171498,-0.29532,-0.00490401,0.0369102,-0.0304579,0.0732125,-3.30245e-05,-5.94166e-05,0.0553231,-0.004892004975231012,0.07595915394349695,-3.302395469717556e-05,0.037599840188759615,-5.94148348688206e-05,-0.029998731739003692
82,165.7,200.663,605.608,-2.43117e-05,348.603,-0.172228,-0.296574,-0.00499072,0.0375121,-0.030969,0.0744177,-3.3674e-05,-6.0587e-05,0.0562822,-0.004978287048666208,0.07725668164896926,-3.367343303717352e-05,0.03822455952299242,-6.058516464479968e-05,-0.03049437271537092
83,168.4,201.192,607.218,-2.49523e-05,349.525,-0.172942,-0.297801,-0.00507736,0.0381134,-0.0314795,0.0756218,-3.43238e-05,-6.17578e-05,0.0572406,-0.005064491995424136,0.07855458766684609,-3.432321094509749e-05,0.038849031679371926,-6.175589302626072e-05,-0.030989179028042657
84,171.1,201.713,608.804,-2.5597e-05,350.435,-0.173641,-0.299003,-0.00516395,0.0387142,-0.0319897,0.0768248,-3.49738e-05,-6.29291e-05,0.0581981,-0.005150639731242079,0.07985286959581539,-3.4973188423825796e-05,0.03947335970696453,-6.292712000566247e-05,-0.031483442251632354
85,173.8,202.227,610.369,-2.62457e-05,351.332,-0.174325,-0.30018,-0.00525047,0.0393144,-0.0324993,0.0780266,-3.5624e-05,-6.41007e-05,0.059155,-0.005236710374422859,0.08115141691528671,-3.5623365472803314e-05,0.04009743888488693,-6.40986455939796e-05,-0.03197687255274195
86,176.5,202.734,611.912,-2.68983e-05,352.216,-0.174996,-0.301334,-0.00533693,0.039914,-0.0330085,0.0792273,-3.62743e-05,-6.52726e-05,0.060111,-0.005322713890458242,0.08245033507103972,-3.627364209557449e-05,0.040721268314615644,-6.527046979021289e-05,-0.032469664453772085
87,179.2,203.234,613.434,-2.75547e-05,353.089,-0.175653,-0.302464,-0.00542332,0.0405131,-0.0335173,0.0804269,-3.69248e-05,-6.64448e-05,0.0610663,-0.005408640349558458,0.08374962164927013,-3.692411828792874e-05,0.041344951232026306,-6.644259259314111e-05,-0.0329618186738474
88,181.9,203.728,614.936,-2.8215e-05,353.95,-0.176297,-0.303572,-0.00550965,0.0411115,-0.0340256,0.0816253,-3.75753e-05,-6.76171e-05,0.0620207,-0.0054944997154642294,0.08504916572713617,-3.7574594057288024e-05,0.04196827853177165,-6.761481401540426e-05,-0.03345323927628863
89,184.6,204.215,616.419,-2.8879e-05,354.8,-0.176928,-0.304658,-0.00559592,0.0417095,-0.0345335,0.0828227,-3.8226e-05,-6.87896e-05,0.0629744,-0.0055802920042702375,0.08634918176245177,-3.82252693957863e-05,0.042591561905488184,-6.878723404968312e-05,-0.033944023730797634
90,187.3,204.696,617.882,-2.95467e-05,355.638,-0.177547,-0.305724,-0.00568213,0.0423068,-0.0350409,0.0840189,-3.88766e-05,-6.99622e-05,0.0639273,-0.0056660172320573965,0.08764945018917625,-3.887584431472302e-05,0.04321448786373172,-6.99597527022977e-05,-0.03443407619633221
91,190.0,205.17,619.327,-3.0218e-05,356.467,-0.178155,-0.306769,-0.00576827,0.0429036,-0.0355478,0.085214,-3.95274e-05,-7.11349e-05,0.0648794,-0.005751665472410683,0.08895007708189384,-3.9526618802576685e-05,0.04383726408802979,-7.113236997302597e-05,-0.03492339753413776
92,192.7,205.639,620.754,-3.08929e-05,357.284,-0.178751,-0.307795,-0.00585435,0.0434998,-0.0360543,0.0864079,-4.01781e-05,-7.23075e-05,0.0658308,-0.00583724668557839,0.09025095098107427,-4.017729287097982e-05,0.04445978542004814,-7.230488587572914e-05,-0.03541208506272264
93,195.4,206.102,622.163,-3.15714e-05,358.092,-0.179336,-0.308801,-0.00594036,0.0440955,-0.0365603,0.0876008,-4.08288e-05,-7.34802e-05,0.0667813,-0.005922750946827371,0.0915522873682697,-4.082796651583287e-05,0.045082155468737506,-7.347750039621292e-05,-0.03590004308389039
94,198.1,206.559,623.555,-3.22533e-05,358.89,-0.17991,-0.30979,-0.00602631,0.0446906,-0.0370659,0.0887926,-4.14794e-05,-7.46528e-05,0.0677311,-0.006008188214664423,0.0928539749058841,-4.1478539741568454e-05,0.04570426895096369,-7.465001354900469e-05,-0.03638736881578086
95,200.8,207.011,624.93,-3.29387e-05,359.678,-0.180473,-0.31076,-0.0061122,0.0452851,-0.0375711,0.0899832,-4.213e-05,-7.58252e-05,0.06868,-0.006093558505099073,0.09415590173165334,-4.2129112543976e-05,0.046326124967240645,-7.582232534220079e-05,-0.03687406296776108
96,203.5,207.457,626.289,-3.36275e-05,360.457,-0.181027,-0.311713,-0.00619802,0.0458791,-0.0380758,0.0911727,-4.27805e-05,-7.69976e-05,0.0696282,-0.006178851895916271,0.09545817454997185,-4.2779584927488123e-05,0.046947827312787904,-7.699463576082977e-05,-0.03736002998408883
97,206.2,207.898,627.632,-3.43197e-05,361.226,-0.181571,-0.31265,-0.00628377,0.0464725,-0.03858,0.0923612,-4.34309e-05,-7.81697e-05,0.0705756,-0.006264068405656187,0.09676090058202358,-4.3429956892104826e-05,0.047569270517479056,-7.816664482862556e-05,-0.03784527071750232
98,208.9,208.335,628.959,-3.50152e-05,361.987,-0.182105,-0.31357,-0.00636946,0.0470654,-0.0390838,0.0935485,-4.40812e-05,-7.93417e-05,0.0715221,-0.00634921798934851,0.09806385814698015,-4.4080228438159175e-05,0.04819055850059106,-7.93385525305057e-05,-0.038329882186235564
99,211.7,208.766,630.271,-3.5714e-05,362.739,-0.18263,-0.314474,-0.00645508,0.0476577,-0.0395871,0.0947347,-4.47314e-05,-8.05134e-05,0.0724679,-0.006434290727288405,0.09936715432765975,-4.4730399565873213e-05,0.048811585667430935,-8.0510158883218e-05,-0.038813768976206364
100,214.4,209.192,631.568,-3.6416e-05,363.483,-0.183146,-0.315363,-0.00654063,0.0482495,-0.04009,0.0959198,-4.53814e-05,-8.16849e-05,0.0734129,-0.00651928663796475,0.10067078665701534,-4.538037027979058e-05,0.04943245606125801,-8.168156387933223e-05,-0.039297028006120005
101,217.1,209.613,632.851,-3.71213e-05,364.218,-0.183653,-0.316238,-0.00662612,0.0488407,-0.0405924,0.0971038,-4.60312e-05,-8.28561e-05,0.0743571,-0.006604215673806757,0.10197475266396205,-4.603014058057742e-05,0.05005306396290088,-8.2852667528166e-05,-0.03977956395606963
102,219.8,210.03,634.12,-3.78297e-05,364.945,-0.184152,-0.317097,-0.00671155,0.0494313,-0.0410944,0.0982868,-4.66809e-05,-8.40269e-05,0.0753005,-0.006689077850722369,0.10327916020129657,-4.6679810463690075e-05,0.05067340847217916,-8.402336983892589e-05,-0.04026147364551125
103,222.5,210.442,635.375,-3.85413e-05,365.664,-0.184642,-0.317943,-0.0067969,0.0500214,-0.0415959,0.0994686,-4.73303e-05,-8.51975e-05,0.0762431,-0.0067738533200830675,0.10458378626452092,-4.7329179938992993e-05,0.051293593818208416,-8.519387079608531e-05,-0.0407426618484511
104,225.2,210.85,636.616,-3.9256e-05,366.376,-0.185125,-0.318775,-0.00688219,0.050611,-0.042097,0.100649,-4.79796e-05,-8.63676e-05,0.0771849,-0.0068585619656817975,0.10588840680138656,-4.797844899739889e-05,0.05191361928667004,-8.636387042615379e-05,-0.04122322528537392
105,227.9,211.253,637.844,-3.99738e-05,367.08,-0.1856,-0.319593,-0.00696742,0.0512,-0.0425977,0.101829,-4.86286e-05,-8.75374e-05,0.0781259,-0.006943203803382314,0.10719412534384487,-4.862741764877221e-05,0.05253337890972176,-8.753356871360474e-05,-0.04170316465362589
106,230.6,211.652,639.059,-4.06947e-05,367.776,-0.186067,-0.320399,-0.00705258,0.0517884,-0.0430978,0.103007,-4.92774e-05,-8.87067e-05,0.0790661,-0.007027768919312671,0.10849916854302899,-4.927618588890237e-05,0.05315287178680328,-8.870276567696234e-05,-0.04218228908593258
107,233.3,212.047,640.262,-4.14186e-05,368.465,-0.186527,-0.321192,-0.00713767,0.0523763,-0.0435976,0.104185,-4.99259e-05,-8.98756e-05,0.0800055,-0.00711225733184484,0.10980574998895065,-4.9924653722999146e-05,0.053772202394521074,-8.987156130924046e-05,-0.04266088676632429
108,236.0,212.438,641.452,-4.21455e-05,369.148,-0.186979,-0.321972,-0.00722269,0.0529637,-0.0440969,0.105361,-5.05742e-05,-9.1044e-05,0.0809441,-0.007196669059333138,0.11111164926921213,-5.0572921146740946e-05,0.05439137001793548,-9.10398556207559e-05,-0.04313876687286533
109,238.7,212.825,642.63,-4.28754e-05,369.823,-0.187425,-0.322741,-0.00730764,0.0535505,-0.0445957,0.106537,-5.12221e-05,-9.2212e-05,0.0818819,-0.00728100412011401,0.11241908519039501,-5.122078817065834e-05,0.05501026844090018,-9.220774860418945e-05,-0.04361593024151178
110,241.4,213.208,643.796,-4.36082e-05,370.491,-0.187864,-0.323498,-0.00739253,0.0541368,-0.0450941,0.107711,-5.18698e-05,-9.33794e-05,0.0828189,-0.0073652724588541,0.11372583210676046,-5.186845478521995e-05,0.055629002325401355,-9.33750402795086e-05,-0.044092473297485224
111,244.1,213.588,644.95,-4.4344e-05,371.153,-0.188296,-0.324244,-0.00747735,0.0547225,-0.0455921,0.108884,-5.25173e-05,-9.45463e-05,0.0837551,-0.007449464165823483,0.11503299901133057,-5.251592099075886e-05,0.05624746533127456,-9.454183063939414e-05,-0.044568396731012205
112,246.8,213.963,646.094,-4.50826e-05,371.808,-0.188722,-0.324979,-0.00756211,0.0553077,-0.0460896,0.110056,-5.31643e-05,-9.57127e-05,0.0846905,-0.007533589183972067,0.11634058378117373,-5.316288680368153e-05,0.05686576224401807,-9.570811968562243e-05,-0.04504360573559729
113,249.5,214.335,647.226,-4.58242e-05,372.457,-0.189141,-0.325703,-0.00764679,0.0558923,-0.0465867,0.111227,-5.38111e-05,-9.68785e-05,0.0856251,-0.00761762768139973,0.117648584289614,-5.3809652208691716e-05,0.057483786599543674,-9.687380742962048e-05,-0.04551819658985634
114,252.2,214.703,648.347,-4.65686e-05,373.099,-0.189554,-0.326416,-0.00773141,0.0564764,-0.0470833,0.112397,-5.44576e-05,-9.80438e-05,0.0865589,-0.007701599524846614,0.11895699840623353,-5.4456117211776345e-05,0.05810164330678158,-9.803899386373605e-05,-0.04599207457978616
115,254.9,215.068,649.457,-4.73159e-05,373.736,-0.189961,-0.32712,-0.00781596,0.05706,-0.0475795,0.113566,-5.51037e-05,-9.92084e-05,0.0874919,-0.007785494807883597,0.12026582399687902,-5.510218181903337e-05,0.05871933164974252,-9.920347900937987e-05,-0.046465335886539116
116,257.6,215.429,650.557,-4.8066e-05,374.366,-0.190363,-0.327813,-0.00790045,0.057643,-0.0480752,0.114733,-5.57495e-05,-0.000100372,0.0884241,-0.00786932347003555,0.12157393734916555,-5.574794602547506e-05,0.05933674497859176,-0.00010036696289927871,-0.04693788588834624
117,260.3,215.787,651.646,-4.8819e-05,374.99,-0.190759,-0.328497,-0.00798486,0.0582255,-0.0485705,0.1159,-5.63949e-05,-0.000101536,0.0893555,-0.007953065686051475,0.12288357816083373,-5.6393309837532435e-05,0.05995398838723176,-0.00010153084539477053,-0.0474098206691691
118,263.0,216.142,652.726,-4.95747e-05,375.609,-0.191149,-0.329171,-0.00806921,0.0588075,-0.0490653,0.117066,-5.704e-05,-0.000102699,0.0902862,-0.008036741315891716,0.12419362402128242,-5.7038373250106744e-05,0.06057106115923161,-0.0001026937266381811,-0.04788104569921581
119,265.8,216.493,653.795,-5.03332e-05,376.222,-0.191534,-0.329836,-0.00815349,0.0593889,-0.0495598,0.11823,-5.76847e-05,-0.000103861,0.091216,-0.008120340456416297,0.12550294727794542,-5.768303626962901e-05,0.06118785645920899,-0.00010385560663306315,-0.04835175213036036
120,268.5,216.841,654.855,-5.10944e-05,376.829,-0.191913,-0.330492,-0.0082377,0.0599698,-0.0500537,0.119394,-5.8329e-05,-0.000105022,0.092145,-0.008203863125775035,0.1268137954742221,-5.83272988969874e-05,0.061804479565867876,-0.00010501648538274733,-0.04882165514788095
121,270.5,217.102,655.649,-5.2181e-05,377.285,-0.192196,-0.33098,-0.00830128,0.0604084,-0.0504266,0.120272,-5.88154e-05,-0.000105899,0.0928464,-0.008266919519573479,0.12780357243515073,-5.881367040827534e-05,0.06227028915518118,-0.00010589339289879263,-0.04917628342812408
