,Time,S11,S22,S33,S12,S13,S23,LE11,LE22,LE33,LE12,LE13,LE23,SDV_EPBAR,E11,E12,E13,E22,E23,E33
0,0.0002705,0.000519365,0.0015581,-7.79048e-12,0.000899567,2.21372e-21,3.68811e-20,2.50301e-10,6.7501e-09,-3.0004e-09,1.1258e-08,2.76762e-26,4.61603e-25,0.0,2.5030089112476617e-10,1.1258000087721598e-08,0.0,6.750100034480511e-09,0.0,-3.0004000395322805e-09
1,0.000541,0.00103873,0.00311619,4.33681e-19,0.00179913,-3.08331e-20,-2.03577e-20,5.00425e-10,1.35001e-08,-6.00057e-09,2.25162e-08,-1.63975e-24,4.6912e-25,0.0,5.00425034744012e-10,2.2516200237632233e-08,0.0,1.3500100148888805e-08,0.0,-6.000569929831556e-09
2,0.00094675,0.00181778,0.00545333,6.50521e-19,0.00314848,1.87371e-20,6.55005e-20,8.75688e-10,2.36252e-08,-1.05009e-08,3.94034e-08,-1.73568e-24,1.95724e-24,0.0,8.756879665838824e-10,3.9403400764470575e-08,0.0,2.3625200240573463e-08,0.0,-1.0500899927379237e-08
3,0.0015554,0.00298635,0.00895905,1.73472e-18,0.00517251,4.73565e-20,4.89771e-20,1.4375e-09,3.88125e-08,-1.725e-08,6.47354e-08,4.1359e-25,7.16359e-25,0.0,1.4374998968946784e-09,6.473540214990692e-08,0.0,3.8812500768869995e-08,0.0,-1.7249999872959165e-08
4,0.0024683,0.00473921,0.0142176,0.0,0.00820854,1.00168e-19,-5.78319e-20,2.28125e-09,6.15937e-08,-2.7375e-08,1.02732e-07,-7.41318e-35,-1.284e-34,0.0,2.281250077729169e-09,1.027320053470504e-07,0.0,6.159370191660685e-08,0.0,-2.7374999600482397e-08
5,0.0038377,0.00736849,0.0221055,-8.67362e-19,0.0127626,9.88226e-21,-8.20239e-20,3.54688e-09,9.57656e-08,-4.25625e-08,1.59728e-07,7.653e-32,1.32554e-31,0.0,3.5468799008953056e-09,1.597280128162737e-07,0.0,9.576560455748506e-08,0.0,-4.256249908074494e-08
6,0.0058918,0.0113124,0.0339373,-6.07153e-18,0.0195937,-4.73565e-20,-4.89771e-20,5.44671e-09,1.47024e-07,-6.53456e-08,2.45219e-07,-1.14621e-23,6.61761e-24,0.0,5.446709971934638e-09,2.452190299706558e-07,0.0,1.4702401074373483e-07,0.0,-6.534559782167548e-08
7,0.008973,0.0172283,0.0516849,7.80626e-18,0.0298403,6.7121e-20,-1.15071e-19,8.29297e-09,2.2391e-07,-9.95156e-08,3.7346e-07,1.78232e-31,3.08708e-31,0.0,8.292970088419338e-09,3.734600697580248e-07,0.0,2.2391002496569e-07,0.0,-9.951559509779884e-08
8,0.013595,0.0261021,0.0783064,9.54098e-18,0.0452102,-1.3116e-19,-4.58503e-19,1.25671e-08,3.39241e-07,-1.50777e-07,5.65816e-07,2.77687e-23,-3.13146e-23,0.0,1.2567100027283118e-08,5.658161601473921e-07,0.0,3.392410574676319e-07,0.0,-1.5077698867216327e-07
9,0.020527,0.0394129,0.118239,6.07153e-18,0.0682651,-4.56883e-19,3.48265e-20,1.89735e-08,5.12236e-07,-2.27663e-07,8.54355e-07,1.1462e-23,-6.61759e-24,0.0,1.8973500104380037e-08,8.543553648987512e-07,0.0,5.122361312892565e-07,0.0,-2.276629741393421e-07
10,0.030926,0.059379,0.178137,-8.67362e-19,0.102847,-1.54031e-18,-2.55477e-19,2.8587e-08,7.71729e-07,-3.42996e-07,1.28716e-06,-2.95414e-23,1.77334e-24,0.0,2.858700032248862e-08,1.2871608283671065e-06,0.0,7.717292977993395e-07,0.0,-3.429959412049044e-07
11,0.046525,0.0893282,0.267985,-4.94396e-17,0.154721,-5.5365e-19,3.95969e-19,4.30043e-08,1.16097e-06,-5.15992e-07,1.93637e-06,-9.16942e-23,5.29396e-23,0.0,4.300430100911967e-08,1.9363718748444114e-06,0.0,1.1609706738191505e-06,0.0,-5.159918669006558e-07
12,0.069922,0.134252,0.402756,-2.1684e-17,0.232531,2.20493e-19,-2.49317e-18,6.46307e-08,1.74483e-06,-7.75487e-07,2.91018e-06,-5.29397e-23,-9.16942e-23,0.0,6.463070212348043e-08,2.910184234483637e-06,0.0,1.744831522154655e-06,0.0,-7.754866993003873e-07
13,0.105,0.201637,0.604912,1.99493e-17,0.349246,-1.22407e-18,-2.88023e-18,9.70596e-08,2.62061e-06,-1.16471e-06,4.37091e-06,-1.05879e-22,-1.83388e-22,0.0,9.705960479777787e-08,4.370919552521002e-06,0.0,2.62061343381248e-06,0.0,-1.1647093217659332e-06
14,0.1577,0.302715,0.908146,-9.1073e-17,0.524319,2.72256e-18,-2.74454e-19,1.45719e-07,3.93429e-06,-1.74858e-06,6.56199e-06,1.03982e-22,-2.43423e-22,0.0,1.4571901063575865e-07,6.562011529931411e-06,0.0,3.934297739371928e-06,0.0,-1.748578471238993e-06
15,0.2366,0.454332,1.363,-7.80626e-18,0.786926,-1.38381e-17,-7.8084e-18,2.18705e-07,5.90479e-06,-2.62436e-06,9.8486e-06,-2.11758e-22,-3.66776e-22,0.0,2.1870502386889257e-07,9.848648497623458e-06,0.0,5.904807433232406e-06,0.0,-2.624356556402141e-06
16,0.3551,0.681756,2.04527,4.77049e-17,1.18084,-5.94481e-18,-2.59681e-18,3.28182e-07,8.86055e-06,-3.93804e-06,1.47785e-05,5.57568e-28,9.65736e-28,0.0,3.281820537548441e-07,1.4778609202625859e-05,0.0,8.860589254755524e-06,0.0,-3.938032245964784e-06
17,0.5328,1.02289,3.06867,7.13839e-16,1.7717,-5.94479e-18,-2.59677e-18,4.92389e-07,1.32942e-05,-5.90853e-06,2.21733e-05,8.36561e-28,1.44897e-27,0.0,4.923891212538223e-07,2.2173545829451413e-05,0.0,1.3294288368159712e-05,0.0,-5.908512544672284e-06
18,0.7993,1.53459,4.60377,-2.85362e-16,2.65799,-3.98145e-18,-3.30361e-17,7.38697e-07,1.99445e-05,-8.86424e-06,3.32654e-05,7.35553e-27,1.27402e-26,0.0,7.38697272906208e-07,3.326595329955495e-05,0.0,1.9944698892881974e-05,0.0,-8.864200712777048e-06
19,1.199,2.30213,6.90638,-1.61763e-15,3.9874,2.21215e-18,-5.61484e-17,1.10814e-06,2.99199e-05,-1.32977e-05,4.99034e-05,-4.23505e-22,-7.33532e-22,0.0,1.1081406139368255e-06,4.990464519538662e-05,0.0,2.992034760462836e-05,0.0,-1.3297611585971758e-05
20,1.799,3.45341,10.3602,-3.17194e-15,5.98148,6.53581e-17,-1.44564e-17,1.66234e-06,4.48827e-05,-1.99479e-05,7.48599e-05,-1.09041e-26,-1.88864e-26,0.0,1.6623413816585497e-06,7.486270207235357e-05,0.0,4.4883707243537074e-05,0.0,-1.994770104196686e-05
21,2.698,5.18029,15.5409,-2.8485e-14,8.97252,-6.87866e-17,2.39178e-17,2.49357e-06,6.73263e-05,-2.99228e-05,0.000112294,-4.23518e-22,-7.33555e-22,0.0,2.4935731088859825e-06,0.00011230030520725798,0.0,6.732856646629592e-05,0.0,-2.9922352317468537e-05
22,4.047,31.1929,93.5787,-1.03264e-09,54.0277,-8.08225e-16,-1.7395e-16,1.5015e-05,0.000405403,-0.000180179,0.000676171,-3.02527e-20,1.82072e-21,0.0,1.5015112725613733e-05,0.0006763996551444329,0.0,0.00040548518690219915,0.0,-0.00018016276873877857
23,6.071,70.3658,211.097,-9.04826e-07,121.877,1.29847e-16,-7.14917e-16,3.38711e-05,0.000914519,-0.000406453,0.00152533,-2.03309e-20,-3.52142e-20,0.0,3.3871673632113186e-05,0.0015264939075101402,0.0,0.0009149373000056915,0.0,-0.00040637040916957634
24,8.776,120.849,362.416,0.000438147,209.279,0.00299875,0.00519218,5.46938e-05,0.00159324,-0.000717437,0.0026638,3.82581e-08,6.62994e-08,3.63913e-05,5.469529573320919e-05,0.002667351067631385,3.82581006874716e-08,0.001594509881167827,6.629940219049502e-08,-0.0007171797036105154
25,11.48,126.997,380.119,4.83837e-05,219.714,0.0467091,0.0808036,-3.20693e-05,0.00224723,-0.00123875,0.00390486,8.45407e-07,1.48377e-06,0.00094182,-3.206878578554395e-05,0.00391249389901116,8.454073574526433e-07,0.002249756913834222,1.483771100874165e-06,-0.0012379830659312585
26,14.19,132.05,394.664,6.1187e-05,228.289,0.0825138,0.142681,-0.000121199,0.00289987,-0.00176452,0.00514732,1.74519e-06,3.07604e-06,0.00186701,-0.00012119165569790535,0.005160590210494531,1.7451915228505754e-06,0.00290407869024345,3.076044730931926e-06,-0.001762964149828794
27,16.89,136.349,407.048,2.39303e-05,235.586,0.112063,0.193712,-0.000211903,0.00355135,-0.00229317,0.00639036,2.71794e-06,4.80609e-06,0.00280544,-0.00021188055014498275,0.0064108219135752265,2.717943693664182e-06,0.0035576635150329494,4.806101549181818e-06,-0.0022905426943453655
28,19.6,140.097,417.855,9.43292e-06,241.952,0.136994,0.23674,-0.000303703,0.00420178,-0.00282378,0.00763351,3.75488e-06,6.65644e-06,0.00375324,-0.00030365688691225134,0.007662719513862326,3.754887049511879e-06,0.004210619854288833,6.656462154142062e-06,-0.002819796883286263
29,22.3,143.426,427.459,2.89794e-06,247.607,0.158406,0.273676,-0.000396299,0.00485124,-0.00335575,0.00887648,4.848e-06,8.61155e-06,0.00470796,-0.0003962204839236261,0.008915992773512071,4.848011751601433e-06,0.0048630263164779475,8.611587079432326e-06,-0.003350125763904477
30,25.01,146.423,436.114,-6.4827e-07,252.702,0.17706,0.305843,-0.00048949,0.00549979,-0.00388867,0.0101191,5.99025e-06,1.0658e-05,0.00566792,-0.0004893702193145,0.010170471223037048,5.990267941680116e-06,0.005514941609176205,1.0658056796675197e-05,-0.0038811189138805435
31,27.71,149.153,444.001,-2.99147e-06,257.342,0.193504,0.334189,-0.000583135,0.00614747,-0.00442226,0.0113611,7.17557e-06,1.27842e-05,0.00663192,-0.0005829650098299055,0.011425882397255949,7.175595744479679e-06,0.00616640447351835,1.2784281718136725e-05,-0.004412496206226968
32,30.42,151.661,451.253,-4.85093e-06,261.607,0.208143,0.359414,-0.000677132,0.00679432,-0.00495632,0.0126025,8.39872e-06,1.49803e-05,0.00759911,-0.0006769027978635878,0.012682246151300092,8.398755269256597e-06,0.0068174537551650705,1.4980412205156668e-05,-0.004944057712999439
33,33.12,153.982,457.969,-6.5388e-06,265.557,0.22128,0.382047,-0.000771405,0.00744035,-0.00549067,0.0138431,9.65521e-06,1.7238e-05,0.0085688,-0.0007711075436542814,0.013939359371972326,9.65525661178468e-06,0.007468098180094529,1.72381485752382e-05,-0.0054756238219371145
34,35.83,156.145,464.228,-8.19718e-06,269.236,0.233153,0.402498,-0.000865895,0.00808559,-0.00602521,0.015083,1.09412e-05,1.95501e-05,0.00954051,-0.0008655202211053092,0.015197322496735666,1.0941259855234975e-05,0.008118366662821286,1.9550291104453166e-05,-0.006007094823070158
35,38.53,158.169,470.093,-9.89204e-06,272.682,0.243947,0.421086,-0.000960556,0.00873006,-0.00655983,0.016322,1.22533e-05,2.19103e-05,0.0105138,-0.0009600948137623577,0.016455931526593526,1.225337507193558e-05,0.008768278108304495,2.191054003231052e-05,-0.006538361284544103
36,41.24,160.074,475.612,-1.16534e-05,275.925,0.253811,0.438071,-0.00105535,0.00937377,-0.00709445,0.01756,1.35886e-05,2.43132e-05,0.0114884,-0.0010547933140389043,0.017715083223904804,1.358869232537252e-05,0.009417841379362635,2.431349556819562e-05,-0.0070693437962520145
37,43.94,161.873,480.827,-1.34937e-05,278.988,0.262865,0.453659,-0.00115025,0.0100167,-0.00762902,0.0187972,1.49447e-05,2.67541e-05,0.0124639,-0.0011495887160403173,0.018974979536021674,1.4944811672634728e-05,0.010067035062805596,2.6754457894018202e-05,-0.00759999288995894
38,46.65,163.577,485.772,-1.54165e-05,281.892,0.271209,0.468022,-0.00124524,0.010659,-0.00816347,0.0200334,1.63191e-05,2.9229e-05,0.0134403,-0.00124446501038733,0.02023541532056705,1.631923315725814e-05,0.01071600951526075,2.9229427171317823e-05,-0.008130239366022862
39,49.35,165.198,490.475,-1.74209e-05,284.653,0.278924,0.481302,-0.00134028,0.0113005,-0.00869776,0.0212686,1.771e-05,3.1734e-05,0.0144172,-0.001339382225895025,0.021496388722419546,1.7710156823058654e-05,0.011364591845905103,3.173450352877971e-05,-0.00866004391319286
40,52.06,166.742,494.96,-1.95037e-05,287.285,0.286079,0.493619,-0.00143537,0.0119413,-0.00923186,0.0225027,1.91156e-05,3.4266e-05,0.0153946,-0.0014343403491836604,0.022757795606766384,1.911578270430425e-05,0.012012881966330768,3.426658708605146e-05,-0.009189377212697858
41,54.76,168.218,499.247,-2.16609e-05,289.801,0.292733,0.505072,-0.00153049,0.0125814,-0.00976574,0.0237359,2.05343e-05,3.68222e-05,0.0163723,-0.0015293193974544872,0.024019838536037508,2.0534510830172437e-05,0.01266087878133293,3.6822877945486e-05,-0.009718210008804018
42,57.47,169.632,503.356,-2.38879e-05,292.211,0.298936,0.515748,-0.00162562,0.0132208,-0.0102994,0.024968,2.19647e-05,3.93999e-05,0.0173501,-0.0016242993955050133,0.0252823109655278,2.1964941225860457e-05,0.013308581195620839,3.94006761863519e-05,-0.010246542801272907
43,60.17,170.989,507.3,-2.618e-05,294.525,0.30473,0.52572,-0.00172077,0.0138595,-0.0108327,0.0261991,2.34056e-05,4.19968e-05,0.0183281,-0.0017192903241526336,0.02654531330012677,2.340587391325144e-05,0.01395598811382115,4.1997681877958826e-05,-0.01077423759767282
44,62.88,172.293,511.093,-2.85327e-05,296.749,0.310152,0.535052,-0.00181591,0.0144975,-0.0113658,0.0274291,2.48558e-05,4.46108e-05,0.0193061,-0.0018142622329856417,0.027808740884163186,2.4856108908011265e-05,0.01460309844048191,4.4611795076532346e-05,-0.011301453309775389
45,65.58,173.549,514.748,-3.09418e-05,298.892,0.315234,0.543801,-0.00191105,0.0151348,-0.0118985,0.028658,2.63143e-05,4.72401e-05,0.0202839,-0.0019092251066211707,0.02907259145976715,2.6314646224268046e-05,0.015249911080073675,4.724121583099539e-05,-0.011827992769360862
46,68.29,174.761,518.274,-3.3403e-05,300.959,0.320006,0.552013,-0.00200617,0.0157715,-0.0124309,0.0298859,2.77802e-05,4.98828e-05,0.0212617,-0.002004158986002258,0.03033696579858347,2.778058587327159e-05,0.01589652652664153,4.988404416761405e-05,-0.012353955522301896
47,70.99,175.931,521.681,-3.59126e-05,302.956,0.32449,0.559733,-0.00210127,0.0164075,-0.012963,0.0311126,2.92525e-05,5.25376e-05,0.0222392,-0.002099063877683549,0.03160165569348439,2.9252927858491873e-05,0.01654284222411828,5.253898012380631e-05,-0.012879342191049248
48,73.7,177.063,524.978,-3.8467e-05,304.888,0.32871,0.566998,-0.00219634,0.0170428,-0.0134947,0.0323383,3.07305e-05,5.52028e-05,0.0232165,-0.0021939298101572025,0.03286686506803527,3.073097218675436e-05,0.01718885707667317,5.520432370254014e-05,-0.01340405473761419
49,76.4,178.158,528.171,-4.10626e-05,306.759,0.332685,0.573841,-0.00229138,0.0176775,-0.0140261,0.0335629,3.22135e-05,5.78772e-05,0.0241935,-0.0022887567928183694,0.03413248861412921,3.2214018860443616e-05,0.017834671771873367,5.7878874917483e-05,-0.013928192547176366
50,79.11,179.221,531.268,-4.36965e-05,308.572,0.336432,0.580292,-0.00238639,0.0183115,-0.0145571,0.0347863,3.37007e-05,6.05596e-05,0.0251701,-0.0023835448350584265,0.03539842051334818,3.3701267875052565e-05,0.01848018355939085,6.0561433769645845e-05,-0.014451657684640518
51,81.81,180.251,534.274,-4.63656e-05,310.333,0.339967,0.586379,-0.00248136,0.0189448,-0.0150877,0.0360087,3.51917e-05,6.32488e-05,0.0261464,-0.0024782839710463245,0.036664865436020655,3.5192319235211045e-05,0.019125391343119302,6.32508002476051e-05,-0.01497445092576044
52,84.52,181.253,537.195,-4.9067e-05,312.043,0.343303,0.592125,-0.00257628,0.0195775,-0.0156179,0.0372299,3.66858e-05,6.59439e-05,0.0271223,-0.002572964238735098,0.03793161388886812,3.66864729322014e-05,0.019770396003929713,6.594607434684541e-05,-0.015496573045074569
53,87.22,182.226,540.035,-5.17983e-05,313.706,0.346453,0.597551,-0.00267117,0.0202095,-0.0161477,0.03845,3.81825e-05,6.86438e-05,0.0280977,-0.002667605599828149,0.03919876712060777,3.8183228960875226e-05,0.020415094597501016,6.864615603952018e-05,-0.016018024815904086
54,89.93,183.174,542.801,-5.45569e-05,315.325,0.349429,0.602678,-0.002766,0.0208409,-0.0166771,0.039669,3.96814e-05,7.13478e-05,0.0290726,-0.0027621781465608786,0.040466322835974955,3.968218731720263e-05,0.021059588133427676,7.135034531491335e-05,-0.016538807010356593
55,92.63,184.096,545.495,-5.73404e-05,316.901,0.352241,0.607522,-0.00286078,0.0214716,-0.0172061,0.0408869,4.11819e-05,7.40549e-05,0.030047,-0.0028566918682402243,0.041734278735574115,4.118274798603494e-05,0.021703773538176874,7.405764213186394e-05,-0.01705892039932766
56,95.34,184.995,548.121,-6.01467e-05,318.438,0.354899,0.612101,-0.00295551,0.0221018,-0.0177347,0.0421037,4.26836e-05,7.67644e-05,0.0310209,-0.0029511467798919444,0.04300263251588543,4.268451095779113e-05,0.022347854184756155,7.676734646189232e-05,-0.0175783657525026
57,98.04,185.872,550.684,-6.29736e-05,319.937,0.35741,0.616429,-0.00305019,0.0227312,-0.0182628,0.0433194,4.41862e-05,7.94755e-05,0.0319943,-0.0030455428965322495,0.04427138186926949,4.4187176224452784e-05,0.022991522465338754,7.94786582611895e-05,-0.018097045648067578
58,100.7,186.728,553.185,-6.58192e-05,321.4,0.359783,0.620519,-0.00314481,0.0233601,-0.0187906,0.0445339,4.56892e-05,8.21877e-05,0.0329671,-0.003139870264565081,0.04554041992992519,4.569024376732678e-05,0.023635084180587018,8.219107750151444e-05,-0.018615157285685746
59,103.5,187.563,555.629,-6.86816e-05,322.829,0.362024,0.624384,-0.00323938,0.0239882,-0.0193179,0.0457473,4.71924e-05,8.49002e-05,0.0339393,-0.00323413886947288,0.046809848682139554,4.7193513578847046e-05,0.024278231336181344,8.490380412395915e-05,-0.019132505102510078
60,106.2,188.38,558.018,-7.1559e-05,324.226,0.364141,0.628035,-0.00333388,0.0246158,-0.0198448,0.0469596,4.86953e-05,8.76124e-05,0.0349109,-0.003328328792805868,0.0480796658058289,4.8696485635435494e-05,0.02492127011863099,8.761623807851393e-05,-0.01964918805349425
61,108.9,189.178,560.355,-7.44497e-05,325.592,0.36614,0.631482,-0.00342833,0.0252428,-0.0203713,0.0481707,5.01978e-05,9.03239e-05,0.0358819,-0.0034224599867357375,0.04934976404182878,5.019905993064455e-05,0.02556409726024489,9.032797932628789e-05,-0.02016520690210233
62,111.6,189.959,562.641,-7.7352e-05,326.928,0.368025,0.634735,-0.00352272,0.0258691,-0.0208973,0.0493807,5.16994e-05,9.3034e-05,0.0368523,-0.0035165225013873425,0.050620245742738934,5.1700736437121364e-05,0.026206609235981837,9.303832779683496e-05,-0.02068046447864913
63,114.3,190.724,564.88,-8.02643e-05,328.237,0.369803,0.637803,-0.00361704,0.0264948,-0.0214229,0.0505896,5.32e-05,9.57424e-05,0.037822,-0.003610506390635093,0.0518911085760827,5.3201415145087694e-05,0.02684890763347969,9.574698344994026e-05,-0.02119505957908019
64,117.0,191.472,567.073,-8.31852e-05,329.518,0.371477,0.640694,-0.0037113,0.0271198,-0.021948,0.0517974,5.46992e-05,9.84484e-05,0.0387911,-0.003704421638007771,0.053162350205302245,5.4700696028531226e-05,0.027490888798966884,9.845324620272322e-05,-0.02170889513396357
65,119.7,192.206,569.222,-8.61132e-05,330.773,0.373053,0.643416,-0.00380549,0.0277443,-0.0224727,0.0530041,5.61968e-05,0.000101152,0.0397596,-0.0037982582992266423,0.05443396828976321,5.6198379069671844e-05,0.028132757261588592,0.00010115711603608801,-0.02222206983353081
66,122.4,192.924,571.33,-8.9047e-05,332.004,0.374535,0.645974,-0.00389962,0.0283681,-0.022997,0.0542096,5.76926e-05,0.000103852,0.0407273,-0.0038920263559100166,0.055705854914170905,5.76942642500633e-05,0.028774306553988938,0.00010385739280560635,-0.022734584434874083
67,125.1,193.629,573.397,-9.1985e-05,333.211,0.375925,0.648377,-0.00399369,0.0289913,-0.0235208,0.055414,5.91863e-05,0.000106548,0.0416944,-0.003985725825767283,0.05697811304588374,5.918805154370155e-05,0.029415638520117415,0.00010655367643974678,-0.023246342018534816
68,127.8,194.321,575.425,-9.49262e-05,334.396,0.377228,0.650631,-0.00408768,0.0296139,-0.0240441,0.0566173,6.06778e-05,0.000109241,0.0426608,-0.004079336808079814,0.058250740331962314,6.0679640935035195e-05,0.030056752254655983,0.00010924696701541947,-0.023757343492559868
69,130.5,194.999,577.417,-9.78691e-05,335.558,0.378448,0.65274,-0.00418162,0.0302359,-0.024567,0.0578194,6.21669e-05,0.000111929,0.0436264,-0.004172889200955376,0.05952362846304493,6.216883240184323e-05,0.0306976468521154,0.00011193526428421308,-0.024267687336621102
70,133.2,195.665,579.373,-0.000100813,336.699,0.379586,0.65471,-0.00427548,0.0308573,-0.0250895,0.0590204,6.36532e-05,0.000114613,0.0445914,-0.004266353147243218,0.0607968807757977,6.36552259078993e-05,0.0313383214068379,0.00011461956832081732,-0.02477737430267235
71,135.9,196.319,581.294,-0.000103756,337.82,0.380647,0.656546,-0.00436927,0.031478,-0.0256115,0.0602203,6.51368e-05,0.000117291,0.0455557,-0.004359738626601217,0.06207049490502925,6.513892144743849e-05,0.03197867181512515,0.00011729787885839116,-0.025286307670121078
72,138.6,196.962,583.182,-0.000106697,338.922,0.381632,0.658252,-0.004463,0.0320982,-0.0261331,0.0614191,6.66173e-05,0.000119964,0.0465192,-0.004453055614930701,0.06334446848151187,6.661951898156993e-05,0.03261890350270935,0.00011997119596851569,-0.025794585761590105
73,141.3,197.593,585.038,-0.000109635,340.005,0.382544,0.659834,-0.00455666,0.0327178,-0.0266542,0.0626168,6.80947e-05,0.000122632,0.047482,-0.004546294175311827,0.06461879913198798,6.809701849674887e-05,0.0332589124296101,0.00012263951961122288,-0.02630211195551524
74,144.0,198.214,586.864,-0.000112568,341.069,0.383387,0.661295,-0.00465025,0.0333367,-0.0271749,0.0638133,6.95687e-05,0.000125294,0.0484441,-0.0046394543281426115,0.06589337788983296,6.957111995808951e-05,0.03389859429964903,0.00012530184962100677,-0.0268089844701086
75,146.7,198.825,588.66,-0.000115487,342.116,0.384162,0.662639,-0.00474377,0.0339551,-0.0276951,0.0650087,7.10392e-05,0.000127949,0.0494054,-0.004732536093802753,0.06716830870809165,7.104172334382319e-05,0.03453815492212686,0.00012795718582236937,-0.02731510678256044
76,149.4,199.425,590.427,-0.000116529,343.146,0.384886,0.663865,-0.00483722,0.0345728,-0.0282148,0.066203,7.2506e-05,0.000130598,0.050366,-0.004825539492653186,0.06844358920134486,7.250862862351326e-05,0.03517738654678415,0.0001306065282900004,-0.02782047978901514
77,152.1,200.016,592.166,-7.94683e-05,344.16,0.38566,0.66508,-0.00493059,0.03519,-0.0287341,0.0673962,7.39699e-05,0.000133243,0.0513259,-0.004918454594221688,0.06971921698016748,7.39726358405246e-05,0.035816495238415014,0.00013325187724277932,-0.028325201551512746
78,154.8,200.598,593.878,-0.000124272,345.158,0.386321,0.666394,-0.0050239,0.0358065,-0.0292529,0.0685883,7.54296e-05,0.000135885,0.052285,-0.005011301321392159,0.0709951896511325,7.543244488372736e-05,0.036455272990739696,0.00013589423278492774,-0.028829175694751075
79,157.6,201.172,595.563,-0.000127197,346.141,0.387056,0.667671,-0.00511712,0.0364225,-0.0297713,0.0697792,7.68876e-05,0.000138522,0.0532433,-0.005104049844807168,0.07227139758967405,7.68905559271893e-05,0.03709392612387208,0.00013853159461540976,-0.029332500177093213
80,160.3,201.736,597.224,-0.000130144,347.11,0.387797,0.668959,-0.00521028,0.0370379,-0.0302892,0.0709691,7.83434e-05,0.000141154,0.0542009,-0.005196730034413344,0.07354805272100573,7.834646892423969e-05,0.037732350148932614,0.00014116396269470144,-0.029835078721303865
81,163.0,202.293,598.859,-0.000133107,348.064,0.388544,0.670258,-0.00530336,0.0376526,-0.0308067,0.0721578,7.97968e-05,0.000143782,0.0551578,-0.005289322013484088,0.07482493805772128,7.979998384932685e-05,0.038370440321491506,0.00014379233712724648,-0.030337009182357377
82,165.7,202.842,600.471,-0.000136088,349.004,0.389298,0.671567,-0.00539636,0.0382668,-0.0313237,0.0733454,8.12481e-05,0.000146407,0.0561138,-0.005381825805043983,0.0761021584174928,8.125140071624237e-05,0.03900840334432565,0.0001464177180279247,-0.030838195380814226
83,168.4,203.383,602.059,-0.000139087,349.931,0.390058,0.672889,-0.00548929,0.0388804,-0.0318403,0.074532,8.26973e-05,0.000149028,0.0570691,-0.005474251377351025,0.07737981912485448,8.270071951610447e-05,0.039646134536538424,0.00014903910522412467,-0.03133873506854734
84,171.1,203.916,603.625,-0.000142104,350.845,0.390824,0.674221,-0.00558214,0.0394934,-0.0323564,0.0757174,8.41446e-05,0.000151645,0.0580237,-0.005566588806279138,0.07865770241423342,8.414814025625716e-05,0.04028363299032267,0.00015165649868431608,-0.031838532163644295
85,173.8,204.443,605.169,-0.000145139,351.747,0.391597,0.675563,-0.00567491,0.0401057,-0.032872,0.0769017,8.55898e-05,0.000154259,0.0589774,-0.005658838114785292,0.07993591347448392,8.559346291137082e-05,0.040920793705649494,0.00015427089853137232,-0.03233758754892646
86,176.5,204.962,606.692,-0.000148193,352.636,0.392376,0.676917,-0.0057676,0.0407175,-0.0333872,0.0780849,8.70333e-05,0.00015687,0.0599304,-0.005750999325803363,0.08121444988028603,8.703708750745776e-05,0.041557823894903256,0.00015688230474197873,-0.03283599882205279
87,179.2,205.474,608.194,-0.000151266,353.513,0.393161,0.678282,-0.00586022,0.0413288,-0.0339019,0.079267,8.84749e-05,0.000159477,0.0608826,-0.005843082403812372,0.08249330920237297,8.847881401941038e-05,0.04219472284097958,0.00015948971713286575,-0.03333367004678267
88,181.9,205.98,609.676,-0.000154359,354.379,0.393952,0.679657,-0.00595276,0.0419394,-0.0344161,0.0804481,8.99149e-05,0.000162082,0.061834,-0.005935077428291358,0.08377259738479093,8.991894246590526e-05,0.04283128126025404,0.0001620951359970757,-0.03383060210146427
89,184.6,206.479,611.139,-0.00015747,355.234,0.39475,0.681043,-0.00604522,0.0425494,-0.0349299,0.081628,9.13532e-05,0.000164683,0.0627846,-0.006026984422106585,0.08505209536383873,9.135737283072487e-05,0.04346760240003955,0.00016469656098982988,-0.03432689243020104
90,187.3,206.972,612.583,-0.000160602,356.077,0.395554,0.682439,-0.0061376,0.0431589,-0.0354433,0.0828068,9.27899e-05,0.000167282,0.0637345,-0.0061188034081013365,0.08633190894778098,9.279420511587588e-05,0.04410378976210594,0.00016729599241394055,-0.03482254175955768
91,190.0,207.459,614.008,-0.000163753,356.91,0.396363,0.683847,-0.0062299,0.0437678,-0.0359562,0.0839846,9.42251e-05,0.000169878,0.0646836,-0.006210534409095914,0.08761214445283194,9.422953932425315e-05,0.04473973815453158,0.00016989243008458388,-0.03531745434670652
92,192.7,207.94,615.415,-0.000166925,357.733,0.397179,0.685264,-0.00632212,0.044376,-0.0364686,0.0851612,9.56589e-05,0.000172471,0.0656319,-0.006302177447887303,0.08889258203570671,9.566347545852949e-05,0.04537534213085359,0.00017248587397800108,-0.035811631064212035
93,195.4,208.415,616.805,-0.000170117,358.545,0.398001,0.686693,-0.00641426,0.0449837,-0.0369806,0.0863368,9.70912e-05,0.000175062,0.0665794,-0.006393732547249176,0.09017343689411805,9.70959135031535e-05,0.046010809793559204,0.0001750773242461534,-0.03630516915257498
94,198.1,208.884,618.178,-0.00017333,359.348,0.398829,0.688131,-0.00650632,0.0455909,-0.0374921,0.0875113,9.85223e-05,0.000177651,0.0675261,-0.006485199729931668,0.09145459781022347,9.852715348124264e-05,0.04664614042412518,0.00017766678087349774,-0.03679797301322163
95,200.8,209.348,619.534,-0.000176564,360.141,0.399663,0.689581,-0.0065983,0.0461974,-0.0380032,0.0886847,9.99521e-05,0.000180237,0.068472,-0.006576579018662709,0.09273606232348985,9.99570953776896e-05,0.04728112384755123,0.000180253243664108,-0.03729013978528217
96,203.5,209.806,620.873,-0.000179819,360.924,0.400503,0.69104,-0.0066902,0.0468034,-0.0385137,0.089857,0.000101381,0.000182821,0.0694171,-0.006667870436145917,0.09401782796949232,0.00010138613922738848,0.04791596854711866,0.00018283771277749494,-0.037781477744237235
97,206.2,210.259,622.197,-0.000183096,361.699,0.401348,0.69251,-0.00678201,0.0474087,-0.0390239,0.0910283,0.000102808,0.000185403,0.0703615,-0.006759064072653254,0.09530000180991349,0.00010281328492367514,0.048550464093584544,0.00018542018819855954,-0.03827227642090314
98,208.9,210.707,623.506,-0.000186394,362.465,0.4022,0.69399,-0.00687375,0.0480136,-0.0395336,0.0921984,0.000104234,0.000187984,0.071305,-0.0068501798165722105,0.09658236244080798,0.00010423943255211121,0.04918492414241071,0.0001880016700994691,-0.03876234413724433
99,211.7,211.15,624.799,-0.000189714,363.222,0.403058,0.695481,-0.00696541,0.0486178,-0.0400428,0.0933675,0.00010566,0.000190562,0.0722478,-0.006941207757215961,0.09786512657440549,0.00010566558221447586,0.049819033218638786,0.0001905801580914801,-0.039251681755678836
100,214.4,211.588,626.078,-0.000193057,363.97,0.403921,0.696981,-0.00705698,0.0492214,-0.0405516,0.0945355,0.000107084,0.000193139,0.0731897,-0.0070321379875174506,0.09914818220086574,0.00010708973369633057,0.05045289526741126,0.00019315765253757888,-0.039740386163057306
101,217.1,212.022,627.342,-0.000196422,364.71,0.404791,0.698492,-0.00714847,0.0498245,-0.0410599,0.0957024,0.000108507,0.000195714,0.0741309,-0.0071229804615605685,0.1004315268364806,0.0001085128870974561,0.0510866144873694,0.0001957331532345119,-0.04022836209518099
102,219.8,212.45,628.593,-0.00019981,365.442,0.405666,0.700013,-0.00723988,0.050427,-0.0415678,0.0968683,0.00010993,0.000198287,0.0750712,-0.007213735201908045,0.10171526816520893,0.00010993604252385047,0.051720084986423,0.00019830666016673604,-0.04071570633852595
103,222.5,212.874,629.829,-0.00020322,366.166,0.406547,0.701544,-0.00733121,0.051029,-0.0420752,0.0980331,0.000111352,0.000200859,0.0760108,-0.007304402231099183,0.1029992937809101,0.0001113581998641866,0.05235341108961511,0.00020087917351974127,-0.0412023237238589
104,225.2,213.294,631.052,-0.000206654,366.883,0.407434,0.703086,-0.00742245,0.0516303,-0.0425822,0.0991968,0.000112772,0.00020343,0.0769496,-0.007394971645600212,0.10428360118841407,0.00011277835900114219,0.052986381479179556,0.00020345069328575605,-0.04168831093756198
105,227.9,213.709,632.262,-0.000210112,367.592,0.408327,0.704637,-0.00751362,0.0522311,-0.0430887,0.10036,0.000114192,0.000205999,0.0778876,-0.007485463320909491,0.10556885122982496,0.00011419852015470688,0.05361920577855628,0.0002060202192510907,-0.042173572905104595
106,230.6,214.12,633.459,-0.000213593,368.293,0.409225,0.706198,-0.0076047,0.0528314,-0.0435947,0.101521,0.000115612,0.000208567,0.0788248,-0.007575857428300026,0.10685316206427964,0.00011561868332488068,0.054251883266933865,0.0002085887516090068,-0.04265811047887025
107,233.3,214.527,634.644,-0.000217098,368.987,0.41013,0.70777,-0.0076957,0.053431,-0.0441003,0.102682,0.000117031,0.000211134,0.0797612,-0.007666163916266511,0.10813896484952323,0.00011703784839478537,0.05488420224642665,0.00021115629035173278,-0.043142020195527375
108,236.0,214.93,635.816,-0.000220627,369.674,0.41104,0.709351,-0.00778661,0.0540301,-0.0446055,0.103841,0.000118449,0.0002137,0.0806968,-0.00775637288479436,0.10942404246841231,0.00011845601535975803,0.05551637271974963,0.0002137228354717191,-0.043625302759470075
109,238.7,215.328,636.976,-0.000224181,370.355,0.411955,0.710942,-0.00787744,0.0546287,-0.0451102,0.105,0.000119866,0.000216265,0.0816315,-0.007846494280519756,0.1107106103557054,0.00011987318421602389,0.05614839396554627,0.00021628838696119423,-0.04410786328477556
110,241.4,215.723,638.125,-0.000227759,371.028,0.412877,0.712543,-0.00796819,0.0552266,-0.0456144,0.106157,0.000121283,0.000218829,0.0825655,-0.007936528125816356,0.11199644624450822,0.00012129035508046115,0.056780053906219985,0.00021885294481216455,-0.04458970261820361
111,244.1,216.114,639.262,-0.000231362,371.695,0.413804,0.714155,-0.00805886,0.055824,-0.0461182,0.107313,0.0001227,0.000221393,0.0834988,-0.008026474443033282,0.11328265742319399,0.00012270752795284778,0.05741156292338556,0.00022141750923898584,-0.04507091709791888
112,246.8,216.501,640.387,-0.00023499,372.355,0.414737,0.715775,-0.00814945,0.0564209,-0.0466215,0.108469,0.000124116,0.000223955,0.0844312,-0.008116333254497121,0.11457035632173862,0.0001241237027094222,0.058042920295156675,0.00022398007979340662,-0.04555141197866397
113,249.5,216.885,641.502,-0.000238644,373.009,0.415675,0.717406,-0.00823995,0.0570171,-0.0471244,0.109623,0.000125532,0.000226517,0.0853628,-0.00820609466457256,0.11585731294408341,0.00012553987947128142,0.05867391356463969,0.00022654265691302022,-0.04603128349977226
114,252.2,217.265,642.605,-0.000242323,373.656,0.416619,0.719047,-0.00833037,0.0576129,-0.0476269,0.110776,0.000126947,0.000229078,0.0862936,-0.00829576861527248,0.11714463842643341,0.00012695505811133323,0.0593048594224479,0.00022910424036881594,-0.04651053235845326
115,254.9,217.641,643.698,-0.000246029,374.298,0.417569,0.720697,-0.0084207,0.058208,-0.0481289,0.111928,0.000128362,0.000231639,0.0872236,-0.00838534521270573,0.11843233061819447,0.00012837023875400533,0.05993543935473955,0.0002316658303849195,-0.04698906394973079
116,257.6,218.014,644.781,-0.00024976,374.933,0.418524,0.722357,-0.00851096,0.0588026,-0.0486304,0.113079,0.000129777,0.000234199,0.0881528,-0.008474844312291507,0.1197203873651922,0.00012978542139929772,0.0605658643737641,0.00023422642672699112,-0.047466879111993654
117,260.3,218.384,645.853,-0.000253518,375.563,0.419485,0.724027,-0.00860113,0.0593967,-0.0491315,0.114229,0.000131191,0.000236759,0.0890813,-0.008564246104839635,0.12100880650967594,0.00013119960591567725,0.0611961337567708,0.00023678702962426357,-0.04794407388773425
118,263.0,218.75,646.916,-0.000257302,376.187,0.420452,0.725707,-0.00869121,0.0599901,-0.0496322,0.115378,0.000132606,0.000239318,0.0900089,-0.008653550615214889,0.12229758589032236,0.00013261479256421183,0.0618260344155841,0.00023934663883729002,-0.04842064896941045
119,265.8,219.113,647.968,-0.000261113,376.805,0.421424,0.727396,-0.00878122,0.0605831,-0.0501324,0.116526,0.00013402,0.000241877,0.0909357,-0.00874277769339904,0.12358672334224208,0.00013402898108139105,0.0624558839859326,0.00024190625460018822,-0.04889650993804606
120,268.5,219.473,649.011,-0.000264951,377.417,0.422402,0.729095,-0.00887114,0.0611755,-0.0506321,0.117673,0.000135434,0.000244436,0.0918618,-0.008831907535491235,0.1248762166969819,0.000135443171598304,0.06308546931636894,0.00024446587691340227,-0.04937165762649309
121,270.5,219.742,649.793,-0.000269327,377.876,0.423144,0.730385,-0.00893902,0.0616227,-0.0510094,0.118539,0.000136502,0.000246369,0.0925609,-0.008899185742159532,0.1258507814262626,0.00013651131682190787,0.06356098745617844,0.0002463993513346363,-0.0497302620450929
