,Time,S11,S22,S33,S12,S13,S23,LE11,LE22,LE33,LE12,LE13,LE23,SDV_EPBAR,E11,E12,E13,E22,E23,E33
0,0.0002705,0.000519365,0.0015581,-7.79048e-12,0.000899567,2.21372e-21,3.68811e-20,2.50301e-10,6.7501e-09,-3.0004e-09,1.1258e-08,2.76762e-26,4.61603e-25,0.0,2.5030089112476617e-10,1.1258000087721598e-08,0.0,6.750100034480511e-09,0.0,-3.0004000395322805e-09
1,0.000541,0.00103873,0.00311619,4.33681e-19,0.00179913,-3.08331e-20,-2.03577e-20,5.00425e-10,1.35001e-08,-6.00057e-09,2.25162e-08,-1.63975e-24,4.6912e-25,0.0,5.00425034744012e-10,2.2516200237632233e-08,0.0,1.3500100148888805e-08,0.0,-6.000569929831556e-09
2,0.00094675,0.00181778,0.00545333,6.50521e-19,0.00314848,1.87371e-20,6.55005e-20,8.75688e-10,2.36252e-08,-1.05009e-08,3.94034e-08,-1.73568e-24,1.95724e-24,0.0,8.756879665838824e-10,3.9403400764470575e-08,0.0,2.3625200240573463e-08,0.0,-1.0500899927379237e-08
3,0.0015554,0.00298635,0.00895905,1.73472e-18,0.00517251,4.73565e-20,4.89771e-20,1.4375e-09,3.88125e-08,-1.725e-08,6.47354e-08,4.1359e-25,7.16359e-25,0.0,1.4374998968946784e-09,6.473540214990692e-08,0.0,3.8812500768869995e-08,0.0,-1.7249999872959165e-08
4,0.0024683,0.00473921,0.0142176,0.0,0.00820854,1.00168e-19,-5.78319e-20,2.28125e-09,6.15937e-08,-2.7375e-08,1.02732e-07,-7.41318e-35,-1.284e-34,0.0,2.281250077729169e-09,1.027320053470504e-07,0.0,6.159370191660685e-08,0.0,-2.7374999600482397e-08
5,0.0038377,0.00736849,0.0221055,-8.67362e-19,0.0127626,9.88226e-21,-8.20239e-20,3.54688e-09,9.57656e-08,-4.25625e-08,1.59728e-07,7.653e-32,1.32554e-31,0.0,3.5468799008953056e-09,1.597280128162737e-07,0.0,9.576560455748506e-08,0.0,-4.256249908074494e-08
6,0.0058918,0.0113124,0.0339373,-6.07153e-18,0.0195937,-4.73565e-20,-4.89771e-20,5.44671e-09,1.47024e-07,-6.53456e-08,2.45219e-07,-1.14621e-23,6.61761e-24,0.0,5.446709971934638e-09,2.452190299706558e-07,0.0,1.4702401074373483e-07,0.0,-6.534559782167548e-08
7,0.008973,0.0172283,0.0516849,7.80626e-18,0.0298403,6.7121e-20,-1.15071e-19,8.29297e-09,2.2391e-07,-9.95156e-08,3.7346e-07,1.78232e-31,3.08708e-31,0.0,8.292970088419338e-09,3.734600697580248e-07,0.0,2.2391002496569e-07,0.0,-9.951559509779884e-08
8,0.013595,0.0261021,0.0783064,9.54098e-18,0.0452102,-1.3116e-19,-4.58503e-19,1.25671e-08,3.39241e-07,-1.50777e-07,5.65816e-07,2.77687e-23,-3.13146e-23,0.0,1.2567100027283118e-08,5.658161601473921e-07,0.0,3.392410574676319e-07,0.0,-1.5077698867216327e-07
9,0.020527,0.0394129,0.118239,6.07153e-18,0.0682651,-4.56883e-19,3.48265e-20,1.89735e-08,5.12236e-07,-2.27663e-07,8.54355e-07,1.1462e-23,-6.61759e-24,0.0,1.8973500104380037e-08,8.543553648987512e-07,0.0,5.122361312892565e-07,0.0,-2.276629741393421e-07
10,0.030926,0.059379,0.178137,-8.67362e-19,0.102847,-1.54031e-18,-2.55477e-19,2.8587e-08,7.71729e-07,-3.42996e-07,1.28716e-06,-2.95414e-23,1.77334e-24,0.0,2.858700032248862e-08,1.2871608283671065e-06,0.0,7.717292977993395e-07,0.0,-3.429959412049044e-07
11,0.046525,0.0893282,0.267985,-4.94396e-17,0.154721,-5.5365e-19,3.95969e-19,4.30043e-08,1.16097e-06,-5.15992e-07,1.93637e-06,-9.16942e-23,5.29396e-23,0.0,4.300430100911967e-08,1.9363718748444114e-06,0.0,1.1609706738191505e-06,0.0,-5.159918669006558e-07
12,0.069922,0.134252,0.402756,-2.1684e-17,0.232531,2.20493e-19,-2.49317e-18,6.46307e-08,1.74483e-06,-7.75487e-07,2.91018e-06,-5.29397e-23,-9.16942e-23,0.0,6.463070212348043e-08,2.910184234483637e-06,0.0,1.744831522154655e-06,0.0,-7.754866993003873e-07
13,0.105,0.201637,0.604912,1.99493e-17,0.349246,-1.22407e-18,-2.88023e-18,9.70596e-08,2.62061e-06,-1.16471e-06,4.37091e-06,-1.05879e-22,-1.83388e-22,0.0,9.705960479777787e-08,4.370919552521002e-06,0.0,2.62061343381248e-06,0.0,-1.1647093217659332e-06
14,0.1577,0.302715,0.908146,-9.1073e-17,0.524319,2.72256e-18,-2.74454e-19,1.45719e-07,3.93429e-06,-1.74858e-06,6.56199e-06,1.03982e-22,-2.43423e-22,0.0,1.4571901063575865e-07,6.562011529931411e-06,0.0,3.934297739371928e-06,0.0,-1.748578471238993e-06
15,0.2366,0.454332,1.363,-7.80626e-18,0.786926,-1.38381e-17,-7.8084e-18,2.18705e-07,5.90479e-06,-2.62436e-06,9.8486e-06,-2.11758e-22,-3.66776e-22,0.0,2.1870502386889257e-07,9.848648497623458e-06,0.0,5.904807433232406e-06,0.0,-2.624356556402141e-06
16,0.3551,0.681756,2.04527,4.77049e-17,1.18084,-5.94481e-18,-2.59681e-18,3.28182e-07,8.86055e-06,-3.93804e-06,1.47785e-05,5.57568e-28,9.65736e-28,0.0,3.281820537548441e-07,1.4778609202625859e-05,0.0,8.860589254755524e-06,0.0,-3.938032245964784e-06
17,0.5328,1.02289,3.06867,7.13839e-16,1.7717,-5.94479e-18,-2.59677e-18,4.92389e-07,1.32942e-05,-5.90853e-06,2.21733e-05,8.36561e-28,1.44897e-27,0.0,4.923891212538223e-07,2.2173545829451413e-05,0.0,1.3294288368159712e-05,0.0,-5.908512544672284e-06
18,0.7993,1.53459,4.60377,-2.85362e-16,2.65799,-3.98145e-18,-3.30361e-17,7.38697e-07,1.99445e-05,-8.86424e-06,3.32654e-05,7.35553e-27,1.27402e-26,0.0,7.38697272906208e-07,3.326595329955495e-05,0.0,1.9944698892881974e-05,0.0,-8.864200712777048e-06
19,1.199,2.30213,6.90638,-1.61763e-15,3.9874,2.21215e-18,-5.61484e-17,1.10814e-06,2.99199e-05,-1.32977e-05,4.99034e-05,-4.23505e-22,-7.33532e-22,0.0,1.1081406139368255e-06,4.990464519538662e-05,0.0,2.992034760462836e-05,0.0,-1.3297611585971758e-05
20,1.799,3.45341,10.3602,-3.17194e-15,5.98148,6.53581e-17,-1.44564e-17,1.66234e-06,4.48827e-05,-1.99479e-05,7.48599e-05,-1.09041e-26,-1.88864e-26,0.0,1.6623413816585497e-06,7.486270207235357e-05,0.0,4.4883707243537074e-05,0.0,-1.994770104196686e-05
21,2.698,5.18029,15.5409,-2.8485e-14,8.97252,-6.87866e-17,2.39178e-17,2.49357e-06,6.73263e-05,-2.99228e-05,0.000112294,-4.23518e-22,-7.33555e-22,0.0,2.4935731088859825e-06,0.00011230030520725798,0.0,6.732856646629592e-05,0.0,-2.9922352317468537e-05
22,4.047,31.1929,93.5787,-1.03264e-09,54.0277,-8.08225e-16,-1.7395e-16,1.5015e-05,0.000405403,-0.000180179,0.000676171,-3.02527e-20,1.82072e-21,0.0,1.5015112725613733e-05,0.0006763996551444329,0.0,0.00040548518690219915,0.0,-0.00018016276873877857
23,6.071,70.3658,211.097,-9.04826e-07,121.877,1.29847e-16,-7.14917e-16,3.38711e-05,0.000914519,-0.000406453,0.00152533,-2.03309e-20,-3.52142e-20,0.0,3.3871673632113186e-05,0.0015264939075101402,0.0,0.0009149373000056915,0.0,-0.00040637040916957634
24,8.776,121.271,363.819,0.000118496,210.05,-0.000122376,-0.000211906,5.55206e-05,0.0015932,-0.000714715,0.00266338,-1.55435e-09,-2.69328e-09,2.7588e-05,5.552214129700417e-05,0.0026669299474322283,-1.5543499820580564e-09,0.0015944698173882,-2.6932800434309456e-09,-0.0007144596520716195
25,11.48,127.237,381.875,0.0753491,220.498,-0.00255651,-0.0044179,-3.57618e-05,0.00223292,-0.00121675,0.00393179,-4.6303e-08,-8.118e-08,0.000935816,-3.576116055448164e-05,0.003939529626506344,-4.630299887953271e-08,0.0022354148224306147,-8.11799967248561e-08,-0.0012160100598566093
26,14.19,132.211,396.716,0.000131498,229.02,-0.00461626,-0.00798149,-0.00012896,0.00287134,-0.00172397,0.00520122,-9.74416e-08,-1.71693e-07,0.00186422,-0.00012895168501658727,0.005214769826434429,-9.744159523705775e-08,0.002875466245036984,-1.716929852735305e-07,-0.0017224848173124085
27,16.89,136.408,409.335,-4.96481e-06,236.297,-0.00629302,-0.0108764,-0.000224202,0.00350839,-0.0022334,0.00647186,-1.52408e-07,-2.69421e-07,0.00280605,-0.00022417686860976005,0.00649284773806813,-1.5240798834081914e-07,0.0035145516038588287,-2.6942096376103564e-07,-0.002230907817911687
28,19.6,140.067,420.34,5.29602e-06,242.644,-0.00772176,-0.0133414,-0.000320694,0.00414436,-0.00274464,0.00774278,-2.11299e-07,-3.74467e-07,0.00375741,-0.00032064258317576755,0.0077728328351551745,-2.1129897764815553e-07,0.004152959735934436,-3.7446692990883435e-07,-0.002740876919189783
29,22.3,143.318,430.115,2.41488e-06,248.281,-0.00896084,-0.0154779,-0.000418113,0.00477935,-0.00325713,0.0090136,-2.73656e-07,-4.85943e-07,0.0047158,-0.0004180256029405749,0.009054344819640514,-2.7365596255712887e-07,0.004790789310106236,-4.859428819337097e-07,-0.0032518313064872073
30,25.01,146.247,438.921,1.08529e-06,253.359,-0.0100511,-0.0173569,-0.000516243,0.00541343,-0.00377049,0.0102841,-3.39081e-07,-6.03089e-07,0.0056795,-0.0005161097695098871,0.010337163102490665,-3.390809425463104e-07,0.0054281090883010474,-6.030888181074445e-07,-0.003763390628086505
31,27.71,148.915,446.942,4.48285e-07,257.985,-0.011022,-0.0190293,-0.000614928,0.00604667,-0.00428446,0.011554,-4.07231e-07,-7.25258e-07,0.00664731,-0.0006147389705258854,0.011621005268966478,-4.07230917098822e-07,0.006064988011422967,-7.252577369776247e-07,-0.004275294795243911
32,30.42,151.367,454.315,1.35827e-07,262.237,-0.0118951,-0.0205328,-0.000714056,0.0066791,-0.00479884,0.0128234,-4.7781e-07,-8.51896e-07,0.00761835,-0.0007138011226835994,0.012905972369125829,-4.778098858793101e-07,0.006701454930964079,-8.518956371439401e-07,-0.004787343963891466
33,33.12,153.637,461.141,-1.5814e-08,266.173,-0.0126871,-0.0218959,-0.000813538,0.00731074,-0.00531349,0.0140919,-5.50567e-07,-9.82531e-07,0.00859195,-0.0008132071676821839,0.01419165886934004,-5.50566848445122e-07,0.007337528701627294,-9.825305172794785e-07,-0.005299398381615195
34,35.83,155.752,467.501,-8.49414e-08,269.841,-0.0134105,-0.0231407,-0.00091331,0.00794164,-0.0058283,0.0153597,-6.25282e-07,-1.11676e-06,0.00956758,-0.0009128930593635953,0.015478266462675805,-6.252818045560105e-07,0.007973258468353173,-1.1167593764183081e-06,-0.005811348408530814
35,38.53,157.734,473.459,-1.10976e-07,273.277,-0.0140754,-0.0242846,-0.00101332,0.00857179,-0.00634316,0.0166265,-7.01768e-07,-1.25422e-06,0.0105448,-0.0010128067646607564,0.016765489485550678,-7.017677537968225e-07,0.008608632986778275,-1.2542192134867847e-06,-0.0063230846301295385
36,41.24,159.598,479.064,-1.14557e-07,276.51,-0.01469,-0.0253415,-0.00111352,0.00920122,-0.00685801,0.0178925,-7.79859e-07,-1.39462e-06,0.0115234,-0.0011129002666545595,0.01805352975269403,-7.798586959539833e-07,0.009243681356920552,-1.3946190274838344e-06,-0.00683454751537671
37,43.94,161.359,484.36,-1.06807e-07,279.564,-0.0152606,-0.0263227,-0.00121388,0.00982995,-0.00737278,0.0191574,-8.59412e-07,-1.53769e-06,0.0125029,-0.0012131435456920192,0.01934208043455321,-8.594116307492072e-07,0.009878422656239172,-1.5376888177209835e-06,-0.007345667729389049
38,46.65,163.029,489.38,-9.38315e-08,282.459,-0.0157928,-0.0272376,-0.00131437,0.010458,-0.00788744,0.0204214,-9.403e-07,-1.68319e-06,0.0134833,-0.0013135065940712565,0.02063134346680484,-9.402995578833284e-07,0.010512876012948924,-1.6831885834012184e-06,-0.007856415765969404
39,49.35,164.617,494.153,-7.90086e-08,285.212,-0.0162909,-0.0280937,-0.00141496,0.0110853,-0.00840193,0.0216843,-1.02241e-06,-1.83092e-06,0.0144643,-0.0014139594160834656,0.021921113044045537,-1.0224094773025882e-06,0.011146969602733314,-1.830918323841857e-06,-0.00836673243095487
40,52.06,166.131,498.705,-6.41991e-08,287.837,-0.0167588,-0.0288977,-0.00151564,0.011712,-0.00891623,0.0229462,-1.10564e-06,-1.9807e-06,0.0154457,-0.0015144919977544413,0.023211489288255116,-1.1056393888209115e-06,0.011780854015517317,-1.980698038361872e-06,-0.008876598297219651
41,54.76,167.578,503.056,-5.0402e-08,290.346,-0.0171995,-0.029655,-0.00161638,0.0123379,-0.00943031,0.0242071,-1.18991e-06,-2.13237e-06,0.0164274,-0.001615074361411839,0.02450247038308917,-1.189909292098612e-06,0.012414325876384025,-2.1323677265039365e-06,-0.009385984071829334
42,57.47,168.964,507.224,-3.81229e-08,292.75,-0.0176159,-0.0303703,-0.00171718,0.0129633,-0.00994413,0.0254668,-1.27514e-06,-2.28577e-06,0.0174093,-0.0017157064899717689,0.0257938493493044,-1.2751391870180484e-06,0.013047687827425714,-2.2857673875886775e-06,-0.009894850621392615
43,60.17,170.295,511.225,-2.7583e-08,295.058,-0.0180102,-0.0310476,-0.00181802,0.0135879,-0.0104577,0.0267255,-1.36124e-06,-2.44077e-06,0.0183914,-0.0018163684026702986,0.0270858290042999,-1.3612390734607516e-06,0.013680635062086832,-2.440767021272272e-06,-0.010403208373140349
44,62.88,171.575,515.072,-1.88416e-08,297.277,-0.0183845,-0.0316905,-0.00191888,0.0142119,-0.0109709,0.0279831,-1.44817e-06,-2.59727e-06,0.0193734,-0.001917040126792835,0.028378304681217603,-1.448168951423412e-06,0.014313369170876555,-2.597266627102357e-06,-0.010910939151741794
45,65.58,172.807,518.779,-1.18666e-08,299.414,-0.0187406,-0.032302,-0.00201976,0.0148353,-0.0114839,0.0292396,-1.53586e-06,-2.75514e-06,0.0203554,-0.002017721657323057,0.02967127415901305,-1.5358588205671708e-06,0.014945889261245071,-2.755136204624087e-06,-0.011418211713420057
46,68.29,173.997,522.354,-6.57702e-09,301.476,-0.0190799,-0.0328848,-0.00212065,0.015458,-0.0119965,0.0304949,-1.62425e-06,-2.9143e-06,0.0213372,-0.002118403010428871,0.03096463211574929,-1.6242486808870638e-06,0.015578092882657213,-2.914295753386753e-06,-0.011924828881022309
47,70.99,175.146,525.809,-2.86853e-09,303.469,-0.019404,-0.0334412,-0.00222154,0.01608,-0.0125088,0.0317491,-1.7133e-06,-3.07466e-06,0.0223188,-0.0022190742063051827,0.032258479159226194,-1.7132985322687588e-06,0.016209978952625992,-3.074655273271887e-06,-0.012430890152524077
48,73.7,176.257,529.15,-6.27213e-10,305.396,-0.0197139,-0.0339733,-0.00232243,0.0167014,-0.0130208,0.0330022,-1.80297e-06,-3.23612e-06,0.0233002,-0.0023197352459770615,0.033552813054993136,-1.8029683745979241e-06,0.01684164807281663,-3.2361147637161025e-06,-0.012936396116196347
49,76.4,177.334,532.387,2.60936e-10,307.262,-0.0200107,-0.0344829,-0.0024233,0.0173222,-0.0135324,0.0342542,-1.89321e-06,-3.39863e-06,0.0242813,-0.0024203661788763098,0.034847631564188575,-1.8932082078704227e-06,0.017473099350137078,-3.398624224715263e-06,-0.01344124870363983
50,79.11,178.378,535.525,-9.3601e-11,309.072,-0.0202955,-0.0349717,-0.00252416,0.0179423,-0.0140436,0.035505,-1.98399e-06,-3.56211e-06,0.025262,-0.0025209769868552723,0.03614282882925712,-1.9839880318617276e-06,0.01810423008090334,-3.562103655707638e-06,-0.01394544865281544
51,81.81,179.391,538.572,-1.58795e-09,310.829,-0.020569,-0.0354413,-0.00262499,0.0185618,-0.0145545,0.0367547,-2.07526e-06,-3.7265e-06,0.0262424,-0.002621547726386675,0.037438505957672064,-2.075257846678724e-06,0.018735141055935323,-3.7264930565772403e-06,-0.014449095255619215
52,84.52,180.375,541.531,-4.12613e-09,312.536,-0.020832,-0.0358929,-0.0027258,0.0191807,-0.0150649,0.0380033,-2.16701e-06,-3.89174e-06,0.0272223,-0.0027220883803236173,0.03873466069722209,-2.167007651987518e-06,0.019365831381724652,-3.891732427208083e-06,-0.014951992087211763
53,87.22,181.333,544.409,-7.6205e-09,314.196,-0.0210853,-0.0363277,-0.00282657,0.019799,-0.015575,0.0392506,-2.2592e-06,-4.05778e-06,0.0282018,-0.0028225790121719774,0.040031082785068284,-2.2591974480068444e-06,0.01999630016460685,-4.057771767262963e-06,-0.0154543369421003
54,89.93,182.264,547.211,-1.19921e-08,315.812,-0.0213295,-0.0367468,-0.00292731,0.0204166,-0.0160847,0.0404969,-2.3518e-06,-4.22457e-06,0.0291808,-0.002923029605780725,0.041328081580461085,-2.3517972345121763e-06,0.0206264444481139,-4.224561076515698e-06,-0.015956031998714093
55,92.63,183.172,549.94,-1.71681e-08,317.385,-0.0215651,-0.0371513,-0.00302801,0.0210336,-0.016594,0.041742,-2.44479e-06,-4.39206e-06,0.0301594,-0.00302343020144491,0.042625446681874735,-2.444787011501859e-06,0.02125636527492958,-4.3920503549621515e-06,-0.016457077989425528
56,95.34,184.057,552.6,-2.30841e-08,318.92,-0.0217927,-0.0375419,-0.00312867,0.02165,-0.0171029,0.0429859,-2.53814e-06,-4.56021e-06,0.0311374,-0.0031237808122296373,0.043923175430067074,-2.53813677897341e-06,0.021886061751001273,-4.560199602265946e-06,-0.016957475645453468
57,98.04,184.92,555.195,-2.96813e-08,320.416,-0.0220128,-0.0379197,-0.00322929,0.0222658,-0.0176114,0.0442287,-2.63184e-06,-4.72898e-06,0.0321148,-0.0032240814511945715,0.04522136968330681,-2.6318365367039576e-06,0.02251553298212783,-4.728968818423773e-06,-0.017457225696868917
58,100.7,185.762,557.728,-3.69067e-08,321.877,-0.0222257,-0.0382852,-0.00332986,0.0228809,-0.0181195,0.0454703,-2.72586e-06,-4.89833e-06,0.0330917,-0.003324322164634297,0.046519922510683376,-2.7258562848020418e-06,0.023144675759489974,-4.898318003210278e-06,-0.017956328872592797
59,103.5,186.585,560.203,-4.4713e-08,323.304,-0.022432,-0.0386392,-0.00343037,0.0234955,-0.0186272,0.0467108,-2.82018e-06,-5.06823e-06,0.034068,-0.0034244930028437537,0.04781893602110654,-2.820176023266008e-06,0.023773693754641556,-5.068217156511956e-06,-0.01845478590040106
60,106.2,187.39,562.621,-5.30561e-08,324.699,-0.0226319,-0.0389823,-0.00353084,0.0241094,-0.0191345,0.0479501,-2.91478e-06,-5.23865e-06,0.0350438,-0.00352461391437342,0.04911830301497089,-2.9147757519831785e-06,0.02440238138116002,-5.238636278326325e-06,-0.018952597506923463
61,108.9,188.177,564.986,-6.18988e-08,326.063,-0.0228258,-0.0393151,-0.00363125,0.0247227,-0.0196413,0.0491883,-3.00965e-06,-5.40955e-06,0.0360189,-0.003624664984742232,0.05041812585201488,-3.0096454709527265e-06,0.025030840058815507,-5.409535368428031e-06,-0.0194496663626198
62,111.6,188.946,567.301,-7.12052e-08,327.398,-0.023014,-0.0396382,-0.00373161,0.0253354,-0.0201477,0.0504253,-3.10478e-06,-5.58091e-06,0.0369933,-0.0037246561957217095,0.05171829706379816,-3.1047751801738244e-06,0.02565906889276981,-5.580894426704397e-06,-0.019946091346159323
63,114.3,189.7,569.567,-8.09438e-08,328.705,-0.0231968,-0.0399521,-0.00383191,0.0259475,-0.0206537,0.0516612,-3.20014e-06,-5.75269e-06,0.0379672,-0.0038245776015629618,0.053018919261073494,-3.2001348795329676e-06,0.026287066988048613,-5.752673453263135e-06,-0.020441873180555903
64,117.0,190.438,571.786,-9.10861e-08,329.985,-0.0233746,-0.0402572,-0.00393215,0.026559,-0.0211593,0.0528959,-3.29573e-06,-5.92489e-06,0.0389404,-0.003924429221257353,0.05431988470642746,-3.2957245691411785e-06,0.026914833449545705,-5.924872447882201e-06,-0.020937012587685877
65,119.7,191.161,573.961,-1.01606e-07,331.239,-0.0235474,-0.0405539,-0.00403233,0.0271699,-0.0216644,0.0541294,-3.39152e-06,-6.09746e-06,0.0399129,-0.004024211073781481,0.05562119069968707,-3.3915142487739303e-06,0.027542367382023425,-6.097441410557458e-06,-0.021431412431436203
66,122.4,191.871,576.093,-1.1248e-07,332.469,-0.0237157,-0.0408427,-0.00413245,0.0277802,-0.0221691,0.0553618,-3.48752e-06,-6.27039e-06,0.0408847,-0.0041239231780975105,0.05692294022840594,-3.487513918654095e-06,0.02816966789011599,-6.270370341177056e-06,-0.02192517138702854
67,125.1,192.566,578.185,-1.23686e-07,333.675,-0.0238795,-0.041124,-0.00423251,0.0283899,-0.0226734,0.0565931,-3.5837e-06,-6.44365e-06,0.0418559,-0.004223565553153175,0.05822513097392079,-3.5836935785571455e-06,0.028796734078330832,-6.443629239738513e-06,-0.02241829017274566
68,127.8,193.249,580.237,-1.35206e-07,334.858,-0.0240391,-0.041398,-0.0043325,0.028999,-0.0231773,0.0578231,-3.68005e-06,-6.61724e-06,0.0428263,-0.0043231282611129185,0.0595275487077227,-3.680043228593277e-06,0.029423565051051037,-6.617218106130807e-06,-0.02291076950573878
69,130.5,193.919,582.251,-1.47021e-07,336.02,-0.0241947,-0.0416652,-0.00443243,0.0296076,-0.0236807,0.0590521,-3.77657e-06,-6.79112e-06,0.0437961,-0.004422621279654426,0.06083050856991612,-3.7765628687624897e-06,0.03005026291755808,-6.791096940350627e-06,-0.02340251244228808
70,133.2,194.577,584.229,-1.59115e-07,337.161,-0.0243465,-0.0419258,-0.00453229,0.0302155,-0.0241836,0.0602799,-3.87325e-06,-6.96528e-06,0.0447651,-0.004522034672900022,0.06213379619288517,-3.8732424989529335e-06,0.030676620834585888,-6.96525574250817e-06,-0.02389351984462118
71,135.9,195.223,586.172,-1.71473e-07,338.281,-0.0244946,-0.0421801,-0.00463208,0.0308228,-0.0246862,0.0615065,-3.97007e-06,-7.1397e-06,0.0457335,-0.004621368462718101,0.063437408849492,-3.970062119273976e-06,0.03130274084851736,-7.1396745123797345e-06,-0.02438398769665162
72,138.6,195.858,588.081,-1.84081e-07,339.382,-0.0246391,-0.0424284,-0.00473181,0.0314295,-0.0251883,0.062732,-4.06702e-06,-7.31438e-06,0.0467011,-0.004720632623751775,0.06474145028221878,-4.06701172972479e-06,0.03192862206325864,-7.314353249965322e-06,-0.02487372153845946
73,141.3,196.482,589.958,-1.96928e-07,340.465,-0.0247804,-0.0426709,-0.00483146,0.0320357,-0.02569,0.0639563,-4.16411e-06,-7.48928e-06,0.047668,-0.004819807271251975,0.06604581154161737,-4.164101330084158e-06,0.03255436683803237,-7.4892519553726444e-06,-0.02536281969183274
74,144.0,197.096,591.804,-2.10001e-07,341.529,-0.0249183,-0.0429079,-0.00493105,0.0326412,-0.0261912,0.0651795,-4.26131e-06,-7.6644e-06,0.0486342,-0.004918912331627334,0.0673505966221637,-4.261300920682665e-06,0.03317976782819487,-7.664370628601702e-06,-0.025851185451920555
75,146.7,197.7,593.619,-2.2329e-07,342.576,-0.0250532,-0.0431396,-0.00503056,0.0332462,-0.026692,0.0664016,-4.35863e-06,-7.83973e-06,0.0495996,-0.0050179279240587515,0.06865580317030973,-4.358620501188071e-06,0.033805030710681194,-7.839699269429623e-06,-0.02633891704006297
76,149.4,198.294,595.405,-2.36786e-07,343.606,-0.0251852,-0.0433662,-0.00513,0.0338506,-0.0271923,0.0676225,-4.45605e-06,-8.01524e-06,0.0505642,-0.005116864022121637,0.06996132183210091,-4.456040071820766e-06,0.03443005133344812,-8.01520787807597e-06,-0.026825917846458047
77,152.1,198.878,597.163,-2.50478e-07,344.62,-0.0253142,-0.0435879,-0.00522938,0.0344543,-0.0276922,0.0688422,-4.55357e-06,-8.19094e-06,0.0515282,-0.00521573059541347,0.07126714985367189,-4.553559632469728e-06,0.0350547252943012,-8.190906454319524e-06,-0.027312285992279972
78,154.8,199.454,598.893,-2.64359e-07,345.618,-0.0254406,-0.0438049,-0.00532867,0.0350576,-0.0281917,0.0700609,-4.65119e-06,-8.3668e-06,0.0524913,-0.005314497822142661,0.07257349899135956,-4.651179183245979e-06,0.03567936221285217,-8.36676499837985e-06,-0.027798022182713877
79,157.6,200.021,600.598,-2.78422e-07,346.6,-0.0255643,-0.0440175,-0.0054279,0.0356602,-0.0286907,0.0712783,-4.74888e-06,-8.54282e-06,0.0534537,-0.005413195567554263,0.0738800451022843,-4.748868724036015e-06,0.036303650675743926,-8.542783510256946e-06,-0.028283029950142757
80,160.3,200.579,602.276,-2.92659e-07,347.568,-0.0256854,-0.0442256,-0.00552705,0.0362622,-0.0291893,0.0724947,-4.84666e-06,-8.71898e-06,0.0544154,-0.005511803960621786,0.07518710758338387,-4.8466482549525125e-06,0.03692769329143175,-8.718941989838136e-06,-0.028767407266110157
81,163.0,201.129,603.93,-3.07063e-07,348.522,-0.0258041,-0.0444296,-0.00562613,0.0368637,-0.0296875,0.0737099,-4.94451e-06,-8.89528e-06,0.0553763,-0.005610332969877674,0.0764944691485232,-4.944497775882795e-06,0.03755159291794863,-8.89524043712342e-06,-0.029251154832285575
82,165.7,201.671,605.56,-3.21629e-07,349.462,-0.0259205,-0.0446296,-0.00572513,0.0374646,-0.0301852,0.074924,-5.04243e-06,-9.0717e-06,0.0563364,-0.005708772674067997,0.07780223480201509,-5.042417286937884e-06,0.0381752450276438,-9.071658852222164e-06,-0.02973417632265718
83,168.4,202.205,607.166,-3.3635e-07,350.388,-0.0260346,-0.0448256,-0.00582406,0.0380649,-0.0306825,0.0761369,-5.14042e-06,-9.24823e-06,0.0572958,-0.005807133039711698,0.07911029424489535,-5.1404067881177795e-06,0.03879864872313199,-9.248187235244565e-06,-0.030216569559751827
84,171.1,202.732,608.75,-3.51222e-07,351.302,-0.0261465,-0.0450179,-0.00592291,0.0386646,-0.0311793,0.0773487,-5.23846e-06,-9.42488e-06,0.0582543,-0.005905404147480975,0.08041875273434207,-5.238446279309805e-06,0.0394218031069371,-9.424835585969404e-06,-0.030698238311570036
85,173.8,203.251,610.311,-3.6624e-07,352.202,-0.0262562,-0.0452066,-0.00602169,0.0392638,-0.0316757,0.0785594,-5.33656e-06,-9.60162e-06,0.0592121,-0.0060035959618859325,0.08172760787386002,-5.3365457606258104e-06,0.04004481128596904,-9.601573904616245e-06,-0.031179280301572243
86,176.5,203.764,611.852,-3.81398e-07,353.091,-0.026364,-0.0453918,-0.00612039,0.0398624,-0.0321716,0.0797689,-5.4347e-06,-9.77845e-06,0.0601692,-0.00610169856552123,0.08303674895906066,-5.43468523206414e-06,0.040667568482638305,-9.778402191074065e-06,-0.03165959939150931
87,179.2,204.269,613.372,-3.96693e-07,353.967,-0.0264697,-0.0455737,-0.00621901,0.0404604,-0.0326671,0.0809773,-5.53289e-06,-9.95536e-06,0.0611254,-0.006199711982887712,0.08434628162678903,-5.532874693625622e-06,0.04129007379912952,-9.95531044556408e-06,-0.03213929320605369
88,181.9,204.768,614.871,-4.12121e-07,354.832,-0.0265736,-0.0457522,-0.00631756,0.0410579,-0.0331621,0.0821846,-5.63112e-06,-1.01324e-05,0.0620809,-0.0062976461754852275,0.08565620346780745,-5.631104145309429e-06,0.04191243052878213,-1.0132348667424296e-05,-0.03261826570044435
89,184.6,205.26,616.351,-4.27677e-07,355.685,-0.0266756,-0.0459277,-0.00641603,0.0416547,-0.0336568,0.0833908,-5.72939e-06,-1.03094e-05,0.0630355,-0.006395491228786132,0.08696651206868133,-5.7293735871155604e-06,0.042534429453339184,-1.0309346858305979e-05,-0.03309671109117729
90,187.3,205.746,617.812,-4.43359e-07,356.528,-0.0267758,-0.0461,-0.00651442,0.0422511,-0.0341509,0.0845958,-5.82769e-06,-1.04865e-05,0.0639894,-0.006493247167221772,0.0882770961840702,-5.827673019043189e-06,0.043156382435008966,-1.0486445016888446e-05,-0.03357433999828874
91,190.0,206.225,619.254,-4.59163e-07,357.36,-0.0268743,-0.0462695,-0.00661274,0.0428468,-0.0346447,0.0857997,-5.92602e-06,-1.06637e-05,0.0649425,-0.00659092394929095,0.08958806195767366,-5.926002441203337e-06,0.04377797581523257,-1.0663643142949653e-05,-0.03405144318272646
92,192.7,206.699,620.679,-4.75086e-07,358.181,-0.0269712,-0.046436,-0.00671097,0.043442,-0.035138,0.0870025,-6.02438e-06,-1.08409e-05,0.0658948,-0.0066885017302202865,0.09089940696338594,-6.024361853484983e-06,0.0443994173891038,-1.084084123770257e-05,-0.034527828095805235
93,195.4,207.167,622.085,-4.91125e-07,358.992,-0.0270664,-0.0465999,-0.00680913,0.0440366,-0.0356308,0.0882042,-6.12276e-06,-1.10182e-05,0.0668464,-0.006786000401577397,0.09221112877092907,-6.122741255998321e-06,0.04502060194254964,-1.1018139299823204e-05,-0.035003495568027954
94,198.1,207.629,623.475,-5.07278e-07,359.793,-0.02716,-0.046761,-0.00690721,0.0446307,-0.0361232,0.0894048,-6.22116e-06,-1.11955e-05,0.0677971,-0.006883410053610484,0.09352322494585619,-6.221140648632328e-06,0.04564163314121483,-1.119543733063555e-05,-0.035478542880563735
95,200.8,208.085,624.847,-5.23541e-07,360.585,-0.0272522,-0.0469195,-0.00700521,0.0452241,-0.0366152,0.0906043,-6.31957e-06,-1.13728e-05,0.068747,-0.006980730710635208,0.0948356930495593,-6.319550031608223e-06,0.04626230102026785,-1.137273532991756e-05,-0.035952970718648114
96,203.5,208.536,626.204,-5.39913e-07,361.367,-0.0273429,-0.0470756,-0.00710313,0.0458171,-0.0371067,0.0918026,-6.418e-06,-1.15502e-05,0.0696962,-0.007077962396943138,0.09614842102442522,-6.417979404704788e-06,0.046882918559686626,-1.1550133296678311e-05,-0.03642668340911004
97,206.2,208.982,627.544,-5.56391e-07,362.14,-0.0274321,-0.0472292,-0.00720098,0.0464094,-0.0375978,0.0929998,-6.51644e-06,-1.17275e-05,0.0706445,-0.007175115065050641,0.09746151577575701,-6.516418768032217e-06,0.04750317098197154,-1.1727431233121699e-05,-0.036899778086981194
98,208.9,209.423,628.869,-5.72973e-07,362.904,-0.02752,-0.0473804,-0.00729874,0.0470012,-0.0380884,0.0941959,-6.61489e-06,-1.19049e-05,0.0715921,-0.007272168881733876,0.09877497485238473,-6.614868121701534e-06,0.04812326682682122,-1.1904829136932804e-05,-0.03737215917129699
99,211.7,209.858,630.179,-5.89657e-07,363.66,-0.0276065,-0.0475293,-0.00739643,0.0475925,-0.0385786,0.095391,-6.71334e-06,-1.20823e-05,0.0725389,-0.007369143726742466,0.10008890580788665,-6.713317465600888e-06,0.04874320538126686,-1.2082227009324598e-05,-0.0378439236999385
100,214.4,210.289,631.474,-6.06442e-07,364.406,-0.0276917,-0.0476761,-0.00749403,0.0481832,-0.0390684,0.0965849,-6.8118e-06,-1.22598e-05,0.0734848,-0.007466019770686949,0.10140308629647099,-6.811776799731106e-06,0.04936288099585995,-1.2259724848973086e-05,-0.03831507235238585
101,217.1,210.715,632.754,-6.23325e-07,365.145,-0.0277757,-0.0478206,-0.00759156,0.0487733,-0.0395577,0.0977777,-6.91026e-06,-1.24372e-05,0.07443,-0.007562816889390533,0.1027176237320746,-6.910236124202385e-06,0.049982292771405534,-1.2437122658304212e-05,-0.03878550968560457
102,219.8,211.136,634.021,-6.40305e-07,365.875,-0.0278584,-0.0479631,-0.007689,0.0493629,-0.0400466,0.0989694,-7.00872e-06,-1.26146e-05,0.0753743,-0.007659515257291805,0.10403251564701188,-7.008695439014723e-06,0.05060154486880286,-1.2614520436216026e-05,-0.03925533259235159
103,222.5,211.553,635.273,-6.5738e-07,366.598,-0.0279399,-0.0481035,-0.00778637,0.049952,-0.0405351,0.10016,-7.10717e-06,-1.2792e-05,0.0763179,-0.007756134746295218,0.10534775956948206,-7.107144744167293e-06,0.0512206365744432,-1.2791918182708528e-05,-0.03972454174871298
104,225.2,211.965,636.512,-6.74549e-07,367.312,-0.0280203,-0.0482419,-0.00788366,0.0505404,-0.0410231,0.101349,-7.20562e-06,-1.29694e-05,0.0772607,-0.007852665456133057,0.10666279969203796,-7.205594039549901e-06,0.051839356806644865,-1.2969315897670697e-05,-0.04019304184901751
105,227.9,212.372,637.738,-6.9181e-07,368.019,-0.0280995,-0.0483785,-0.00798086,0.0511284,-0.0415107,0.102538,-7.30406e-06,-1.31468e-05,0.0782026,-0.007949097490377977,0.10797940432721798,-7.304033325383763e-06,0.05245802021766499,-1.3146713581213554e-05,-0.040660929641498034
106,230.6,212.776,638.951,-7.09162e-07,368.719,-0.0281777,-0.0485131,-0.00807799,0.0517158,-0.0419978,0.103725,-7.40249e-06,-1.33241e-05,0.0791438,-0.00804545071506857,0.1092953567434023,-7.40246260166888e-06,0.05307641566370269,-1.332401123455007e-05,-0.04112810991167781
107,233.3,213.175,640.152,-7.26604e-07,369.411,-0.0282548,-0.048646,-0.00817504,0.0523026,-0.0424845,0.104911,-7.5009e-06,-1.35015e-05,0.0800842,-0.008141715232765412,0.11061176151022245,-7.500871868293402e-06,0.05369454224501635,-1.3501408855143282e-05,-0.041594679311710125
108,236.0,213.57,641.34,-7.44135e-07,370.096,-0.0283308,-0.048777,-0.008272,0.0528889,-0.0429708,0.106097,-7.59931e-06,-1.36788e-05,0.0810238,-0.008237881149857351,0.11192972845928706,-7.5992811253700054e-06,0.05431250449306546,-1.3678706445641176e-05,-0.042060638511998705
109,238.7,213.961,642.516,-7.61753e-07,370.774,-0.0284059,-0.0489064,-0.00836889,0.0534746,-0.0434566,0.107281,-7.6977e-06,-1.38561e-05,0.0819625,-0.008333968326534325,0.11324703294815097,-7.697670372786014e-06,0.05493019620030548,-1.3856004004719757e-05,-0.04252589243448157
110,241.4,214.348,643.68,-7.79458e-07,371.445,-0.02848,-0.0490341,-0.0084657,0.0540598,-0.043942,0.108464,-7.79607e-06,-1.40334e-05,0.0829005,-0.00842996686817632,0.11456478348388921,-7.796039610763472e-06,0.05554772202155411,-1.4033301532268005e-05,-0.042990537587792255
111,244.1,214.731,644.832,-7.97248e-07,372.11,-0.0285531,-0.0491601,-0.00856242,0.0546445,-0.044427,0.109645,-7.89443e-06,-1.42107e-05,0.0838377,-0.00852586688398127,0.11588186207500772,-7.894398839081163e-06,0.05616508124200004,-1.4210599028507964e-05,-0.04345457463898106
112,246.8,215.111,645.973,-8.15122e-07,372.768,-0.0286253,-0.0492846,-0.00865907,0.0552286,-0.0449115,0.110826,-7.99276e-06,-1.43879e-05,0.0847741,-0.00862168822830578,0.11720049705480884,-7.992728057959475e-06,0.05678216746844145,-1.4387796494652605e-05,-0.043917908645841774
113,249.5,215.487,647.103,-8.3308e-07,373.419,-0.0286965,-0.0494075,-0.00875563,0.0558121,-0.0453956,0.112006,-8.09107e-06,-1.4565e-05,0.0857096,-0.008717411096516026,0.11851957174234218,-8.091037267399237e-06,0.05739897980065645,-1.4564893930923972e-05,-0.04438063597407971
114,252.2,215.859,648.222,-8.51121e-07,374.065,-0.028767,-0.049529,-0.00885212,0.0563951,-0.0458793,0.113185,-8.18937e-06,-1.47422e-05,0.0866444,-0.008813055339088827,0.11983908401706467,-8.189336467179231e-06,0.058015623139948014,-1.4742091334341012e-05,-0.044842757287409274
115,254.9,216.227,649.33,-8.69244e-07,374.704,-0.0288365,-0.049649,-0.00894852,0.0569776,-0.0463625,0.114362,-8.28763e-06,-1.49193e-05,0.0875784,-0.00890860115517167,0.12115791059614356,-8.287595657741065e-06,0.058632096770941056,-1.4919188707773756e-05,-0.04530417777891971
116,257.6,216.592,650.428,-8.87448e-07,375.337,-0.0289052,-0.0497675,-0.00904485,0.0575596,-0.0468453,0.115539,-8.38588e-06,-1.50963e-05,0.0885115,-0.009004068391369136,0.12247829034796931,-8.38584483864313e-06,0.05924839997809839,-1.509618605144425e-05,-0.04576499367198006
117,260.3,216.954,651.516,-9.05733e-07,375.964,-0.0289731,-0.0498847,-0.00914109,0.058141,-0.0473277,0.116714,-8.48409e-06,-1.52733e-05,0.0894439,-0.009099437250604248,0.12379797750349919,-8.484054010216013e-06,0.05986442605927489,-1.527318336369543e-05,-0.04622520562698451
118,263.0,217.312,652.593,-9.24097e-07,376.585,-0.0290403,-0.0500005,-0.00923725,0.0587218,-0.0478096,0.117888,-8.58228e-06,-1.54503e-05,0.0903755,-0.00919471766756208,0.12511809108413674,-8.582243172350346e-06,0.06048017411385587,-1.5450180644749345e-05,-0.04668471897175974
119,265.8,217.667,653.661,-9.42541e-07,377.201,-0.0291066,-0.050115,-0.00933334,0.0593022,-0.0482912,0.119061,-8.68044e-06,-1.56272e-05,0.0913063,-0.009289919573092664,0.12643862894902225,-8.6804023250453e-06,0.0610958554603549,-1.5627077895929986e-05,-0.047143725073561904
120,268.5,218.019,654.719,-9.61064e-07,377.811,-0.0291722,-0.0502283,-0.00942934,0.059882,-0.0487722,0.120234,-8.77857e-06,-1.5804e-05,0.0922363,-0.009385023175767837,0.12776071671366185,-8.778531468411899e-06,0.06171125722508264,-1.58038751174594e-05,-0.04760193873258234
121,270.5,218.283,655.512,-1.09146e-06,378.268,-0.0292212,-0.0503128,-0.00950182,0.0603197,-0.0491354,0.121119,-8.85267e-06,-1.59376e-05,0.0929384,-0.009456820347327088,0.1287592267234614,-8.852630815181506e-06,0.06217606995921621,-1.593747299710735e-05,-0.04794778689860568
