,Time,S11,S22,S33,S12,S13,S23,LE11,LE22,LE33,LE12,LE13,LE23,SDV_EPBAR,E11,E12,E13,E22,E23,E33
0,0.0002705,0.000519365,0.0015581,-7.79048e-12,0.000899567,2.21372e-21,3.68811e-20,2.50301e-10,6.7501e-09,-3.0004e-09,1.1258e-08,2.76762e-26,4.61603e-25,0.0,2.5030089112476617e-10,1.1258000087721598e-08,0.0,6.750100034480511e-09,0.0,-3.0004000395322805e-09
1,0.000541,0.00103873,0.00311619,4.33681e-19,0.00179913,-3.08331e-20,-2.03577e-20,5.00425e-10,1.35001e-08,-6.00057e-09,2.25162e-08,-1.63975e-24,4.6912e-25,0.0,5.00425034744012e-10,2.2516200237632233e-08,0.0,1.3500100148888805e-08,0.0,-6.000569929831556e-09
2,0.00094675,0.00181778,0.00545333,6.50521e-19,0.00314848,1.87371e-20,6.55005e-20,8.75688e-10,2.36252e-08,-1.05009e-08,3.94034e-08,-1.73568e-24,1.95724e-24,0.0,8.756879665838824e-10,3.9403400764470575e-08,0.0,2.3625200240573463e-08,0.0,-1.0500899927379237e-08
3,0.0015554,0.00298635,0.00895905,1.73472e-18,0.00517251,4.73565e-20,4.89771e-20,1.4375e-09,3.88125e-08,-1.725e-08,6.47354e-08,4.1359e-25,7.16359e-25,0.0,1.4374998968946784e-09,6.473540214990692e-08,0.0,3.8812500768869995e-08,0.0,-1.7249999872959165e-08
4,0.0024683,0.00473921,0.0142176,0.0,0.00820854,1.00168e-19,-5.78319e-20,2.28125e-09,6.15937e-08,-2.7375e-08,1.02732e-07,-7.41318e-35,-1.284e-34,0.0,2.281250077729169e-09,1.027320053470504e-07,0.0,6.159370191660685e-08,0.0,-2.7374999600482397e-08
5,0.0038377,0.00736849,0.0221055,-8.67362e-19,0.0127626,9.88226e-21,-8.20239e-20,3.54688e-09,9.57656e-08,-4.25625e-08,1.59728e-07,7.653e-32,1.32554e-31,0.0,3.5468799008953056e-09,1.597280128162737e-07,0.0,9.576560455748506e-08,0.0,-4.256249908074494e-08
6,0.0058918,0.0113124,0.0339373,-6.07153e-18,0.0195937,-4.73565e-20,-4.89771e-20,5.44671e-09,1.47024e-07,-6.53456e-08,2.45219e-07,-1.14621e-23,6.61761e-24,0.0,5.446709971934638e-09,2.452190299706558e-07,0.0,1.4702401074373483e-07,0.0,-6.534559782167548e-08
7,0.008973,0.0172283,0.0516849,7.80626e-18,0.0298403,6.7121e-20,-1.15071e-19,8.29297e-09,2.2391e-07,-9.95156e-08,3.7346e-07,1.78232e-31,3.08708e-31,0.0,8.292970088419338e-09,3.734600697580248e-07,0.0,2.2391002496569e-07,0.0,-9.951559509779884e-08
8,0.013595,0.0261021,0.0783064,9.54098e-18,0.0452102,-1.3116e-19,-4.58503e-19,1.25671e-08,3.39241e-07,-1.50777e-07,5.65816e-07,2.77687e-23,-3.13146e-23,0.0,1.2567100027283118e-08,5.658161601473921e-07,0.0,3.392410574676319e-07,0.0,-1.5077698867216327e-07
9,0.020527,0.0394129,0.118239,6.07153e-18,0.0682651,-4.56883e-19,3.48265e-20,1.89735e-08,5.12236e-07,-2.27663e-07,8.54355e-07,1.1462e-23,-6.61759e-24,0.0,1.8973500104380037e-08,8.543553648987512e-07,0.0,5.122361312892565e-07,0.0,-2.276629741393421e-07
10,0.030926,0.059379,0.178137,-8.67362e-19,0.102847,-1.54031e-18,-2.55477e-19,2.8587e-08,7.71729e-07,-3.42996e-07,1.28716e-06,-2.95414e-23,1.77334e-24,0.0,2.858700032248862e-08,1.2871608283671065e-06,0.0,7.717292977993395e-07,0.0,-3.429959412049044e-07
11,0.046525,0.0893282,0.267985,-4.94396e-17,0.154721,-5.5365e-19,3.95969e-19,4.30043e-08,1.16097e-06,-5.15992e-07,1.93637e-06,-9.16942e-23,5.29396e-23,0.0,4.300430100911967e-08,1.9363718748444114e-06,0.0,1.1609706738191505e-06,0.0,-5.159918669006558e-07
12,0.069922,0.134252,0.402756,-2.1684e-17,0.232531,2.20493e-19,-2.49317e-18,6.46307e-08,1.74483e-06,-7.75487e-07,2.91018e-06,-5.29397e-23,-9.16942e-23,0.0,6.463070212348043e-08,2.910184234483637e-06,0.0,1.744831522154655e-06,0.0,-7.754866993003873e-07
13,0.105,0.201637,0.604912,1.99493e-17,0.349246,-1.22407e-18,-2.88023e-18,9.70596e-08,2.62061e-06,-1.16471e-06,4.37091e-06,-1.05879e-22,-1.83388e-22,0.0,9.705960479777787e-08,4.370919552521002e-06,0.0,2.62061343381248e-06,0.0,-1.1647093217659332e-06
14,0.1577,0.302715,0.908146,-9.1073e-17,0.524319,2.72256e-18,-2.74454e-19,1.45719e-07,3.93429e-06,-1.74858e-06,6.56199e-06,1.03982e-22,-2.43423e-22,0.0,1.4571901063575865e-07,6.562011529931411e-06,0.0,3.934297739371928e-06,0.0,-1.748578471238993e-06
15,0.2366,0.454332,1.363,-7.80626e-18,0.786926,-1.38381e-17,-7.8084e-18,2.18705e-07,5.90479e-06,-2.62436e-06,9.8486e-06,-2.11758e-22,-3.66776e-22,0.0,2.1870502386889257e-07,9.848648497623458e-06,0.0,5.904807433232406e-06,0.0,-2.624356556402141e-06
16,0.3551,0.681756,2.04527,4.77049e-17,1.18084,-5.94481e-18,-2.59681e-18,3.28182e-07,8.86055e-06,-3.93804e-06,1.47785e-05,5.57568e-28,9.65736e-28,0.0,3.281820537548441e-07,1.4778609202625859e-05,0.0,8.860589254755524e-06,0.0,-3.938032245964784e-06
17,0.5328,1.02289,3.06867,7.13839e-16,1.7717,-5.94479e-18,-2.59677e-18,4.92389e-07,1.32942e-05,-5.90853e-06,2.21733e-05,8.36561e-28,1.44897e-27,0.0,4.923891212538223e-07,2.2173545829451413e-05,0.0,1.3294288368159712e-05,0.0,-5.908512544672284e-06
18,0.7993,1.53459,4.60377,-2.85362e-16,2.65799,-3.98145e-18,-3.30361e-17,7.38697e-07,1.99445e-05,-8.86424e-06,3.32654e-05,7.35553e-27,1.27402e-26,0.0,7.38697272906208e-07,3.326595329955495e-05,0.0,1.9944698892881974e-05,0.0,-8.864200712777048e-06
19,1.199,2.30213,6.90638,-1.61763e-15,3.9874,2.21215e-18,-5.61484e-17,1.10814e-06,2.99199e-05,-1.32977e-05,4.99034e-05,-4.23505e-22,-7.33532e-22,0.0,1.1081406139368255e-06,4.990464519538662e-05,0.0,2.992034760462836e-05,0.0,-1.3297611585971758e-05
20,1.799,3.45341,10.3602,-3.17194e-15,5.98148,6.53581e-17,-1.44564e-17,1.66234e-06,4.48827e-05,-1.99479e-05,7.48599e-05,-1.09041e-26,-1.88864e-26,0.0,1.6623413816585497e-06,7.486270207235357e-05,0.0,4.4883707243537074e-05,0.0,-1.994770104196686e-05
21,2.698,5.18029,15.5409,-2.8485e-14,8.97252,-6.87866e-17,2.39178e-17,2.49357e-06,6.73263e-05,-2.99228e-05,0.000112294,-4.23518e-22,-7.33555e-22,0.0,2.4935731088859825e-06,0.00011230030520725798,0.0,6.732856646629592e-05,0.0,-2.9922352317468537e-05
22,4.047,31.1929,93.5787,-1.03264e-09,54.0277,-8.08225e-16,-1.7395e-16,1.5015e-05,0.000405403,-0.000180179,0.000676171,-3.02527e-20,1.82072e-21,0.0,1.5015112725613733e-05,0.0006763996551444329,0.0,0.00040548518690219915,0.0,-0.00018016276873877857
23,6.071,70.3658,211.097,-9.04826e-07,121.877,1.29847e-16,-7.14917e-16,3.38711e-05,0.000914519,-0.000406453,0.00152533,-2.03309e-20,-3.52142e-20,0.0,3.3871673632113186e-05,0.0015264939075101402,0.0,0.0009149373000056915,0.0,-0.00040637040916957634
24,8.776,121.262,363.794,0.000129312,210.034,-0.000202668,-0.000350938,5.5531e-05,0.0015932,-0.000714788,0.00266339,-2.57438e-09,-4.46074e-09,2.77549e-05,5.553254187451451e-05,0.002666939974101723,-2.5743800424748997e-09,0.0015944698173882,-4.46073999960106e-09,-0.0007145325999134977
25,11.48,127.215,381.854,0.0807755,220.479,-0.00413395,-0.0071439,-3.46298e-05,0.00223288,-0.00121792,0.0039312,-7.48729e-08,-1.3127e-07,0.000935928,-3.4629200395430715e-05,0.003938937302358614,-7.48728972155277e-08,0.0022353747330148277,-1.3126999143242557e-07,-0.0012171786364411075
26,14.19,132.187,396.698,0.000148314,228.995,-0.0075731,-0.013094,-0.00012661,0.00287128,-0.00172634,0.00519997,-1.59517e-07,-2.81056e-07,0.00186427,-0.00012660198529212963,0.0052135133087576335,-1.5951698728589037e-07,0.002875406072510689,-2.8105596050487236e-07,-0.0017248507322196183
27,16.89,136.378,409.319,-5.59874e-06,236.267,-0.0103331,-0.0178591,-0.000220652,0.00350831,-0.00223695,0.00646995,-2.49852e-07,-4.41666e-07,0.00280604,-0.00022062765813779528,0.006490925338564768,-2.49851968781023e-07,0.0035144713226977764,-4.4166590251748516e-07,-0.002234449891901691
28,19.6,140.034,420.327,5.72085e-06,242.611,-0.0126838,-0.0219148,-0.000315934,0.00414425,-0.00274939,0.00774021,-3.46632e-07,-6.14292e-07,0.00375734,-0.00031588409810923146,0.0077702428623029896,-3.466319399292317e-07,0.004152849279114967,-6.142918113072326e-07,-0.0027456138887742565
29,22.3,143.281,430.105,2.6094e-06,248.245,-0.0147223,-0.0254297,-0.000412139,0.00477923,-0.00326308,0.00901036,-4.4911e-07,-7.97492e-07,0.00471565,-0.0004120540823886465,0.009051075488859528,-4.4910989915880606e-07,0.004790668735218606,-7.974916820252531e-07,-0.0032577619404472458
30,25.01,146.206,438.913,1.16706e-06,253.321,-0.0165157,-0.0285204,-0.00050905,0.0054133,-0.00377765,0.0102802,-5.56632e-07,-9.90015e-07,0.00567928,-0.0005089204560311256,0.010333222795238184,-5.566318450611618e-07,0.005427978382655407,-9.900145099273061e-07,-0.003770523656673297
31,27.71,148.87,446.936,4.71664e-07,257.944,-0.0181125,-0.031271,-0.000606515,0.00604653,-0.00429283,0.0115494,-6.68633e-07,-1.19079e-06,0.00664702,-0.0006063311069571808,0.011616351823045212,-6.686327764793276e-07,0.0060648471623345745,-1.1907892910612006e-06,-0.0042836289761479796
32,30.42,151.319,454.31,1.26233e-07,262.194,-0.0195483,-0.0337435,-0.000704421,0.00667895,-0.00480843,0.0128181,-7.84627e-07,-1.39892e-06,0.00761799,-0.0007041729537737851,0.012900603981698566,-7.846266921740508e-07,0.006701303925757074,-1.3989190215113467e-06,-0.004796888007499112
33,33.12,153.587,461.138,-4.59769e-08,266.129,-0.0208504,-0.0359848,-0.000802681,0.00731059,-0.0053243,0.0140859,-9.04199e-07,-1.61361e-06,0.00859152,-0.0008023589377829099,0.014185573737642398,-9.041985912228157e-07,0.007337377601009276,-1.6136086981033415e-06,-0.005310151037000499
34,35.83,155.699,467.499,-1.29556e-07,269.795,-0.0220397,-0.0380314,-0.000901231,0.00794148,-0.00584032,0.015353,-1.02699e-06,-1.8342e-06,0.00956707,-0.0009008250133140105,0.015471462781082801,-1.0269894726855355e-06,0.007973097192644607,-1.8341983178959964e-06,-0.005823298484302963
35,38.53,157.678,473.458,-1.6711e-07,273.229,-0.0231328,-0.0399118,-0.00100002,0.00857163,-0.00635641,0.0166191,-1.15269e-06,-2.06012e-06,0.0105443,-0.000999520146634958,0.01675796544876751,-1.1526893356483825e-06,0.008608471609409918,-2.0601178779555696e-06,-0.006336250762032369
36,41.24,159.541,479.065,-1.80947e-07,276.46,-0.0241429,-0.0416489,-0.001099,0.00920107,-0.00687248,0.0178843,-1.28102e-06,-2.29085e-06,0.0115227,-0.0010983963206681047,0.01804518174797698,-1.281019179510956e-06,0.009243529970379916,-2.29084737601859e-06,-0.006848918515499625
37,43.94,161.3,484.362,-1.83084e-07,279.513,-0.0250807,-0.0432615,-0.00119814,0.0098298,-0.00738849,0.0191486,-1.41176e-06,-2.52597e-06,0.0125022,-0.0011974225168471797,0.019333110263714204,-1.411759003477897e-06,0.009878271174487141,-2.525966809718838e-06,-0.007361262206454167
38,46.65,162.968,489.383,-1.80109e-07,282.407,-0.0259552,-0.0447648,-0.0012974,0.0104578,-0.00790437,0.0204118,-1.54469e-06,-2.76509e-06,0.0134825,-0.0012965587404759615,0.02062154545293815,-1.5446888069758913e-06,0.01051267391039401,-2.7650861771366664e-06,-0.007873212614664893
39,49.35,164.553,494.158,-1.7566e-07,285.159,-0.0267736,-0.0461714,-0.00139678,0.0110852,-0.00842009,0.0216741,-1.67962e-06,-3.00786e-06,0.0144634,-0.001395804956842217,0.021910689501852598,-1.6796185894341065e-06,0.01114686848804114,-3.0078554763557364e-06,-0.008384740327581741
40,52.06,166.066,498.71,-1.71729e-07,287.782,-0.0275422,-0.0474923,-0.00149624,0.0117118,-0.00893562,0.0229353,-1.8164e-06,-3.254e-06,0.0154447,-0.0014951211910029238,0.02320033634380536,-1.8163983503960424e-06,0.011780651659366592,-3.2539947057985685e-06,-0.008895815993662404
41,54.76,167.511,503.062,-1.6938e-07,290.29,-0.0282662,-0.0487362,-0.00159577,0.0123378,-0.00945092,0.0241954,-1.95488e-06,-3.50322e-06,0.0164264,-0.001594497436049891,0.024490483774307403,-1.954878089183154e-06,0.012414224634956561,-3.5032138637758337e-06,-0.00940640041630647
42,57.47,168.896,507.231,-1.6914e-07,292.693,-0.02895,-0.0499111,-0.00169535,0.0129632,-0.00996597,0.0254544,-2.09492e-06,-3.7553e-06,0.0174082,-0.001693913705977268,0.025781129584435236,-2.0949178056728357e-06,0.013047586522661803,-3.755292948826039e-06,-0.009916474281723708
43,60.17,170.225,511.233,-1.71231e-07,294.999,-0.0295976,-0.0510234,-0.00179498,0.0135878,-0.0104808,0.0267124,-2.23642e-06,-4.01001e-06,0.0183902,-0.0017933699868575292,0.027072374268068522,-2.2364174991906793e-06,0.013680533694028219,-4.010001959930953e-06,-0.01042606779499966
44,62.88,171.503,515.082,-1.75697e-07,297.217,-0.0302123,-0.0520791,-0.00189463,0.0142118,-0.0109952,0.0279692,-2.37925e-06,-4.26716e-06,0.0193721,-0.0018928363215459099,0.02836401032212854,-2.3792471696149065e-06,0.014313267739544555,-4.267150895631566e-06,-0.010934973723899066
45,65.58,172.735,518.789,-1.82489e-07,299.354,-0.0307969,-0.0530831,-0.0019943,0.0148352,-0.0115094,0.029225,-2.52333e-06,-4.52657e-06,0.020354,-0.0019923127050618383,0.029656241068152234,-2.5233268163837863e-06,0.014945787766661223,-4.526559755135828e-06,-0.011443420227611356
46,68.29,173.922,522.365,-1.91502e-07,301.415,-0.031354,-0.0540398,-0.00209398,0.0154579,-0.0120233,0.0304796,-2.66857e-06,-4.78809e-06,0.0213358,-0.002091789153342849,0.03094885847754658,-2.66856643937885e-06,0.015577991324853047,-4.788078537099061e-06,-0.011951308940774008
47,70.99,175.07,525.82,-2.02609e-07,303.406,-0.0318859,-0.0549531,-0.00219367,0.01608,-0.0125368,0.0317331,-2.81489e-06,-5.05157e-06,0.0223173,-0.002191265664393094,0.03224196315568806,-2.814886038149389e-06,0.016209978952625992,-5.051557240842719e-06,-0.012458541700476444
48,73.7,176.18,529.163,-2.15671e-07,305.333,-0.0323945,-0.0558265,-0.00229335,0.0167014,-0.01305,0.0329854,-2.96222e-06,-5.31687e-06,0.0232986,-0.002290722282031532,0.033535449513588,-2.9622156125785892e-06,0.01684164807281663,-5.316855865467041e-06,-0.012965217952628838
49,76.4,177.256,532.4,-2.30553e-07,307.199,-0.0328817,-0.0566628,-0.00239302,0.0173222,-0.0135628,0.0342367,-3.11049e-06,-5.58387e-06,0.0242796,-0.0023901590102302084,0.03482952188909616,-3.1104851624386143e-06,0.017473099350137078,-5.583854410184941e-06,-0.013471239633814913
50,79.11,178.298,535.54,-2.47123e-07,309.008,-0.0333489,-0.057465,-0.00249267,0.0179424,-0.0140753,0.0354868,-3.25963e-06,-5.85247e-06,0.0252603,-0.0024895658778550933,0.03612397120137745,-3.2596246873906054e-06,0.018104331891331427,-5.852452874322012e-06,-0.013976706086660351
51,81.81,179.31,538.586,-2.65256e-07,310.764,-0.0337977,-0.0582354,-0.0025923,0.0185619,-0.0145873,0.0367357,-3.40959e-06,-6.12256e-06,0.0262405,-0.0025889428918586255,0.037418794813315115,-3.4095841873194033e-06,0.01873524292945472,-6.122541257203018e-06,-0.01448142079515291
52,84.52,180.294,541.547,-2.84839e-07,312.47,-0.0342292,-0.0589762,-0.00269191,0.0191808,-0.0150991,0.0379835,-3.56032e-06,-6.39403e-06,0.0272204,-0.0026882900591893577,0.03871409395455183,-3.5603136621098486e-06,0.019365933318313155,-6.394009558263747e-06,-0.014985680153013159
53,87.22,181.25,544.426,-3.05766e-07,314.129,-0.0346447,-0.0596895,-0.00279149,0.0197991,-0.0156104,0.0392302,-3.71178e-06,-6.66682e-06,0.0281998,-0.002787597414670051,0.04000986636738779,-3.7117731113145425e-06,0.019996402164242033,-6.6667977768331e-06,-0.015489189241683188
54,89.93,182.18,547.228,-3.27941e-07,315.744,-0.0350452,-0.0603769,-0.00289103,0.0204167,-0.0161213,0.0404757,-3.86391e-06,-6.94083e-06,0.0291788,-0.0028868549970914037,0.041306005659137,-3.863902535150565e-06,0.020626546510763344,-6.940805912458714e-06,-0.015992047348858063
55,92.63,183.087,549.957,-3.51278e-07,317.317,-0.0354316,-0.0610402,-0.00299054,0.0210338,-0.0166318,0.04172,-4.01667e-06,-7.21598e-06,0.0301572,-0.0029860727894877037,0.04260250917436115,-4.016661933170518e-06,0.021256569526223013,-7.215953964911925e-06,-0.01649425520922354
56,95.34,183.971,552.618,-3.75697e-07,318.85,-0.0358048,-0.0616808,-0.00309,0.0216502,-0.0171419,0.0429632,-4.17003e-06,-7.49221e-06,0.0311352,-0.00308523086347523,0.043899478642944745,-4.1700213054829405e-06,0.021886266128233967,-7.492181933410613e-06,-0.01699581355630919
57,98.04,184.833,555.214,-4.01128e-07,320.346,-0.0361656,-0.0623,-0.00318943,0.022266,-0.0176517,0.0442053,-4.32394e-06,-7.76946e-06,0.0321126,-0.003184349171222123,0.04519691178941465,-4.323930651750629e-06,0.022515737485254927,-7.769429817838791e-06,-0.017496821372815052
58,100.7,185.675,557.748,-4.27503e-07,321.807,-0.0365147,-0.0628992,-0.00328881,0.0228812,-0.018161,0.0454462,-4.47838e-06,-8.04766e-06,0.0330894,-0.0032834077882972768,0.04649470168446279,-4.478369972082952e-06,0.023144982702938854,-8.047627617635555e-06,-0.01799708283929391
59,103.5,186.497,560.223,-4.54765e-07,323.233,-0.0368527,-0.0634795,-0.00338814,0.0234958,-0.0186699,0.0466859,-4.63332e-06,-8.32675e-06,0.0340656,-0.0033824067305379124,0.047792845654425875,-4.633309266144359e-06,0.02377400088679571,-8.32671533268492e-06,-0.018496696986235017
60,106.2,187.3,562.642,-4.82862e-07,324.627,-0.0371803,-0.0640418,-0.00348742,0.0241097,-0.0191783,0.0479245,-4.78872e-06,-8.60668e-06,0.0350413,-0.003481346013770259,0.049091445930185884,-4.788708534153585e-06,0.02440268870192064,-8.60664296264968e-06,-0.01899556644212619
61,108.9,188.086,565.008,-5.11743e-07,325.991,-0.0374981,-0.0645873,-0.00358664,0.0247231,-0.0196864,0.0491619,-4.94456e-06,-8.8874e-06,0.0360163,-0.0035802156896130866,0.050390395179538805,-4.944547775664887e-06,0.025031250071233524,-8.887360507192632e-06,-0.019493888185457164
62,111.6,188.855,567.323,-5.41365e-07,327.325,-0.0378065,-0.0651167,-0.00368582,0.0253358,-0.020194,0.0503982,-5.1008e-06,-9.16887e-06,0.0369907,-0.003679035703255562,0.05168979588414069,-5.100786990896999e-06,0.02565947915647948,-9.168827966088422e-06,-0.01999146679168029
63,114.3,189.608,569.589,-5.71689e-07,328.631,-0.038106,-0.0656309,-0.00378494,0.025948,-0.0207012,0.0516333,-5.25744e-06,-9.45103e-06,0.0379644,-0.0037777861430839943,0.05298954044306248,-5.2574261797389e-06,0.02628758013171062,-9.45098533911004e-06,-0.02048840108653327
64,117.0,190.345,571.809,-6.02677e-07,329.911,-0.0383972,-0.0661306,-0.003884,0.0265595,-0.021208,0.0528673,-5.41444e-06,-9.73385e-06,0.0389375,-0.003876467027843722,0.05428973158891659,-5.414425341965234e-06,0.026915346907090854,-9.733802626255006e-06,-0.020984691794174726
65,119.7,191.067,573.985,-6.34296e-07,331.164,-0.0386803,-0.0666167,-0.003983,0.0271704,-0.0217144,0.0541001,-5.57177e-06,-1.00173e-05,0.03991,-0.003975078376265873,0.05559026145191526,-5.571754477684543e-06,0.027542881153335586,-1.0017249826965724e-05,-0.02148033963762419
66,122.4,191.776,576.117,-6.66516e-07,332.393,-0.0389558,-0.0670897,-0.00408194,0.0277808,-0.0222203,0.0553317,-5.72944e-06,-1.03013e-05,0.0408817,-0.004073620207066475,0.05689112732669166,-5.7294235867866306e-06,0.028170284792101707,-1.0301246941790687e-05,-0.021975247536293208
67,125.1,192.471,578.209,-6.99309e-07,333.599,-0.0392241,-0.0675502,-0.00418082,0.0283905,-0.0227258,0.0565622,-5.8874e-06,-1.05859e-05,0.0418528,-0.0041720925389481245,0.05819243232257043,-5.88738266926736e-06,0.0287973513565567,-1.0585843969512787e-05,-0.022469514112261724
68,127.8,193.152,580.262,-7.32649e-07,334.782,-0.0394854,-0.0679989,-0.00427964,0.0289997,-0.0232309,0.0577916,-6.04565e-06,-1.0871e-05,0.0428232,-0.004270495390598317,0.05949417411559077,-6.045631725126732e-06,0.029424285647798865,-1.0870940910900906e-05,-0.022963140084949263
69,130.5,193.821,582.276,-7.66513e-07,335.943,-0.0397401,-0.0684362,-0.00437839,0.0296082,-0.0237355,0.0590198,-6.20416e-06,-1.11565e-05,0.0437929,-0.004368818824379228,0.060796244297860236,-6.204140754251242e-06,0.030050880947901426,-1.1156437766501881e-05,-0.023456028518252348
70,133.2,194.478,584.255,-8.00878e-07,337.083,-0.0399885,-0.0688628,-0.00447708,0.0302162,-0.0242397,0.0602468,-6.36292e-06,-1.14426e-05,0.0447619,-0.0044670728172261365,0.06209864014606703,-6.362899756640061e-06,0.030677342308472966,-1.1442534533667725e-05,-0.02394827788218057
71,135.9,195.124,586.198,-8.35725e-07,338.203,-0.0402309,-0.069279,-0.0045757,0.0308235,-0.0247434,0.0614727,-6.52192e-06,-1.1729e-05,0.0457301,-0.004565247433435005,0.06340146527252277,-6.521898732292364e-06,0.03130346276068874,-1.1728931215593263e-05,-0.02443979133655605
72,138.6,195.758,588.108,-8.71036e-07,339.304,-0.0404675,-0.0696852,-0.00467426,0.0314303,-0.0252467,0.0626974,-6.68114e-06,-1.20159e-05,0.0466977,-0.004663352647943819,0.06470461086536461,-6.681117681206494e-06,0.031929447606486416,-1.2015827809408464e-05,-0.024930667250290472
73,141.3,196.382,589.986,-9.06794e-07,340.386,-0.0406985,-0.070082,-0.00477275,0.0320365,-0.0257496,0.063921,-6.84057e-06,-1.23031e-05,0.0476645,-0.0047613785269777775,0.066008180788657,-6.840546603381625e-06,0.032555192881856376,-1.2303024317206201e-05,-0.025420906336779958
74,144.0,196.995,591.832,-9.42982e-07,341.45,-0.0409243,-0.0704698,-0.00487117,0.0326421,-0.0262521,0.0651435,-7.00019e-06,-1.25906e-05,0.0486306,-0.004859325092073541,0.06731217269232004,-7.00016549870508e-06,0.033180697690404326,-1.2590520738764432e-05,-0.025910509308296636
75,146.7,197.598,593.647,-9.79585e-07,342.496,-0.0411449,-0.0708487,-0.00496952,0.0332471,-0.0267541,0.0663648,-7.15999e-06,-1.28786e-05,0.0495959,-0.004957192364748786,0.06861647736035237,-7.159964367287053e-06,0.033805961135627616,-1.2878517071213125e-05,-0.026399379515935628
76,149.4,198.191,595.434,-1.01659e-06,343.526,-0.0413607,-0.0712194,-0.0050678,0.0338515,-0.0272556,0.0675849,-7.31997e-06,-1.31668e-05,0.0505605,-0.005054980366502204,0.0699210920427249,-7.319943209127544e-06,0.03443098232091324,-1.316671331808017e-05,-0.026887517816198803
77,152.1,198.775,597.192,-1.05399e-06,344.539,-0.0415717,-0.071582,-0.00516601,0.0344553,-0.0277567,0.068804,-7.4801e-06,-1.34553e-05,0.0515243,-0.005152689118813392,0.07122622823015545,-7.480072024113049e-06,0.03505576034954383,-1.345520947781953e-05,-0.02737502232656497
78,154.8,199.35,598.923,-1.09176e-06,345.536,-0.0417783,-0.0719368,-0.00526415,0.0350586,-0.0282574,0.0700218,-7.64037e-06,-1.3744e-05,0.0524874,-0.005250318643144181,0.07253156218741896,-7.640340812464785e-06,0.03568039789273203,-1.3743905551644175e-05,-0.02786189375445236
79,157.6,199.916,600.628,-1.1299e-06,346.519,-0.0419805,-0.0722842,-0.00536222,0.0356612,-0.0287576,0.0712386,-7.80079e-06,-1.4033e-05,0.0534498,-0.0053478689609369745,0.07383741291074841,-7.800759573961535e-06,0.03630468697991285,-1.4032901537897047e-05,-0.028348035640974767
80,160.3,200.474,602.307,-1.1684e-06,347.486,-0.0421785,-0.0726245,-0.00546021,0.0362633,-0.0292574,0.0724542,-7.96133e-06,-1.43223e-05,0.0544113,-0.005445330148068583,0.07514356338730255,-7.96129830871184e-06,0.036928833912521775,-1.4322197436356099e-05,-0.028833545953627415
81,163.0,201.023,603.961,-1.20724e-06,348.44,-0.0423726,-0.0729579,-0.00555814,0.0368648,-0.0297568,0.0736686,-8.12198e-06,-1.46117e-05,0.0553721,-0.005542722118011434,0.07645001084501768,-8.121947016825892e-06,0.037552734225328344,-1.4611593249669319e-05,-0.029318425396303915
82,165.7,201.564,605.591,-1.24643e-06,349.379,-0.0425627,-0.0732846,-0.00565598,0.0374658,-0.0302557,0.074882,-8.28275e-06,-1.49014e-05,0.0563322,-0.005640015058431147,0.07775696805876153,-8.282715698082477e-06,0.03817649083868524,-1.4901288974744631e-05,-0.029802577652051188
83,168.4,202.098,607.198,-1.28594e-06,350.305,-0.0427491,-0.073605,-0.00575376,0.0380661,-0.0307541,0.0760942,-8.44362e-06,-1.51912e-05,0.0572915,-0.005737238824411461,0.07906421721908252,-8.443584352701983e-06,0.03879989528225858,-1.5191084614341044e-05,-0.030286003567604358
84,171.1,202.624,608.782,-1.32577e-06,351.218,-0.0429319,-0.0739192,-0.00585146,0.0386659,-0.0312522,0.0773052,-8.60458e-06,-1.54812e-05,0.05825,-0.005834373551069527,0.08037175554079434,-8.604542980683583e-06,0.03942315435615984,-1.5481080166801497e-05,-0.030768897834426157
85,173.8,203.143,610.344,-1.36592e-06,352.118,-0.0431112,-0.0742274,-0.00594909,0.0392651,-0.0317497,0.0785151,-8.76563e-06,-1.57714e-05,0.0592077,-0.005931429203331118,0.08167968840225526,-8.765591582027277e-06,0.04004616334510236,-1.5771275632125992e-05,-0.03125097038226432
86,176.5,203.655,611.885,-1.40638e-06,353.006,-0.0432871,-0.0745299,-0.00604664,0.0398638,-0.0322469,0.079724,-8.92675e-06,-1.60617e-05,0.0601646,-0.006028395862786695,0.08298812170072245,-8.92671015673141e-06,0.04066902541825401,-1.606157101163852e-05,-0.03173251267845534
87,179.2,204.159,613.405,-1.44713e-06,353.882,-0.0434598,-0.0748268,-0.00614412,0.0404618,-0.0327436,0.0809316,-9.08794e-06,-1.63521e-05,0.0611208,-0.006125283492378064,0.08429672813402433,-9.087898704795982e-06,0.04129153160625343,-1.6351966305117038e-05,-0.032213331718114246
88,181.9,204.658,614.905,-1.48818e-06,354.746,-0.0436294,-0.0751184,-0.00624152,0.0410593,-0.0332398,0.0821382,-9.2492e-06,-1.66427e-05,0.0620762,-0.006222082175593502,0.08560583018863555,-9.249157226332017e-06,0.04191388920720596,-1.6642561511015508e-05,-0.0326934283410929
89,184.6,205.149,616.386,-1.52953e-06,355.6,-0.0437959,-0.0754047,-0.00633885,0.0416563,-0.0337356,0.0833436,-9.41051e-06,-1.69333e-05,0.0630308,-0.0063188018733948415,0.08691520846008638,-9.410465721337857e-06,0.04253609750976062,-1.6933156632537028e-05,-0.03317290006845841
90,187.3,205.634,617.847,-1.57115e-06,356.442,-0.0439595,-0.0756861,-0.0064361,0.0422526,-0.034231,0.0845479,-9.57188e-06,-1.72241e-05,0.0639846,-0.0064154326711642895,0.08822496895961995,-9.57183418970331e-06,0.04315794717075594,-1.722395166603441e-05,-0.03365174759343925
91,190.0,206.114,619.289,-1.61305e-06,357.273,-0.0441203,-0.0759626,-0.00653327,0.0428484,-0.0347259,0.0857511,-9.73328e-06,-1.75149e-05,0.0649376,-0.006511974593006009,0.08953510926462349,-9.733232631758959e-06,0.043779645861329985,-1.751474661504382e-05,-0.03412987502116427
92,192.7,206.587,620.714,-1.65523e-06,358.094,-0.0442783,-0.0762344,-0.00663037,0.0434436,-0.0352204,0.0869531,-9.89473e-06,-1.78058e-05,0.0658899,-0.006608437596918537,0.09084551786375372,-9.894681047284415e-06,0.044401088429508295,-1.780564147768615e-05,-0.03460737972519812
93,195.4,207.054,622.121,-1.69767e-06,358.905,-0.0444336,-0.0765017,-0.00672739,0.0440383,-0.0357144,0.0881541,-1.00562e-05,-1.80968e-05,0.0668413,-0.006704811771116037,0.09215641036408528,-1.0056149436610262e-05,0.04502237847908286,-1.8096636253850384e-05,-0.035084165903731535
94,198.1,207.515,623.511,-1.74038e-06,359.706,-0.0445864,-0.0767645,-0.00682433,0.0446324,-0.036208,0.0893539,-1.02177e-05,-1.83878e-05,0.067792,-0.006801097139635726,0.09346756603023776,-1.0217647799515284e-05,0.0456434107335022,-1.8387630945415623e-05,-0.035560330832269504
95,200.8,207.971,624.884,-1.78335e-06,360.497,-0.0447367,-0.0770231,-0.00692119,0.045226,-0.0367012,0.0905526,-1.03793e-05,-1.86789e-05,0.0687418,-0.0068972937264909495,0.09477909150739094,-1.0379246135228115e-05,0.04626428892052825,-1.867872555039174e-05,-0.0360358751982226
96,203.5,208.422,626.241,-1.82657e-06,361.279,-0.0448845,-0.0772776,-0.00701798,0.0458189,-0.0371939,0.0917502,-1.05408e-05,-1.897e-05,0.0696909,-0.006993411485737067,0.09609098435201746,-1.0540744445952654e-05,0.04688480295063613,-1.896982007065784e-05,-0.03651070333899453
97,206.2,208.867,627.582,-1.87005e-06,362.051,-0.0450301,-0.077528,-0.00711469,0.0464114,-0.0376861,0.0929467,-1.07024e-05,-1.92611e-05,0.0706392,-0.007089440509354117,0.0974032421164488,-1.0702342729485004e-05,0.047505265990408496,-1.9260914506213922e-05,-0.036984816082093364
98,208.9,209.307,628.907,-1.91378e-06,362.815,-0.0451733,-0.0777746,-0.00721133,0.0470032,-0.038178,0.0941421,-1.0864e-05,-1.95522e-05,0.0715867,-0.007185390749432918,0.09871586234887819,-1.0863940986927112e-05,0.04812536307545123,-1.9552008856948966e-05,-0.03745840676188539
99,211.7,209.742,630.217,-1.95775e-06,363.57,-0.0453143,-0.0780173,-0.00730788,0.0475945,-0.0386694,0.0953363,-1.10255e-05,-1.98434e-05,0.0725333,-0.007281242372644381,0.10002873259049139,-1.1025439219380928e-05,0.0487453028697753,-1.9843203120983866e-05,-0.03793128350547126
100,214.4,210.172,631.512,-2.00197e-06,364.316,-0.0454532,-0.0782565,-0.00740436,0.0481853,-0.0391603,0.0965295,-1.11871e-05,-2.01346e-05,0.0734792,-0.007377015258222208,0.10134207025565001,-1.1187037424642554e-05,0.049365084660223824,-2.013439730030875e-05,-0.03840344713635324
101,217.1,210.598,632.793,-2.04643e-06,365.055,-0.04559,-0.078492,-0.00750076,0.0487755,-0.0396508,0.0977216,-1.13487e-05,-2.04257e-05,0.0744243,-0.007472699501896551,0.1026557630085927,-1.1348635603702917e-05,0.04998460273499061,-2.042549139680272e-05,-0.03887499458906607
102,219.8,211.018,634.06,-2.09112e-06,365.785,-0.0457248,-0.0787241,-0.00759708,0.0493651,-0.0401409,0.0989125,-1.15103e-05,-2.07169e-05,0.0753686,-0.0075682951275213295,0.10396969798405098,-1.151023375678406e-05,0.050603856194743946,-2.0716685406485524e-05,-0.03934592654291613
103,222.5,211.434,635.313,-2.13605e-06,366.507,-0.0458576,-0.0789529,-0.00769332,0.0499542,-0.0406305,0.100102,-1.16718e-05,-2.1008e-05,0.0763121,-0.007663802158926147,0.10528365125858596,-1.167173188476589e-05,0.05122294926238746,-2.1007779333559462e-05,-0.03981614765775898
104,225.2,211.846,636.552,-2.18121e-06,367.221,-0.0459885,-0.0791784,-0.00778948,0.0505427,-0.0411197,0.101291,-1.18334e-05,-2.12991e-05,0.0772548,-0.007759220619917517,0.10659861511102675,-1.183332998555553e-05,0.05184177603994766,-2.129887317581236e-05,-0.040285754723071054
105,227.9,212.253,637.779,-2.22659e-06,367.927,-0.0461175,-0.0794007,-0.00788557,0.0511307,-0.0416085,0.102479,-1.19949e-05,-2.15902e-05,0.0781967,-0.007854560455732296,0.10791403547076306,-1.19948280614679e-05,0.05246044087389534,-2.1589966933355242e-05,-0.04075474841476634
106,230.6,212.656,638.992,-2.27221e-06,368.627,-0.0462448,-0.0796199,-0.00798158,0.0517181,-0.0420968,0.103665,-1.21565e-05,-2.18813e-05,0.0791378,-0.007949811766770454,0.10922880101868926,-1.2156426110077057e-05,0.0530788377422442,-2.1881060606077085e-05,-0.041223033529999786
107,233.3,213.055,640.192,-2.31805e-06,369.318,-0.0463703,-0.0798362,-0.0080775,0.052305,-0.0425847,0.104851,-1.2318e-05,-2.21723e-05,0.0800781,-0.008044964657220377,0.11054512680359307,-1.2317924133697922e-05,0.053697071114952255,-2.2172054196412105e-05,-0.04169070671378994
108,236.0,213.449,641.381,-2.36412e-06,370.003,-0.046494,-0.0800495,-0.00817335,0.0528914,-0.0430721,0.106035,-1.24794e-05,-2.24633e-05,0.0810176,-0.008140038990847809,0.11186079095320745,-1.2479322132663562e-05,0.05431514027762141,-2.2463047701926087e-05,-0.04215767285444494
109,238.7,213.84,642.557,-2.4104e-06,370.681,-0.0466162,-0.0802601,-0.00826912,0.0534772,-0.0435591,0.107219,-1.26409e-05,-2.27542e-05,0.0819563,-0.008235024870842045,0.11317801377172487,-1.2640820104214967e-05,0.054932939022381166,-2.2753941125164268e-05,-0.04262402850094771
110,241.4,214.226,643.721,-2.4569e-06,371.352,-0.0467367,-0.0804678,-0.00836481,0.0540624,-0.0440457,0.108401,-1.28023e-05,-2.30451e-05,0.0828942,-0.008329922320871264,0.114494568114337,-1.2802218050889103e-05,0.055550466449199254,-2.3044834463692432e-05,-0.04308977432353078
111,244.1,214.609,644.874,-2.50363e-06,372.016,-0.0468556,-0.0806729,-0.00846042,0.0546471,-0.0445318,0.109582,-1.29636e-05,-2.33359e-05,0.0838313,-0.008424731364579774,0.11581156373211798,-1.2963515972908013e-05,0.0561678272747812,-2.3335627720055818e-05,-0.043554815346854125
112,246.8,214.988,646.015,-2.55056e-06,372.674,-0.0469731,-0.0808754,-0.00855596,0.0552313,-0.0450175,0.110762,-1.3125e-05,-2.36267e-05,0.0847676,-0.008519461940393325,0.11712899851097514,-1.3124913867512689e-05,0.0567850207841456,-2.3626420891709188e-05,-0.04401924797644596
113,249.5,215.363,647.146,-2.59772e-06,373.325,-0.047089,-0.0810753,-0.00865141,0.0558149,-0.0455028,0.111941,-1.32863e-05,-2.39174e-05,0.0857031,-0.008614094241352843,0.11844687033300061,-1.3286211737462139e-05,0.05740194052194503,-2.3917113981308802e-05,-0.04448307287918707
114,252.2,215.735,648.265,-2.64508e-06,373.97,-0.0472035,-0.0812728,-0.00874679,0.056398,-0.0459876,0.113119,-1.34476e-05,-2.4208e-05,0.0866378,-0.008708648119697848,0.11976517707647516,-1.3447509581432371e-05,0.058018691389703836,-2.4207706988743638e-05,-0.04494619521553023
115,254.9,216.103,649.374,-2.69265e-06,374.609,-0.0473165,-0.0814679,-0.00884208,0.0569805,-0.046472,0.114296,-1.36088e-05,-2.44986e-05,0.0875717,-0.00880310377220761,0.12108391661587259,-1.3608707400747377e-05,0.05863516680847303,-2.4498299911801524e-05,-0.04540871124814072
116,257.6,216.468,650.472,-2.74044e-06,375.242,-0.0474283,-0.0816606,-0.0089373,0.0575625,-0.046956,0.115471,-1.37699e-05,-2.4789e-05,0.0885048,-0.008897481047292932,0.1224019644193366,-1.3769805195407159e-05,0.05925147180291246,-2.4788692755239872e-05,-0.04587062164056466
117,260.3,216.829,651.56,-2.78843e-06,375.869,-0.0475386,-0.081851,-0.00903243,0.058144,-0.0474395,0.116646,-1.39311e-05,-2.50794e-05,0.0894371,-0.008991760145464545,0.12372156183919136,-1.3931002962652705e-05,0.05986760565732241,-2.5079085514523314e-05,-0.046331831688487535
118,263.0,217.187,652.637,-2.83663e-06,376.49,-0.0476477,-0.0820392,-0.00912749,0.0587249,-0.0479226,0.11782,-1.40921e-05,-2.53697e-05,0.0903686,-0.009085960911311863,0.125041585655157,-1.4092000706789065e-05,0.060483461607491185,-2.5369378191864023e-05,-0.046792437512303886
119,265.8,217.542,653.705,-2.88504e-06,377.105,-0.0477555,-0.0822253,-0.00922247,0.0593053,-0.0484053,0.118992,-1.42532e-05,-2.56599e-05,0.0912993,-0.00918007345726879,0.12636090736505046,-1.4253098423622212e-05,0.06109914486260548,-2.5659570787595065e-05,-0.047252439772239696
120,268.5,217.893,654.763,-2.93365e-06,377.715,-0.047862,-0.0824092,-0.00931737,0.0598851,-0.0488875,0.120164,-1.44141e-05,-2.595e-05,0.0922292,-0.009274097806771908,0.12768177622644128,-1.4413996117346173e-05,0.061714548535081404,-2.594966330160542e-05,-0.047711743898656955
121,270.5,218.156,655.557,-3.10876e-06,378.172,-0.0479416,-0.0825466,-0.00938902,0.0603229,-0.0492516,0.121048,-1.45357e-05,-2.61691e-05,0.0929312,-0.00934508077466878,0.12867908766333436,-1.4535594357267811e-05,0.06217946892807835,-2.616875759209325e-05,-0.048058408938502994
