,Time,S11,S22,S33,S12,S13,S23,LE11,LE22,LE33,LE12,LE13,LE23,SDV_EPBAR,E11,E12,E13,E22,E23,E33
0,0.0002565,0.000139163,0.0019383,-7.79048e-12,0.000519365,-1.80987e-20,-3.70362e-21,-2.12864e-09,9.1292e-09,-3.00057e-09,6.49972e-09,-1.99692e-25,5.35061e-26,0.0,-2.128640042009522e-09,6.499720095476391e-09,0.0,9.129200062574228e-09,0.0,-3.0005700146773506e-09
1,0.000513,0.000278327,0.00387659,4.33681e-19,0.00103873,2.77977e-29,1.03743e-28,-4.2578e-09,1.82584e-08,-6.00057e-09,1.29997e-08,5.35234e-26,1.99752e-25,0.0,-4.257800001461476e-09,1.2999699983140545e-08,0.0,1.8258400125148455e-08,0.0,-6.000569929831556e-09
2,0.00089775,0.000487072,0.00678404,-2.1684e-19,0.00181778,3.61974e-20,7.40724e-21,-7.45077e-09,3.19522e-08,-1.05014e-08,2.27493e-08,-2.43533e-33,-9.08878e-33,0.0,-7.45077000097183e-09,2.2749300221391877e-08,0.0,3.19522004410544e-08,0.0,-1.0501399971829528e-08
3,0.0014749,0.00080019,0.0111452,4.33681e-19,0.00298635,-8.55315e-21,-3.19208e-20,-1.22421e-08,5.24927e-08,-1.72507e-08,3.73747e-08,8.00167e-33,2.98626e-32,0.0,-1.2242099889370195e-08,3.737470066766946e-08,0.0,5.249270129681349e-08,0.0,-1.725069986857619e-08
4,0.0023406,0.00126987,0.017687,8.67362e-19,0.00473921,-1.71063e-20,-6.38416e-20,-1.94275e-08,8.33037e-08,-2.73762e-08,5.93119e-08,1.59794e-24,-4.28165e-25,0.0,-1.9427499831081718e-08,5.931190183439128e-08,0.0,8.33037034908557e-08,0.0,-2.7376199640549714e-08
5,0.0036391,0.00197438,0.0274996,-3.46945e-18,0.00736849,-6.38416e-20,1.71063e-20,-3.02058e-08,1.2952e-07,-4.25643e-08,9.22178e-08,0.0,0.0,0.0,-3.0205799528282284e-08,9.221780428170234e-08,0.0,1.295200084960868e-07,0.0,-4.256429908533477e-08
6,0.0055869,0.00303115,0.0422185,-8.67362e-19,0.0113124,1.32267e-19,2.3826e-19,-4.63759e-08,1.98845e-07,-6.53437e-08,1.41578e-07,1.71272e-24,6.39196e-24,0.0,-4.637589889888716e-08,1.4157800998226833e-07,0.0,1.9884501978317815e-07,0.0,-6.534369789701344e-08
7,0.0085086,0.00461631,0.0642969,7.80626e-18,0.0172283,-6.38416e-20,1.71063e-20,-7.06269e-08,3.02832e-07,-9.95172e-08,2.15616e-07,0.0,0.0,0.0,-7.062689755255036e-08,2.156160232580362e-07,0.0,3.0283204588421597e-07,0.0,-9.951719504019962e-08
8,0.012891,0.00699405,0.0974145,9.54098e-18,0.0261021,-2.5995e-19,-2.04047e-19,-1.07003e-07,4.58812e-07,-1.50778e-07,3.26673e-07,5.59507e-31,2.08811e-30,0.0,-1.0700299424293291e-07,3.266730532747175e-07,0.0,4.5881210519738147e-07,0.0,-1.5077798865004155e-07
9,0.019465,0.0105607,0.147091,2.60209e-18,0.0394129,-1.231e-19,3.06685e-19,-1.61575e-07,6.92782e-07,-2.2766e-07,4.93263e-07,3.42544e-24,1.27839e-23,0.0,-1.6157498694546746e-07,4.932631216814087e-07,0.0,6.927822400193406e-07,0.0,-2.2765997409468497e-07
10,0.029326,0.0159106,0.221605,1.64799e-17,0.059379,-1.02605e-18,1.22825e-21,-2.43427e-07,1.04374e-06,-3.4299e-07,7.43145e-07,1.27278e-30,4.75008e-30,0.0,-2.4342697035883987e-07,7.43145276205226e-07,0.0,1.0437405446594994e-06,0.0,-3.429899412266124e-07
11,0.044117,0.0239354,0.333377,-1.82146e-17,0.0893282,-1.29975e-18,-1.02024e-18,-3.66206e-07,1.57017e-06,-5.15985e-07,1.11797e-06,9.57359e-30,3.57291e-29,0.0,-3.662059329112566e-07,1.1179706249642152e-06,0.0,1.570171232812001e-06,0.0,-5.159848668334632e-07
12,0.066303,0.0359727,0.501035,-4.33681e-18,0.134252,-1.57345e-18,-2.0417e-18,-5.50367e-07,2.35982e-06,-7.75483e-07,1.6802e-06,2.58995e-29,9.66581e-29,0.0,-5.503668485395963e-07,1.6802014115580022e-06,0.0,2.3598227842924757e-06,0.0,-7.754826992778519e-07
13,0.099583,0.0540286,0.752521,-3.20924e-17,0.201637,-4.78647e-19,2.04416e-18,-8.26616e-07,3.54429e-06,-1.16472e-06,2.52354e-06,-1.0227e-22,2.7403e-23,0.0,-8.266156583669471e-07,2.523543184196342e-06,0.0,3.544296280910686e-06,0.0,-1.1647193217667606e-06
14,0.1495,0.0811124,1.12975,5.11743e-17,0.302715,-1.57345e-18,-2.0417e-18,-1.241e-06,5.321e-06,-1.74857e-06,3.78857e-06,5.83989e-29,2.17947e-28,0.0,-1.2409992299344808e-06,3.788577176644381e-06,0.0,5.321014156622894e-06,0.0,-1.7485684712381655e-06
15,0.2244,0.121738,1.69559,-1.98626e-16,0.454332,2.51241e-18,-3.13649e-18,-1.86256e-06,7.98605e-06,-2.62435e-06,5.6861e-06,8.76482e-29,3.27108e-28,0.0,-1.862558265397496e-06,5.686116165914967e-06,0.0,7.986081888677887e-06,0.0,-2.6243465564013135e-06
16,0.3367,0.182676,2.54435,4.11997e-16,0.681756,-7.55557e-18,8.3196e-18,-2.79488e-06,1.19836e-05,-3.93804e-06,8.53236e-06,-4.09085e-22,1.09613e-22,0.0,-2.7948760943363737e-06,8.532396400751097e-06,0.0,1.1983671803550422e-05,0.0,-3.938032245964784e-06
17,0.5052,0.274083,3.81748,6.34041e-16,1.02289,4.99531e-18,2.24732e-17,-4.19337e-06,1.79799e-05,-5.90853e-06,1.28018e-05,4.09084e-22,-1.09621e-22,0.0,-4.1933612078270954e-06,1.2801881943413917e-05,0.0,1.79800616393333e-05,0.0,-5.908512544672284e-06
18,0.7579,0.411192,5.72716,4.11997e-16,1.53459,1.53565e-17,2.8455e-17,-6.2911e-06,2.69743e-05,-8.86425e-06,1.92058e-05,8.18172e-22,-2.19244e-22,0.0,-6.291080211107136e-06,1.920598443261312e-05,0.0,2.697466380974234e-05,0.0,-8.864210712666853e-06
19,1.137,0.616853,8.59165,-9.20271e-16,2.30213,-1.73305e-17,3.72128e-17,-9.43765e-06,4.04657e-05,-1.32978e-05,2.88117e-05,8.18174e-22,-2.19252e-22,0.0,-9.4376054655676e-06,2.8812115061116472e-05,0.0,4.0466518747450664e-05,0.0,-1.3297711584647764e-05
20,1.706,0.925338,12.8883,-4.25094e-15,3.45341,-3.80533e-17,2.52482e-17,-1.41574e-05,6.07025e-05,-1.99479e-05,4.32204e-05,-4.07135e-27,-1.51945e-26,0.0,-1.4157299784489652e-05,4.322133401490902e-05,0.0,6.070434243410361e-05,0.0,-1.994770104196686e-05
21,2.559,1.38805,19.3331,-2.86758e-14,5.18029,4.24911e-17,-6.63986e-17,-2.12368e-05,9.10568e-05,-2.99229e-05,6.48327e-05,3.2728e-21,-8.76854e-22,0.0,-2.123657450070482e-05,6.483480168495426e-05,0.0,9.106094579625079e-05,0.0,-2.992245231447921e-05
22,3.838,8.35811,116.413,-1.03264e-09,31.1929,1.36857e-15,6.98664e-16,-0.000127877,0.000548295,-0.000180179,0.000390388,3.50568e-21,1.30834e-20,0.0,-0.00012786882408488687,0.0003904642113123913,0.0,0.0005484453411794821,0.0,-0.00018016276873877857
23,5.757,18.8545,262.609,-9.04826e-07,70.3658,-2.37664e-16,-1.11195e-15,-0.000288468,0.00123686,-0.000406453,0.000880648,1.91804e-20,-3.31861e-20,0.0,-0.0002884263971069112,0.0008810358843047705,0.0,0.0012376252267900512,0.0,-0.00040637040916957634
24,8.322,32.8009,456.967,1.05885e-05,122.429,-0.000606402,-0.00226303,-0.000503545,0.00215627,-0.000709709,0.00153587,-7.61257e-09,-2.84125e-08,4.67267e-06,-0.0005034182424933364,0.0015370500523868014,-7.612570018800113e-09,0.0021585964219872356,-2.841249957530323e-08,-0.0007094572161356894
25,10.89,34.0698,480.417,5.66646e-05,127.939,-0.0792984,-0.295469,-0.000834264,0.00304995,-0.00122508,0.00231402,-1.43945e-06,-5.44113e-06,0.000919784,-0.0008339160985429972,0.0023166994106180727,-1.4394489640245922e-06,0.003054605829647228,-5.441115197069024e-06,-0.0012243298958406479
26,13.45,35.1109,499.631,6.28775e-05,132.456,-0.142928,-0.532247,-0.00116778,0.00394236,-0.00174498,0.00309364,-3.02806e-06,-1.1493e-05,0.00185603,-0.0011670984102771786,0.0030984302427132793,-3.0280554154105133e-06,0.003950141323417089,-1.1492933955747908e-05,-0.001743458407577947
27,16.02,35.9929,515.957,2.19855e-05,136.289,-0.196578,-0.731666,-0.00150323,0.00483375,-0.00226778,0.00387357,-4.77081e-06,-1.81632e-05,0.00280637,-0.001502100715712329,0.0038810819685193287,-4.77079861971319e-06,0.004845451415840474,-1.8163035050089427e-05,-0.00226521052963391
28,18.58,36.7595,530.182,1.16272e-06,139.625,-0.242811,-0.903346,-0.00184009,0.00572423,-0.00279253,0.00465327,-6.65108e-06,-2.53818e-05,0.00376669,-0.0018383980723213345,0.0046641132732152535,-6.651057881668088e-06,0.005740644710125586,-2.5381477884889314e-05,-0.00278863451502942
29,21.15,37.4382,542.81,-1.41851e-05,142.582,-0.283355,-1.05377,-0.00217798,0.00661384,-0.00331863,0.00543242,-8.65394e-06,-3.30869e-05,0.00473436,-0.0021756099225324066,0.005447202349382563,-8.65390255477827e-06,0.0066357597376727195,-3.308635263454818e-05,-0.003313129433925144
30,23.71,38.0477,554.18,-2.88548e-05,145.242,-0.319413,-1.18743,-0.00251667,0.00750264,-0.00384568,0.00621084,-1.07663e-05,-4.12251e-05,0.00570758,-0.002513505840993413,0.006230167258872488,-1.0766242043547258e-05,0.0075308553224811,-4.1224250257210215e-05,-0.003838294842685941
31,26.28,38.6012,564.533,-4.44902e-05,147.662,-0.351853,-1.3076,-0.00285598,0.00839064,-0.00437337,0.00698841,-1.2977e-05,-4.97508e-05,0.00668512,-0.002851905568874047,0.007012885919865486,-1.2976915799045585e-05,0.008425940080822203,-4.9749562449519225e-05,-0.004363820743304436
32,28.84,39.1084,574.045,-6.1691e-05,149.882,-0.381316,-1.41665,-0.00319576,0.00927785,-0.00490151,0.00776505,-1.52763e-05,-5.86248e-05,0.00766603,-0.0031906589943212493,0.00779527618604825,-1.5276183317869396e-05,0.00932102266351742,-5.862308159998442e-05,-0.0048895172021337086
33,31.41,39.5765,582.852,-8.06808e-05,151.934,-0.40829,-1.51643,-0.00353591,0.0101643,-0.00542994,0.00854071,-1.76557e-05,-6.78134e-05,0.00864963,-0.003529666031773737,0.008577285917600985,-1.7655544139016932e-05,0.010216131960261166,-6.78111007234028e-05,-0.00541522452256582
34,33.97,40.0113,591.055,-0.000101503,153.844,-0.433152,-1.60833,-0.00387635,0.0110499,-0.00595853,0.00931535,-2.0108e-05,-7.72877e-05,0.00963537,-0.0038688466536687116,0.009358872911555016,-2.010779783556682e-05,0.011111175633566228,-7.728471338264153e-05,-0.005940813166346981
35,36.54,40.4173,598.739,-0.000124141,155.63,-0.456203,-1.69348,-0.00421701,0.0119348,-0.00648718,0.010089,-2.2627e-05,-8.70225e-05,0.0106228,-0.00420813089880101,0.010140065549461008,-2.2626744011322586e-05,0.012006303903976834,-8.701871365202063e-05,-0.006466183674671555
36,39.1,40.7981,605.969,-0.000148547,157.309,-0.47768,-1.77278,-0.00455784,0.012819,-0.00701582,0.0108615,-2.52071e-05,-9.69956e-05,0.0116116,-0.004547468809991573,0.010920700231423108,-2.5206782303777153e-05,0.012901515592652402,-9.699089607884126e-05,-0.006991266589189471
37,41.67,41.1567,612.798,-0.000174664,158.892,-0.497781,-1.84695,-0.00489878,0.0137023,-0.00754439,0.0116331,-2.78433e-05,-0.000107188,0.0126015,-0.004886800546807346,0.011701027655326879,-2.7842912378894802e-05,0.013796606760192454,-0.00010718225557149186,-0.007516002523355048
38,44.23,41.4954,619.272,-0.000202429,160.39,-0.516665,-1.91659,-0.00523981,0.0145849,-0.00807283,0.0124035,-3.05314e-05,-0.000117582,0.0135923,-0.005226106141234976,0.012480742434600955,-3.0530933921579795e-05,0.014691778626553242,-0.00011757508750753765,-0.008040332216388446
39,46.8,41.8165,625.429,-0.000231778,161.813,-0.534466,-1.9822,-0.00558089,0.0154667,-0.0086011,0.0131729,-3.32675e-05,-0.000128162,0.0145837,-0.00556534576373835,0.01326004487703547,-3.326694664285146e-05,0.015586928450499915,-0.0001281537876016703,-0.008564216361766519
40,49.36,42.1216,631.299,-0.000262651,163.168,-0.551299,-2.04421,-0.00592198,0.0163478,-0.00912916,0.0139412,-3.60482e-05,-0.000138916,0.0155756,-0.0059044796390769205,0.014038831702164911,-3.6047550271423034e-05,0.01648215642792672,-0.00013890635161917242,-0.00908761573637551
41,51.93,42.4123,636.911,-0.00029499,164.462,-0.567258,-2.10296,-0.00626307,0.0172281,-0.00965699,0.0147085,-3.88704e-05,-0.00014983,0.0165679,-0.006243497858967828,0.0148172022814137,-3.886964455579456e-05,0.0173773596361122,-0.000149818776046029,-0.009610511008115386
42,54.49,42.6898,642.287,-0.000328741,165.699,-0.582426,-2.15878,-0.00660413,0.0181076,-0.0101846,0.0154748,-4.17312e-05,-0.000160894,0.0175603,-0.00658237066032441,0.015595154737936934,-4.173032926557685e-05,0.01827253662028805,-0.00016088105725442503,-0.010132912582136777
43,57.06,42.9553,647.449,-0.000363851,166.884,-0.596874,-2.21192,-0.00694515,0.0189863,-0.0107118,0.0162399,-4.46281e-05,-0.000172098,0.0185529,-0.0069210881822744375,0.016372483920186198,-4.4627104181182986e-05,0.019167685924466715,-0.00017208319198858124,-0.010654632973044476
44,59.62,43.2097,652.413,-0.000400271,168.023,-0.610663,-2.26261,-0.00728611,0.0198643,-0.0112388,0.0170041,-4.75588e-05,-0.000183432,0.0195456,-0.007259630650048088,0.017149492629611407,-4.755766909814163e-05,0.020062908097732812,-0.000183415177379187,-0.011175880620648782
45,62.19,43.4539,657.195,-0.000437955,169.118,-0.623847,-2.31105,-0.00762698,0.0207415,-0.0117655,0.0177672,-5.05212e-05,-0.000194889,0.0205382,-0.007597968391879428,0.017925975636848168,-5.0519923825653734e-05,0.0209580998544181,-0.00019487001037243878,-0.011696557152124365
46,64.75,43.6887,661.809,-0.00047686,170.174,-0.636473,-2.35743,-0.00796777,0.0216179,-0.0122918,0.0185292,-5.35134e-05,-0.00020646,0.0215307,-0.007936111459070694,0.01870193083166649,-5.351196818359494e-05,0.02185325973489416,-0.0002064386886008185,-0.012216564402184216
47,67.32,43.9148,666.267,-0.000516945,171.192,-0.648583,-2.40188,-0.00830846,0.0224936,-0.0128177,0.0192903,-5.65335e-05,-0.000218139,0.022523,-0.008274040137528305,0.019477559999460548,-5.65319020118249e-05,0.02274848855317324,-0.0002181152094181682,-0.01273590313887496
48,69.88,44.1327,670.58,-0.00055817,172.175,-0.660215,-2.44456,-0.00864904,0.0233685,-0.0133433,0.0200503,-5.95799e-05,-0.000229919,0.0235151,-0.008611744653971742,0.020252657444781663,-5.957812515300365e-05,0.023643682751408157,-0.00022989257065220148,-0.013254672803574397
49,72.45,44.343,674.758,-0.000600499,173.126,-0.671401,-2.48558,-0.00898949,0.0242426,-0.0138685,0.0208092,-6.26511e-05,-0.000241794,0.0245069,-0.008949205338000032,0.021027221057504653,-6.26491374607907e-05,0.024538840866360045,-0.00024176477018666986,-0.013772775383771307
50,75.01,44.5462,678.81,-0.000643897,174.047,-0.68217,-2.52506,-0.00932982,0.025116,-0.0143934,0.0215672,-6.57457e-05,-0.000253759,0.0254984,-0.009286432267471945,0.02180145308793513,-6.574353879884587e-05,0.025434063976996546,-0.0002537268059081832,-0.014290310215073099
51,77.58,44.7427,682.743,-0.00068833,174.939,-0.69255,-2.56309,-0.00967,0.0259886,-0.0149178,0.0223242,-6.88623e-05,-0.000265808,0.0264895,-0.009623395891550812,0.0225752496329632,-6.885992904626104e-05,0.026329248253321058,-0.000265772676183329,-0.01480708086728899
52,80.14,44.933,686.565,-0.000733767,175.805,-0.702564,-2.59976,-0.01001,0.0268604,-0.0154419,0.0230801,-7.19998e-05,-0.000277937,0.0274802,-0.009960066699667092,0.02334850647976694,-7.199720807660182e-05,0.02722439222851203,-0.0002778983790900913,-0.01532328519304671
53,82.71,45.1174,690.283,-0.000780178,176.646,-0.712235,-2.63516,-0.0103499,0.0277314,-0.0159655,0.0238351,-7.51569e-05,-0.000290141,0.0284705,-0.0102965240888232,0.0241214263426921,-7.515407579095079e-05,0.028119494434565295,-0.0002900989131705556,-0.01583872696648725
54,85.27,45.2963,693.901,-0.000827533,177.463,-0.721581,-2.66935,-0.0106897,0.0286017,-0.0164888,0.024589,-7.83326e-05,-0.000302417,0.0294603,-0.010632768198828302,0.02489380259665852,-7.832953208197768e-05,0.02901465630375788,-0.0003023712765883868,-0.01635360383138451
55,87.84,45.4698,697.427,-0.000875806,178.258,-0.730621,-2.70241,-0.0110292,0.0294712,-0.0170116,0.025342,-8.15259e-05,-0.000314759,0.0304496,-0.01096860136311939,0.025665838264963492,-8.152257685412057e-05,0.02990977364328229,-0.0003147094685829188,-0.016867719765686462
56,90.4,45.6385,700.864,-0.000924969,179.032,-0.739371,-2.7344,-0.0113686,0.03034,-0.017534,0.026094,-8.47359e-05,-0.000327165,0.0314384,-0.011304221661830316,0.02643742905711499,-8.473231001504544e-05,0.03080494806208378,-0.00032711148736741524,-0.017381173942973005
57,92.97,45.8024,704.218,-0.000974997,179.786,-0.747846,-2.76536,-0.0117078,0.0312079,-0.018056,0.026845,-8.79616e-05,-0.00033963,0.0324267,-0.01163953039826604,0.027208573094679167,-8.795773149183894e-05,0.03169997201597052,-0.0003395723322605626,-0.017893967119511522
58,95.53,45.9618,707.492,-0.00102587,180.521,-0.756061,-2.79536,-0.0120469,0.0320752,-0.0185775,0.027595,-9.12022e-05,-0.000352153,0.0334144,-0.011974626614733364,0.027979268499150667,-9.119804120572006e-05,0.03259515354105447,-0.0003520910014102041,-0.018406001890987622
59,98.1,46.117,710.691,-0.00107755,181.238,-0.764027,-2.82444,-0.0123858,0.0329416,-0.0190987,0.028344,-9.4457e-05,-0.000364728,0.0344015,-0.01230941168123989,0.028749513391959747,-9.445253907802709e-05,0.0334901816522728,-0.0003646614948287219,-0.018917475381232007
60,100.7,46.2681,713.818,-0.00113003,181.937,-0.771756,-2.85264,-0.0127244,0.0338073,-0.0196193,0.0290921,-9.77251e-05,-0.000377355,0.0353881,-0.012643787101491277,0.029519408846416795,-9.772032505794837e-05,0.03438526148193266,-0.0003772838105569054,-0.01942809401798473
61,103.2,46.4154,716.877,-0.00118328,182.62,-0.77926,-2.88,-0.0130629,0.0346722,-0.0201396,0.0298392,-0.000101006,-0.000390029,0.036374,-0.01297795061919138,0.030288850185788974,-0.00010100089906572851,0.03528028829313912,-0.0003899529485773545,-0.01993815287734846
62,105.8,46.559,719.87,-0.00123729,183.288,-0.786548,-2.90656,-0.0134012,0.0355363,-0.0206594,0.0305854,-0.000104299,-0.000402748,0.0373593,-0.013311803704063485,0.031057938637012228,-0.00010429356104835197,0.03617526060735421,-0.00040266690791124216,-0.020447456645966033
63,108.4,46.6991,722.801,-0.00129202,183.941,-0.79363,-2.93236,-0.0137393,0.0363997,-0.0211787,0.0313306,-0.000107603,-0.00041551,0.038344,-0.013645346594628127,0.03182656936912576,-0.00010759721100483954,0.037070280651915866,-0.00041542368767488735,-0.020956006225402835
64,110.9,46.8359,725.672,-0.00134747,184.579,-0.800514,-2.95743,-0.0140772,0.0372623,-0.0216977,0.0320749,-0.000110917,-0.000428312,0.039328,-0.013978579529138835,0.03259484376255495,-0.00011091084893688485,0.0379652434179536,-0.0004282202875095509,-0.021463998222845726
65,113.5,46.9694,728.487,-0.00140361,185.204,-0.807209,-2.98179,-0.0144149,0.0381241,-0.0222161,0.0328182,-0.000114242,-0.000441153,0.0403114,-0.014311502745582905,0.033362656832299775,-0.00011423547463118577,0.03886014742348021,-0.00044105570632280156,-0.021971139823706687
66,116.1,47.0998,731.246,-0.00146042,185.816,-0.813721,-3.00548,-0.0147524,0.0389852,-0.0227341,0.0335606,-0.000117577,-0.000454029,0.0412941,-0.014644116481681069,0.03413011011214073,-0.00011757008809543112,0.03975509516087494,-0.000453925944430833,-0.022477627581623416
67,118.6,47.2273,733.953,-0.00151789,186.415,-0.820059,-3.02853,-0.0150897,0.0398455,-0.0232517,0.034302,-0.00012092,-0.000466939,0.0422761,-0.014976420974888494,0.03489709846322686,-0.00012091268947145295,0.04064998134934261,-0.0004668300009510462,-0.022983462240284358
68,121.2,47.352,736.609,-0.001576,187.002,-0.826227,-3.05094,-0.0154268,0.0407051,-0.0237688,0.0350425,-0.000124272,-0.000479881,0.0432574,-0.015308416462394558,0.03566372357255476,-0.0001242642785548309,0.041544908657961566,-0.0004797658755290035,-0.023488546891068718
69,123.7,47.4739,739.217,-0.00163473,187.577,-0.832234,-3.07276,-0.0157637,0.0415639,-0.0242855,0.0357821,-0.000127632,-0.000492852,0.044238,-0.01564010318112341,0.036429983790608134,-0.00012762385538278576,0.04243977162467538,-0.0004927305684031547,-0.023992980027366717
70,126.3,47.5932,741.779,-0.00169406,188.142,-0.838084,-3.094,-0.0161003,0.0424219,-0.0248017,0.0365207,-0.000131,-0.000505852,0.0452179,-0.015971382964877212,0.03719577374805372,-0.00013099141987460428,0.04333456876180808,-0.0005057240784476225,-0.024496664838842386
71,128.9,47.71,744.295,-0.00175398,188.695,-0.843783,-3.11468,-0.0164368,0.0432792,-0.0253175,0.0372584,-0.000134374,-0.000518878,0.0461971,-0.016302452888870778,0.03796119536139786,-0.0001343649722184148,0.04422940300349931,-0.0005187434060909268,-0.024999699715271162
72,131.4,47.8243,746.769,-0.00181447,189.239,-0.849336,-3.13481,-0.016773,0.0441357,-0.0258328,0.0379952,-0.000137756,-0.000531929,0.0471756,-0.01663311641655596,0.03872624698054583,-0.00013774651207787425,0.045124168615846116,-0.0005317875508509262,-0.025501987944331006
73,134.0,47.9363,749.2,-0.00187552,189.772,-0.854748,-3.15443,-0.017109,0.0449915,-0.0263476,0.0387311,-0.000141144,-0.000545003,0.0481533,-0.016963472186562578,0.03949092695518641,-0.00014113403965421156,0.04601896870969546,-0.000544854512841475,-0.026003530412829323
74,136.6,48.0461,751.592,-0.00193712,190.296,-0.860024,-3.17354,-0.0174448,0.0458465,-0.026862,0.0394661,-0.000144537,-0.000558099,0.0491303,-0.017293520434400134,0.040255233634794996,-0.0001445265550309438,0.04691369736993867,-0.0005579432917212079,-0.026504425355560746
75,139.1,48.1537,753.944,-0.00199924,190.81,-0.865167,-3.19216,-0.0177804,0.0467007,-0.0273759,0.0402002,-0.000147936,-0.000571215,0.0501066,-0.01762326139531445,0.041019165368642474,-0.0001479250580094238,0.04780835310329645,-0.0005710518877706239,-0.027004576206602127
76,141.7,48.2592,756.26,-0.00206187,191.316,-0.870183,-3.21031,-0.0181158,0.0475542,-0.0278894,0.0409333,-0.000151341,-0.000584349,0.0510821,-0.017952695304287558,0.041782616327530775,-0.00015132954852847824,0.04870303928568642,-0.0005841783013739166,-0.027504081097863287
77,144.3,48.3626,758.539,-0.00212501,191.812,-0.875074,-3.22799,-0.0184509,0.048407,-0.0284024,0.0416656,-0.00015475,-0.000597501,0.0520569,-0.0182817242242167,0.04254579314055218,-0.00015473802683629856,0.049597754690012597,-0.000597322531824096,-0.028002843560750224
78,146.8,48.4641,760.782,-0.00218863,192.301,-0.879844,-3.24523,-0.0187858,0.0492589,-0.028915,0.042397,-0.000158163,-0.000610668,0.0530309,-0.01861044662713518,0.04330859005448229,-0.00015815049289202854,0.05049228798959282,-0.0006104815802456809,-0.02850096162457405
79,149.4,48.5637,762.992,-0.00225272,192.781,-0.884498,-3.26204,-0.0191205,0.0501102,-0.029427,0.0431274,-0.000161581,-0.000623851,0.0540042,-0.018938862747145513,0.04407090101072897,-0.00016156794649324624,0.05138695283441841,-0.0006236564454247251,-0.028998241817629666
80,152.0,48.6614,765.169,-0.00231728,193.254,-0.889038,-3.27843,-0.019455,0.0509606,-0.0299387,0.043857,-0.000165002,-0.000637047,0.0549767,-0.019266972818087758,0.04483293309560765,-0.00016498838791856318,0.05228143257798967,-0.0006368441286416227,-0.02949497631693121
81,154.5,48.7574,767.315,-0.00238228,193.719,-0.893467,-3.29441,-0.0197892,0.0518104,-0.0304499,0.0445857,-0.000168427,-0.000650255,0.0559484,-0.019594679033013374,0.04559458032641972,-0.00016841281696899912,0.05317604140484766,-0.0006500436300347356,-0.02999097169781728
82,157.1,48.8517,769.429,-0.00244771,194.176,-0.897788,-3.30999,-0.0201232,0.0526593,-0.0309606,0.0453135,-0.000171855,-0.000663474,0.0569194,-0.019922079731256148,0.0463558410511562,-0.0001718402337753666,0.05407046212956046,-0.0006632539497942735,-0.03048622883389751
83,159.7,48.9442,771.514,-0.00251357,194.627,-0.902005,-3.32518,-0.020457,0.0535076,-0.0314708,0.0460405,-0.000175286,-0.000676704,0.0578896,-0.020249175145780063,0.04711681832932446,-0.0001752706383065794,0.05496500947119576,-0.0006764750874864722,-0.03098074859722777
84,162.2,49.0352,773.569,-0.00257983,195.07,-0.90612,-3.33999,-0.0207906,0.054355,-0.0319806,0.0467665,-0.00017872,-0.000689942,0.058859,-0.020575965509288086,0.04787730116129696,-0.00017870403053210637,0.05585936570543959,-0.000689704044746553,-0.03147462871085538
85,164.8,49.1246,775.596,-0.0026465,195.507,-0.910135,-3.35444,-0.0211239,0.0552018,-0.0324899,0.0474917,-0.000182156,-0.000703189,0.0598277,-0.020902353144462982,0.048637497393936524,-0.00018213941060307715,0.056753846085861426,-0.0007029418205565241,-0.03196777309257648
86,167.4,49.2125,777.596,-0.00271355,195.938,-0.914053,-3.36853,-0.021457,0.0560477,-0.0329988,0.048216,-0.000185594,-0.000716442,0.0607955,-0.021228436258472816,0.0493973006628361,-0.0001855767784989526,0.05764813234931543,-0.0007161854167097026,-0.032460279363999756
87,169.9,49.2988,779.569,-0.00278097,196.362,-0.917877,-3.38227,-0.0217898,0.056893,-0.0335072,0.0489394,-0.000189034,-0.000729701,0.0617626,-0.02155411723856504,0.050156709315128056,-0.00018901613419908259,0.05854254028384687,-0.000729434832969944,-0.032952051538892246
88,172.5,49.3838,781.517,-0.00284876,196.779,-0.921609,-3.39566,-0.0221225,0.0577375,-0.0340152,0.049662,-0.000192476,-0.000742966,0.0627289,-0.021879592038024587,0.05091582678939144,-0.000192457477683039,0.059436857031212265,-0.0007426900691014371,-0.03344318713770611
89,175.0,49.4673,783.439,-0.00291691,197.191,-0.92525,-3.40873,-0.0224548,0.0585812,-0.0345227,0.0503837,-0.000195919,-0.000756234,0.0636944,-0.022204567451934998,0.05167454649265846,-0.0001958998091259323,0.060331081082861004,-0.0007559481271354196,-0.03393359026991338
90,177.6,49.5495,785.337,-0.00298539,197.597,-0.928803,-3.42146,-0.022787,0.0594242,-0.0350297,0.0511045,-0.000199363,-0.000769506,0.0646591,-0.022529337147394246,0.05243286677156633,-0.00019934312851765945,0.06122531705171763,-0.0007692100061857943,-0.03442326179742505
91,180.2,49.6304,787.211,-0.00305421,197.998,-0.93227,-3.43388,-0.0231189,0.0602665,-0.0355363,0.0518245,-0.000202808,-0.00078278,0.0656231,-0.022853705828434823,0.05319089129172294,-0.00020278743584767334,0.06211956369537419,-0.0007824737076608246,-0.03491229908939364
92,182.7,49.71,789.061,-0.00312334,198.392,-0.935653,-3.44599,-0.0234506,0.061108,-0.0360424,0.0525437,-0.000206253,-0.000796055,0.0665862,-0.02317777150494782,0.053948618626828315,-0.00020623173131217865,0.06301371346897722,-0.0007957382322789641,-0.035400606398237056
93,185.3,49.7883,790.889,-0.00319279,198.782,-0.938953,-3.45779,-0.0237821,0.0619488,-0.036548,0.0532619,-0.000209699,-0.000809331,0.0675486,-0.023501534407027846,0.05470583640908333,-0.00020967701470142597,0.06390787125051633,-0.0008090035800024653,-0.03588818458149057
94,187.9,49.8654,792.695,-0.00326254,199.166,-0.942173,-3.4693,-0.0241133,0.0627888,-0.0370532,0.0539794,-0.000213146,-0.000822607,0.0685101,-0.02382489714700675,0.05546285939622697,-0.00021312328600509023,0.06480192931418305,-0.0008222687516166172,-0.03637513085765398
95,190.4,49.9413,794.48,-0.00333258,199.545,-0.945314,-3.48051,-0.0244443,0.0636281,-0.037558,0.054696,-0.000216592,-0.000835882,0.0694709,-0.0241479576365905,0.05621947514431502,-0.00021656854564611194,0.06569599271467919,-0.0008355327479588892,-0.03686144593534446
96,193.0,50.0161,796.243,-0.0034029,199.919,-0.948378,-3.49144,-0.0247751,0.0644667,-0.0380622,0.0554117,-0.000220039,-0.000849155,0.0704308,-0.02447071610501028,0.05697568199901948,-0.0002200147931946672,0.06659006020427216,-0.0008487945699204857,-0.03734693799147126
97,195.6,50.0898,797.987,-0.00347349,200.289,-0.951366,-3.50209,-0.0251056,0.0653045,-0.0385661,0.0561266,-0.000223485,-0.000862426,0.07139,-0.024793075260552966,0.057731584079085074,-0.00022346002908757434,0.06748402378576546,-0.0008620542175831192,-0.037831896673815923
98,198.1,50.1623,799.71,-0.00354434,200.653,-0.95428,-3.51246,-0.0254358,0.0661416,-0.0390694,0.0568407,-0.00022693,-0.000875694,0.0723483,-0.025115035428552757,0.058487179956675295,-0.00022690425333504738,0.06837798877892154,-0.0008753106919041631,-0.0383160340368327
99,200.7,50.2338,801.414,-0.00361544,201.013,-0.957121,-3.52257,-0.0257659,0.066978,-0.0395723,0.0575539,-0.000230375,-0.000888958,0.0733059,-0.025436791846539353,0.05924236227942603,-0.00023034846571723389,0.06927195393284791,-0.0008885629938936157,-0.038799543314717466
100,203.3,50.3042,803.098,-0.00368679,201.369,-0.959891,-3.53241,-0.0260957,0.0678136,-0.0400748,0.0582663,-0.000233819,-0.000902218,0.0742627,-0.025758149797749486,0.05999723539219093,-0.0002337916664679751,0.07016581097901864,-0.0009018111237131254,-0.03928242520996472
101,205.8,50.3736,804.764,-0.00375837,201.72,-0.962591,-3.54199,-0.0264253,0.0686485,-0.0405768,0.0589778,-0.000237262,-0.000915472,0.0752186,-0.026079206998442905,0.060751691791208984,-0.0002372338555974851,0.07105966550225329,-0.0009150530833538228,-0.03976458440042696
102,208.4,50.442,806.412,-0.00383017,202.067,-0.965222,-3.55132,-0.0267546,0.0694827,-0.0410783,0.0596886,-0.000240703,-0.000928721,0.0761738,-0.026399866316124232,0.061505942122545676,-0.00024067403335703563,0.0719535162485263,-0.0009282898721282296,-0.040246021730849346
103,211.0,50.5095,808.043,-0.00390219,202.409,-0.967786,-3.5604,-0.0270837,0.0703162,-0.0415794,0.0603985,-0.000244144,-0.000941963,0.0771281,-0.026720225402140363,0.06225977273137473,-0.00024411419927883315,0.0728473619627732,-0.0009415194921201797,-0.040726833971792
104,213.5,50.576,809.656,-0.00397442,202.748,-0.970283,-3.56924,-0.0274125,0.0711489,-0.04208,0.0611076,-0.000247583,-0.000955198,0.0780817,-0.02704018718742829,0.06301328826357677,-0.00024755235385820473,0.07374109401477735,-0.0009547419436100046,-0.041206925941659756
105,216.1,50.6415,811.252,-0.00404684,203.082,-0.972716,-3.57783,-0.0277411,0.0719808,-0.0425802,0.0618158,-0.00025102,-0.000968426,0.0790344,-0.027359849258563607,0.06376638091295628,-0.0002509884971158005,0.07463471087928686,-0.0009679572268775916,-0.04168639431226728
106,218.7,50.7062,812.831,-0.00411946,203.413,-0.975085,-3.58619,-0.0280695,0.0728121,-0.0430799,0.0625233,-0.000254455,-0.000981645,0.0799864,-0.02767921184186084,0.06451926192770618,-0.0002544226290721596,0.07552842613571964,-0.0009811633441649814,-0.04216514399545901
107,221.2,50.77,814.394,-0.00419225,203.74,-0.977391,-3.59432,-0.0283977,0.0736426,-0.0435792,0.0632299,-0.000257888,-0.000994856,0.0809375,-0.02799827516337927,0.06527171704927137,-0.00025785474974804323,0.07642202350857263,-0.0009943612948368763,-0.042643271564581364
108,223.8,50.8329,815.941,-0.00426522,204.063,-0.979635,-3.60222,-0.0287256,0.0744725,-0.044078,0.0639357,-0.000261319,-0.00100806,0.0818879,-0.02831694228062398,0.06602385122409182,-0.00026128485916399047,0.07731571693267547,-0.0010075520782045766,-0.04312068202465802
109,226.3,50.8949,817.473,-0.00433836,204.382,-0.981819,-3.6099,-0.0290532,0.0753015,-0.0445763,0.0646407,-0.000264748,-0.00102125,0.0828374,-0.028635213514658253,0.06677566302172422,-0.0002647129573407625,0.0782091819520947,-0.0010207287016925637,-0.043597376210585015
110,228.9,50.9562,818.99,-0.00441165,204.698,-0.983943,-3.61735,-0.0293806,0.0761299,-0.0450743,0.0653449,-0.000268175,-0.00103443,0.0837861,-0.028953186290769817,0.06752715101149032,-0.00026813904429889845,0.07910274049927368,-0.0010338951617210324,-0.04407354614107839
111,231.5,51.0166,820.491,-0.00448509,205.01,-0.986009,-3.62459,-0.0297078,0.0769576,-0.0455717,0.0660483,-0.000271599,-0.0010476,0.0847341,-0.029270860833826018,0.06827831376248028,-0.00027156212033041527,0.07999628357937594,-0.0010470514586873314,-0.044548905727498034
112,234.0,51.0763,821.978,-0.00455867,205.319,-0.988016,-3.63162,-0.0300348,0.0777845,-0.0460687,0.0667509,-0.00027502,-0.00106076,0.0856812,-0.02958823736844185,0.06902914984355757,-0.0002749821854663992,0.0808897018391399,-0.0010601975929883656,-0.04502364693838845
113,236.6,51.1351,823.451,-0.00463238,205.624,-0.989967,-3.63843,-0.0303615,0.0786107,-0.0465653,0.0674527,-0.000278439,-0.0010739,0.0866275,-0.02990521910950683,0.0697796578233647,-0.00027840023945913117,0.0817831019235542,-0.0010733235757540704,-0.04549777046070447
114,239.2,51.1932,824.91,-0.00470622,205.926,-0.991862,-3.64504,-0.0306879,0.0794362,-0.0470614,0.0681537,-0.000281854,-0.00108704,0.087573,-0.030221806376136917,0.07052983627032439,-0.00028181428289286714,0.08267648256631954,-0.0010864493860454072,-0.045971181577441955
115,241.7,51.2506,826.354,-0.00478017,206.225,-0.993702,-3.65145,-0.0310141,0.0802609,-0.047557,0.0688539,-0.000285267,-0.00110016,0.0885177,-0.03053809643318406,0.07127968375264837,-0.00028522631523808517,0.08356973414315227,-0.0010995550458562375,-0.046443881115231345
116,244.3,51.3072,827.786,-0.00485424,206.521,-0.995488,-3.65765,-0.0313401,0.081085,-0.0480522,0.0695533,-0.000288676,-0.00111327,0.0894616,-0.030854089504077753,0.07202919883833747,-0.0002886343370925859,0.0844630720103694,-0.001112650544848437,-0.04691596520763475
117,246.9,51.3632,829.204,-0.00492841,206.814,-0.99722,-3.66366,-0.0316659,0.0819083,-0.048547,0.0702519,-0.000292082,-0.00112636,0.0904047,-0.031169785811996364,0.07277838009518978,-0.0002920393482053196,0.08535627809538737,-0.001125725894674412,-0.04738743453691885
118,249.4,51.4184,830.609,-0.00500267,207.103,-0.9989,-3.66948,-0.0319914,0.082731,-0.0490413,0.0709497,-0.000295484,-0.00113944,0.091347,-0.03148508872838107,0.07352722609080198,-0.00029544034890238713,0.08624956810983986,-0.0011387910847332483,-0.04785819457009999
119,252.0,51.4729,832.002,-0.00507703,207.39,-1.00053,-3.6751,-0.0323166,0.0835529,-0.0495352,0.0716467,-0.000298883,-0.00115251,0.0922885,-0.03179999857041105,0.07427573539257648,-0.0002988383389257443,0.08714272362184805,-0.001151846115418964,-0.04832834129551067
120,254.6,51.5268,833.382,-0.00515146,207.674,-1.0021,-3.68053,-0.0326417,0.0843741,-0.0500286,0.072343,-0.000302279,-0.00116556,0.0932292,-0.03211470923188586,0.07502401407011927,-0.0003022333183060333,0.08803585189476393,-0.0011648809987742093,-0.0487977802717966
121,256.5,51.5673,834.417,-0.0052369,207.886,-1.00327,-3.68453,-0.0328871,0.0849941,-0.0504011,0.0728685,-0.000304841,-0.0011754,0.0939394,-0.03235219914103671,0.07558908764959238,-0.0003047945407034236,0.08871064328665423,-0.001174709487989034,-0.049152037114212344
