,Time,S11,S22,S33,S12,S13,S23,LE11,LE22,LE33,LE12,LE13,LE23,SDV_EPBAR,E11,E12,E13,E22,E23,E33
0,0.0002825,-7.79048e-12,0.00207746,-7.79048e-12,-4.13085e-20,-2.47851e-20,4.13085e-20,-3e-09,1e-08,-3e-09,0.0,0.0,0.0,0.0,-3.000000026176508e-09,0.0,0.0,9.99999993922529e-09,0.0,-3.000000026176508e-09
1,0.000565,3.25261e-19,0.00415492,3.25261e-19,5.37011e-28,0.0,-1.65234e-20,-6e-09,2e-08,-6e-09,0.0,0.0,0.0,0.0,-5.999999941330714e-09,0.0,0.0,2.0000000100495186e-08,0.0,-5.999999941330714e-09
2,0.00098875,4.33681e-19,0.00727111,5.42101e-19,-1.65234e-20,-3.30468e-20,-1.65234e-20,-1.05e-08,3.5e-08,-1.05e-08,0.0,0.0,0.0,0.0,-1.0499999980595476e-08,0.0,0.0,3.5000000675466936e-08,0.0,-1.0499999980595476e-08
3,0.0016244,-2.1684e-19,0.0119454,-5.42101e-19,8.59217e-28,-1.65234e-20,-1.65234e-20,-1.725e-08,5.75e-08,-1.725e-08,0.0,0.0,0.0,0.0,-1.7249999872959165e-08,0.0,0.0,5.7500001648946863e-08,0.0,-1.7249999872959165e-08
4,0.0025778,1.51788e-18,0.0189568,1.6263e-18,8.59217e-28,-1.65234e-20,-1.65234e-20,-2.7375e-08,9.125e-08,-2.7375e-08,0.0,0.0,0.0,0.0,-2.7374999600482397e-08,0.0,0.0,9.125000421938978e-08,0.0,-2.7374999600482397e-08
5,0.004008,-1.95156e-18,0.029474,-2.71051e-18,8.59217e-28,4.95702e-20,-1.65234e-20,-4.25625e-08,1.41875e-07,-4.25625e-08,0.0,0.0,0.0,0.0,-4.256249908074494e-08,0.0,0.0,1.418750099624333e-07,0.0,-4.256249908074494e-08
6,0.0061532,-5.85469e-18,0.0452497,-6.17995e-18,8.59217e-28,4.95702e-20,-1.65234e-20,-6.53437e-08,2.17812e-07,-6.53437e-08,0.0,0.0,0.0,0.0,-6.534369789701344e-08,0.0,0.0,2.178120237505965e-07,0.0,-6.534369789701344e-08
7,0.0093711,8.89046e-18,0.0689132,9.43256e-18,-1.32187e-19,-8.26171e-20,-1.65234e-20,-9.95156e-08,3.31719e-07,-9.95156e-08,0.0,0.0,0.0,0.0,-9.951559509779884e-08,0.0,0.0,3.317190551133109e-07,0.0,-9.951559509779884e-08
8,0.014198,8.0231e-18,0.104409,7.69784e-18,2.04333e-26,-8.26171e-20,1.15664e-19,-1.50773e-07,5.02578e-07,-1.50773e-07,0.0,0.0,0.0,0.0,-1.5077298864962785e-07,0.0,0.0,5.025781262268936e-07,0.0,-1.5077298864962785e-07
9,0.021438,9.75782e-18,0.157652,1.11673e-17,2.04333e-26,-8.26171e-20,1.15664e-19,-2.2766e-07,7.58867e-07,-2.2766e-07,0.0,0.0,0.0,0.0,-2.2765997409468497e-07,0.0,0.0,7.588672878977576e-07,0.0,-2.2765997409468497e-07
10,0.032298,4.55365e-18,0.237516,1.11673e-17,5.28749e-19,1.81758e-19,1.15664e-19,-3.4299e-07,1.1433e-06,-3.4299e-07,0.0,0.0,0.0,0.0,-3.429899412266124e-07,0.0,0.0,1.1433006534833368e-06,0.0,-3.429899412266124e-07
11,0.048589,-3.01408e-17,0.357313,-3.04661e-17,5.28749e-19,1.81758e-19,1.15664e-19,-5.15985e-07,1.71995e-06,-5.15985e-07,0.0,0.0,0.0,0.0,-5.159848668334632e-07,0.0,0.0,1.7199514790178227e-06,0.0,-5.159848668334632e-07
12,0.073024,-1.6263e-17,0.537008,-2.71051e-18,5.28748e-19,1.81758e-19,1.15664e-19,-7.75477e-07,2.58492e-06,-7.75477e-07,0.0,0.0,0.0,0.0,-7.754766992995599e-07,0.0,0.0,2.584923340931411e-06,0.0,-7.754766992995599e-07
13,0.1097,1.14925e-17,0.806549,1.11673e-17,5.28747e-19,1.81758e-19,1.15663e-19,-1.16471e-06,3.88238e-06,-1.16471e-06,0.0,0.0,0.0,0.0,-1.1647093217659332e-06,0.0,0.0,3.882387536346954e-06,0.0,-1.1647093217659332e-06
14,0.1647,-2.38524e-18,1.21086,-1.65883e-17,5.28746e-19,1.81758e-19,1.15663e-19,-1.74857e-06,5.82857e-06,-1.74857e-06,0.0,0.0,0.0,0.0,-1.7485684712381655e-06,0.0,0.0,5.8285869861673945e-06,0.0,-1.7485684712381655e-06
15,0.2471,-1.82796e-16,1.81733,-1.55366e-16,5.28744e-19,1.81758e-19,1.15663e-19,-2.62435e-06,8.74784e-06,-2.62435e-06,0.0,0.0,0.0,0.0,-2.6243465564013135e-06,0.0,0.0,8.747878262438391e-06,0.0,-2.6243465564013135e-06
16,0.3708,4.55582e-16,2.72703,4.55256e-16,5.28741e-19,1.81758e-19,1.15662e-19,-3.93802e-06,1.31267e-05,-3.93802e-06,0.0,0.0,0.0,0.0,-3.9380122459631295e-06,0.0,0.0,1.3126786155615022e-05,0.0,-3.9380122459631295e-06
17,0.5564,2.61293e-16,4.09156,4.55256e-16,5.28736e-19,1.81758e-19,1.15661e-19,-5.90851e-06,1.9695e-05,-5.90851e-06,0.0,0.0,0.0,0.0,-5.908492544781652e-06,0.0,0.0,1.9695193947733003e-05,0.0,-5.908492544781652e-06
18,0.8347,4.83337e-16,6.13835,5.66279e-16,5.28729e-19,1.81758e-19,1.15659e-19,-8.86422e-06,2.95474e-05,-8.86422e-06,0.0,0.0,0.0,0.0,-8.864180712886416e-06,0.0,0.0,2.954783652864279e-05,0.0,-8.864180712886416e-06
19,1.252,-1.07097e-15,9.2085,-1.21008e-15,5.28719e-19,1.81758e-19,1.15657e-19,-1.32977e-05,4.43258e-05,-1.32977e-05,0.0,0.0,0.0,0.0,-1.3297611585971758e-05,0.0,0.0,4.432678240284815e-05,0.0,-1.3297611585971758e-05
20,1.878,-4.51267e-15,13.8136,-4.54075e-15,5.28704e-19,1.81758e-19,1.15654e-19,-1.99479e-05,6.64929e-05,-1.99479e-05,0.0,0.0,0.0,0.0,-1.994770104196686e-05,0.0,0.0,6.649511070189185e-05,0.0,-1.994770104196686e-05
21,2.818,-2.91596e-14,20.7212,-2.98538e-14,5.28681e-19,1.81758e-19,1.15649e-19,-2.99228e-05,9.97427e-05,-2.99228e-05,0.0,0.0,0.0,0.0,-2.9922352317468537e-05,0.0,0.0,9.974767446863098e-05,0.0,-2.9922352317468537e-05
22,4.227,-1.03266e-09,124.772,-1.03265e-09,5.28337e-19,-1.0827e-15,1.15574e-19,-0.000180179,0.000600597,-0.000180179,0.0,0.0,0.0,0.0,-0.00018016276873877857,0.0,0.0,0.0006007773944911587,0.0,-0.00018016276873877857
23,6.341,-9.04826e-07,281.463,-9.04826e-07,5.27818e-19,1.08306e-15,1.1546e-19,-0.000406453,0.00135484,-0.000406453,0.0,0.0,0.0,0.0,-0.00040637040916957634,0.0,0.0,0.0013557582103420618,0.0,-0.00040637040916957634
24,9.166,-2.71079e-08,490.709,-2.71079e-08,5.27126e-19,-1.0827e-15,1.15309e-19,-0.000708618,0.00236206,-0.000708618,0.0,0.0,0.0,0.0,-0.0007083669895586731,0.0,0.0,0.002364851861470285,0.0,-0.0007083669895586731
25,11.99,-0.108003,521.762,0.132022,3.5999e-19,-5.26122e-15,1.47964e-15,-0.00115575,0.00336826,-0.00120785,0.0,0.0,0.0,0.000897212,-0.0011550823781948383,0.0,0.0,0.003373938961997336,0.0,-0.0012071208427891778
26,14.82,-0.000726909,542.584,0.00102922,1.47212e-15,6.84026e-15,-1.93939e-15,-0.00160853,0.00437346,-0.00172023,0.0,0.0,0.0,0.00184487,-0.0016072370089840193,0.0,0.0,0.0043830375334152905,0.0,-0.0017187512524238224
27,17.64,2.26559e-05,560.253,-1.85715e-05,-4.7457e-16,7.75858e-15,-1.32506e-15,-0.00206409,0.00537764,-0.00223483,0.0,0.0,0.0,0.0028074,-0.00206196123114466,0.0,0.0,0.00539212546020762,0.0,-0.0022323346266933664
28,20.47,-9.50183e-06,575.625,1.06944e-05,-1.81349e-15,1.63788e-15,-9.09227e-16,-0.00252104,0.00638082,-0.00275145,0.0,0.0,0.0,0.00378045,-0.0025178648474484255,0.0,0.0,0.006401220800131613,0.0,-0.0027476682306936118
29,23.29,-4.40592e-06,589.253,5.05583e-06,-5.03744e-16,2.66918e-15,-6.26181e-16,-0.00297893,0.00738299,-0.00326949,0.0,0.0,0.0,0.00476124,-0.00297449739059763,0.0,0.0,0.007410311467321629,0.0,-0.0032641510377162675
30,26.12,-1.9713e-06,601.512,2.34004e-06,-3.48551e-16,3.40661e-15,-4.32481e-16,-0.00343746,0.00838415,-0.00378852,0.0,0.0,0.0,0.00574788,-0.00343155869814038,0.0,0.0,0.00841939541770853,0.0,-0.0037813526122255636
31,28.94,-7.92105e-07,612.665,1.01793e-06,-2.41846e-16,8.53418e-15,-1.80699e-15,-0.00389641,0.00938432,-0.00430826,0.0,0.0,0.0,0.00673905,-0.0038888288441826235,0.0,0.0,0.009428490793764732,0.0,-0.004298992761220921
32,31.77,-2.25719e-07,622.905,3.6568e-07,-1.68129e-16,5.28956e-15,-2.7739e-15,-0.00435564,0.0103835,-0.00482849,0.0,0.0,0.0,0.00773377,-0.004346167957354652,0.0,0.0,0.010437595607916128,0.0,-0.004816851581690318
33,34.59,3.3787e-08,632.379,4.88199e-08,-1.16973e-16,6.08246e-15,-1.94184e-15,-0.00481501,0.0113817,-0.00534904,0.0,0.0,0.0,0.00873131,-0.0048034364224316395,0.0,0.0,0.011446717985039268,0.0,-0.005334759359457597
34,37.42,1.34742e-07,641.199,-9.34816e-08,-8.13255e-17,4.34822e-15,-1.36197e-15,-0.00527445,0.0123788,-0.00586979,0.0,0.0,0.0,0.00973111,-0.005260564512095778,0.0,0.0,0.0124557344691123,0.0,-0.005852596439989033
35,40.24,1.5268e-07,649.456,-1.42872e-07,-5.63856e-17,4.67101e-15,-2.48565e-15,-0.00573388,0.013375,-0.00639064,0.0,0.0,0.0,0.0107327,-0.005717472684244496,0.0,0.0,0.013464845426503835,0.0,-0.006370263290040978
36,43.07,1.27489e-07,657.222,-1.42522e-07,-3.88715e-17,3.36006e-15,-2.19947e-16,-0.00619324,0.0143702,-0.00691152,0.0,0.0,0.0,0.0117357,-0.00617410141947472,0.0,0.0,0.01447394768667043,0.0,-0.006887690376889077
37,45.89,8.07863e-08,664.554,-1.15968e-07,-2.6528e-17,5.54673e-15,-1.68796e-15,-0.00665249,0.0153644,-0.00743235,0.0,0.0,0.0,0.0127399,-0.006630411175250095,0.0,0.0,0.01548303922174421,0.0,-0.007404798386738465
38,48.72,2.44768e-08,671.502,-7.63189e-08,7.53372e-16,3.22841e-15,-1.19482e-15,-0.00711159,0.0163576,-0.00795309,0.0,0.0,0.0,0.013745,-0.007086362481848796,0.0,0.0,0.016492118001871336,0.0,-0.007921547854290334
39,51.54,-3.48536e-08,678.106,-3.09642e-08,-1.78084e-15,4.69532e-15,-8.45223e-16,-0.00757051,0.0173498,-0.00847368,0.0,0.0,0.0,0.0147508,-0.007541925866808796,0.0,0.0,0.017501181995217996,0.0,-0.008437879565469042
40,54.37,-9.35961e-08,684.401,1.59241e-08,-4.9806e-16,3.41235e-15,-2.1472e-15,-0.00802921,0.0183411,-0.0089941,0.0,0.0,0.0,0.0157571,-0.00799706199196304,0.0,0.0,0.018510331019004678,0.0,-0.008953774071632448
41,57.19,-1.49837e-07,690.417,6.20209e-08,1.19825e-15,2.48643e-15,2.27445e-17,-0.00848768,0.0193313,-0.0095143,0.0,0.0,0.0,0.0167638,-0.008451761337982533,0.0,0.0,0.01951935943630323,0.0,-0.009469182249070673
42,60.02,-2.02636e-07,696.178,1.06076e-07,8.62905e-16,4.97636e-15,-1.53193e-15,-0.0089459,0.0203206,-0.0100343,0.0,0.0,0.0,0.0177707,-0.008906004492305053,0.0,0.0,0.020528469012342843,0.0,-0.009984124377744319
43,62.84,-2.51609e-07,701.707,1.47471e-07,-1.57624e-16,7.59859e-15,-1.09411e-15,-0.00940385,0.0213089,-0.010554,0.0,0.0,0.0,0.0187778,-0.009359772078184614,0.0,0.0,0.021537555856397272,0.0,-0.010498501955714334
44,65.67,-2.96695e-07,707.023,1.85952e-07,-1.12863e-16,2.39575e-15,-2.34404e-15,-0.00986152,0.0222963,-0.0110734,0.0,0.0,0.0,0.019785,-0.009813054656466647,0.0,0.0,0.02254672018148618,0.0,-0.01101231558484772
45,68.49,-3.38006e-07,712.142,2.21485e-07,-8.06535e-17,1.05032e-14,-1.17414e-16,-0.0103189,0.0232826,-0.0115925,0.0,0.0,0.0,0.0207921,-0.01026584280551246,0.0,0.0,0.023555755535587863,0.0,-0.011525565866191911
46,71.32,-3.75749e-07,717.08,2.54154e-07,-1.62759e-15,2.94799e-15,-7.3442e-17,-0.0107759,0.024268,-0.0121114,0.0,0.0,0.0,0.0217991,-0.010718047978598322,0.0,0.0,0.024564864483416438,0.0,-0.012038352196144686
47,74.14,-4.10171e-07,721.85,2.84108e-07,-3.93954e-16,5.36512e-15,-4.1595e-17,-0.0112327,0.0252524,-0.0126298,0.0,0.0,0.0,0.022806,-0.011169848775123281,0.0,0.0,0.02557394272283675,0.0,-0.012550378785607386
48,76.97,-4.41536e-07,726.463,3.11528e-07,-1.07276e-15,1.56441e-15,-1.84666e-17,-0.0116891,0.0262358,-0.013148,0.0,0.0,0.0,0.0238126,-0.011621047884673441,0.0,0.0,0.026582988204455038,0.0,-0.013061942621683253
49,79.79,-4.70105e-07,730.931,3.36605e-07,-1.56899e-15,3.58689e-16,-1.62142e-18,-0.0121452,0.0272183,-0.0136658,0.0,0.0,0.0,0.0248189,-0.01207174473550332,0.0,0.0,0.02759210163616399,0.0,-0.013572846863270316
50,82.62,-4.96126e-07,735.262,3.59531e-07,-3.5203e-16,5.07869e-15,1.59233e-15,-0.0126009,0.0281998,-0.0141832,0.0,0.0,0.0,0.0258249,-0.012521841079186524,0.0,0.0,0.028601178407338113,0.0,-0.014083092260436247
51,85.44,-5.19831e-07,739.466,3.8049e-07,1.32948e-15,5.37485e-15,2.76023e-15,-0.0130563,0.0291804,-0.0147003,0.0,0.0,0.0,0.0268306,-0.012971436252168012,0.0,0.0,0.02961031942386083,0.0,-0.014592778102796689
52,88.27,-5.41434e-07,743.549,3.99652e-07,-6.10024e-16,4.79844e-15,-1.14102e-15,-0.0135114,0.03016,-0.015217,0.0,0.0,0.0,0.0278359,-0.013420530752324966,0.0,0.0,0.03061941986947092,0.0,-0.015101806495540826
53,91.09,-5.61129e-07,747.52,4.17177e-07,-4.44741e-16,1.96097e-15,7.62556e-16,-0.013966,0.0311386,-0.0157333,0.0,0.0,0.0,0.0288407,-0.013868927850662294,0.0,0.0,0.03162847768521693,0.0,-0.015610178185402446
54,93.92,-5.79094e-07,751.384,4.33212e-07,-3.23798e-16,3.07648e-15,-1.02079e-15,-0.0144204,0.0321163,-0.0162492,0.0,0.0,0.0,0.029845,-0.01431692401740936,0.0,0.0,0.03263759407401201,0.0,-0.016117893917942494
55,96.74,-5.95487e-07,755.148,4.47889e-07,-2.35157e-16,2.29765e-15,-2.33425e-15,-0.0148743,0.033093,-0.0167647,0.0,0.0,0.0,0.0308489,-0.014764224043177454,0.0,0.0,0.033646663911182983,0.0,-0.016624954437550077
56,99.57,-6.10453e-07,758.817,4.61329e-07,1.42565e-15,1.71889e-15,-1.70851e-15,-0.0153279,0.0340688,-0.0172798,0.0,0.0,0.0,0.0318523,-0.015211025648886434,0.0,0.0,0.03465578859768903,0.0,-0.017131360487444347
57,102.4,-6.2412e-07,762.395,4.73643e-07,1.05452e-15,3.71801e-15,-2.84667e-15,-0.0157811,0.0350436,-0.0177945,0.0,0.0,0.0,0.0328551,-0.015657230894316476,0.0,0.0,0.035664862803277186,0.0,-0.017637112809675948
58,105.2,-6.36605e-07,765.888,4.84928e-07,7.81341e-16,2.78715e-15,3.10598e-16,-0.016234,0.0360175,-0.0183088,0.0,0.0,0.0,0.0338573,-0.01610293879627145,0.0,0.0,0.0366739881269762,0.0,-0.018142212145130454
59,108.0,-6.48013e-07,769.3,4.95274e-07,-1.02218e-15,6.15214e-15,-1.35921e-15,-0.0166864,0.0369904,-0.0188227,0.0,0.0,0.0,0.034859,-0.016547953156921702,0.0,0.0,0.037683059032973976,0.0,-0.01864665923352793
60,110.9,-6.58438e-07,772.634,5.04761e-07,1.65152e-15,3.80807e-15,-9.92974e-16,-0.0171385,0.0379624,-0.0193362,0.0,0.0,0.0,0.03586,-0.016992471336393478,0.0,0.0,0.038692177318390586,0.0,-0.019150454813426143
61,113.7,-6.67965e-07,775.895,5.13463e-07,-3.79634e-16,5.30635e-15,-7.22151e-16,-0.0175902,0.0389334,-0.0198493,0.0,0.0,0.0,0.0368605,-0.017436395569255136,0.0,0.0,0.03970123724187746,0.0,-0.019653599622222018
62,116.5,-6.76669e-07,779.085,5.21444e-07,-2.80007e-16,-7.85992e-17,-5.21607e-16,-0.0180415,0.0399035,-0.0203619,0.0,0.0,0.0,0.0378603,-0.017879726478790325,0.0,0.0,0.04071034079866798,0.0,-0.020155996411757915
63,119.3,-6.8462e-07,782.208,5.28765e-07,-2.06172e-16,6.46934e-15,-1.1781e-15,-0.0184924,0.0408726,-0.0208741,0.0,0.0,0.0,0.0388594,-0.018322464687290818,0.0,0.0,0.04171938204189973,0.0,-0.020657744001868594
64,122.2,-6.9188e-07,785.267,5.3548e-07,-1.51381e-16,4.88143e-15,-8.61602e-16,-0.018943,0.0418408,-0.0213859,0.0,0.0,0.0,0.0398579,-0.018764708939590036,0.0,0.0,0.04272846316493739,0.0,-0.021158843126284244
65,125.0,-6.98505e-07,788.264,5.41637e-07,-1.10671e-16,4.17701e-16,-1.43342e-15,-0.0193931,0.0428081,-0.0218972,0.0,0.0,0.0,0.0408558,-0.019206263564773174,0.0,0.0,0.04373758238918635,0.0,-0.021659196683506354
66,127.8,-7.04546e-07,791.203,5.4728e-07,-8.03844e-17,1.95527e-15,-1.05316e-15,-0.0198429,0.0437744,-0.0224081,0.0,0.0,0.0,0.0418529,-0.0196473253851821,0.0,0.0,0.04474663345955787,0.0,-0.02215890333898629
67,130.6,-7.1005e-07,794.084,5.5245e-07,1.55955e-15,3.12042e-15,-2.38757e-15,-0.0202923,0.0447398,-0.0229186,0.0,0.0,0.0,0.0428494,-0.020087796895792542,0.0,0.0,0.04575571886665375,0.0,-0.022657963822804827
68,133.5,-7.15057e-07,796.912,5.57182e-07,-4.51548e-16,3.186e-15,-9.57884e-16,-0.0207413,0.0457043,-0.0234287,0.0,0.0,0.0,0.0438451,-0.020527678714127973,0.0,0.0,0.046764836826407974,0.0,-0.0231563788638951
69,136.3,-7.19606e-07,799.687,5.61511e-07,1.2847e-15,-4.52821e-17,-6.98929e-16,-0.0211898,0.0466679,-0.0239383,0.0,0.0,0.0,0.0448402,-0.020966873553419862,0.0,0.0,0.04777398555294554,0.0,-0.02365405155545408
70,139.1,-7.23732e-07,802.412,5.65465e-07,-6.58691e-16,2.43351e-15,-1.31675e-15,-0.021638,0.0476305,-0.0244474,0.0,0.0,0.0,0.0458345,-0.02140557787970976,0.0,0.0,0.048783058380273525,0.0,-0.0241509827732328
71,141.9,-7.27466e-07,805.089,5.69074e-07,3.197e-16,4.31934e-15,-1.56539e-16,-0.0220858,0.0485922,-0.0249562,0.0,0.0,0.0,0.0468281,-0.021843694360334065,0.0,0.0,0.0497921581953904,0.0,-0.02464736846197013
72,144.8,-7.30837e-07,807.72,5.72363e-07,2.41471e-16,3.287e-15,-1.72463e-15,-0.0225333,0.0495529,-0.0254645,0.0,0.0,0.0,0.047821,-0.02228132138075889,0.0,0.0,0.050801178126887114,0.0,-0.02514301422553833
73,147.6,-7.33872e-07,810.305,5.75353e-07,-6.30831e-16,5.80139e-15,-4.62681e-16,-0.0229803,0.0505128,-0.0259723,0.0,0.0,0.0,0.0488131,-0.022718263966158503,0.0,0.0,0.051810326441017907,0.0,-0.02563792093546624
74,150.4,-7.36595e-07,812.847,5.78067e-07,-1.28729e-15,3.59719e-15,-3.28234e-16,-0.0234269,0.0514717,-0.0264797,0.0,0.0,0.0,0.0498045,-0.02315462054379469,0.0,0.0,0.05281939108176559,0.0,-0.026132186848517147
75,153.2,-7.39027e-07,815.348,5.80524e-07,6.63411e-16,8.52547e-15,5.88203e-16,-0.0238731,0.0524297,-0.0269867,0.0,0.0,0.0,0.0507951,-0.023590391724327642,0.0,0.0,0.05382847533260282,0.0,-0.02662581268506159
76,156.1,-7.41189e-07,817.808,5.82741e-07,5.01751e-16,1.55046e-15,-3.53035e-16,-0.0243189,0.0533868,-0.0274932,0.0,0.0,0.0,0.051785,-0.024025578117442548,0.0,0.0,0.0548375773951042,0.0,-0.02711870187621157
77,158.9,-7.431e-07,820.229,5.84736e-07,3.80109e-16,7.80465e-15,-2.46371e-16,-0.0247644,0.054343,-0.0279993,0.0,0.0,0.0,0.0527741,-0.024460277885828274,0.0,0.0,0.055846695469072616,0.0,-0.027610952526658017
78,161.7,-7.44776e-07,822.612,5.86522e-07,2.88493e-16,-2.30949e-15,6.51663e-16,-0.0252094,0.0552982,-0.028505,0.0,0.0,0.0,0.0537625,-0.024894296485868495,0.0,0.0,0.05685572206696765,0.0,-0.02810256535318545
79,164.5,-7.46234e-07,824.959,5.88114e-07,2.19428e-16,4.86475e-15,-3.06017e-16,-0.025654,0.0562526,-0.0290102,0.0,0.0,0.0,0.0547501,-0.025327732121769087,0.0,0.0,0.05786486665530499,0.0,-0.028593443930799878
80,167.4,-7.47489e-07,827.271,5.89525e-07,-1.47049e-15,7.04532e-15,-2.11467e-16,-0.0260983,0.057206,-0.0295149,0.0,0.0,0.0,0.0557369,-0.025760682823267045,0.0,0.0,0.05887391595654301,0.0,-0.029083589121104758
81,170.2,-7.48552e-07,829.548,5.90767e-07,-2.91497e-16,2.91254e-15,-1.77951e-15,-0.0265421,0.0581586,-0.0300192,0.0,0.0,0.0,0.0567229,-0.026192954304093408,0.0,0.0,0.059883079837326214,0.0,-0.02957309882686454
82,173.0,-7.49438e-07,831.792,5.91849e-07,6.0147e-16,2.23668e-15,-1.32751e-15,-0.0269855,0.0591102,-0.0305231,0.0,0.0,0.0,0.0577081,-0.02662464463533598,0.0,0.0,0.06089214461297354,0.0,-0.030061973759981875
83,175.8,-7.50157e-07,834.004,5.92784e-07,4.57788e-16,2.5508e-15,-9.85386e-16,-0.0274286,0.0600609,-0.0310265,0.0,0.0,0.0,0.0586926,-0.027055851714314683,0.0,0.0,0.06190121436015916,0.0,-0.030550117686256373
84,178.7,-7.50721e-07,836.185,5.93579e-07,1.17065e-15,4.45833e-15,-7.26196e-16,-0.0278712,0.0610107,-0.0315295,0.0,0.0,0.0,0.0596763,-0.02748638151107352,0.0,0.0,0.06291028726642289,0.0,-0.031037628357847735
85,181.5,-7.51138e-07,838.336,5.94244e-07,6.78908e-17,3.43059e-15,-5.29655e-16,-0.0283135,0.0619596,-0.032032,0.0,0.0,0.0,0.0606591,-0.02791642917248005,0.0,0.0,0.06391936151757327,0.0,-0.0315244096355588
86,184.3,-7.51418e-07,840.456,5.94787e-07,5.28135e-17,2.64257e-15,4.42652e-16,-0.0287553,0.0629077,-0.0325341,0.0,0.0,0.0,0.0616412,-0.028345800838886714,0.0,0.0,0.0649285417905412,0.0,-0.03201055917142659
87,187.1,-7.5157e-07,842.549,5.95215e-07,4.13704e-17,2.03771e-15,-4.65041e-16,-0.0291968,0.0638548,-0.0330357,0.0,0.0,0.0,0.0626225,-0.028774691483239745,0.0,0.0,0.0659376133828955,0.0,-0.032495980920993484
88,190.0,-7.51601e-07,844.613,5.95535e-07,3.2679e-17,-9.30727e-16,-1.15628e-15,-0.0296378,0.064801,-0.0335369,0.0,0.0,0.0,0.063603,-0.029202907415742496,0.0,0.0,0.066946680867221,0.0,-0.03298077243645392
89,192.8,-7.51519e-07,846.651,5.95753e-07,2.60729e-17,3.46079e-15,-8.58365e-16,-0.0300785,0.0657463,-0.0340376,0.0,0.0,0.0,0.0645827,-0.029630643435889614,0.0,0.0,0.06795574242244795,0.0,-0.03346483776782616
90,195.6,-7.51331e-07,848.662,5.95877e-07,-8.04484e-16,2.67344e-15,-6.31548e-16,-0.0305188,0.0666908,-0.0345379,0.0,0.0,0.0,0.0655616,-0.03005780301750194,0.0,0.0,0.0689649031222852,0.0,-0.03394827436774184
91,198.4,-7.51043e-07,850.648,5.9591e-07,-1.43847e-15,2.90367e-15,-4.58717e-16,-0.0309586,0.0676343,-0.0350378,0.0,0.0,0.0,0.0665397,-0.030484289804416087,0.0,0.0,0.06997394745018948,0.0,-0.03443108293732877
92,201.3,-7.50661e-07,852.608,5.95859e-07,-1.09634e-15,5.72656e-16,-3.26909e-16,-0.0313981,0.0685769,-0.0355372,0.0,0.0,0.0,0.0675169,-0.03091029833681469,0.0,0.0,0.07098298037556372,0.0,-0.03491316766793362
93,204.1,-7.5019e-07,854.545,5.95729e-07,-8.00944e-18,2.95768e-15,-2.26298e-16,-0.0318372,0.0695187,-0.0360362,0.0,0.0,0.0,0.0684934,-0.03133573221397168,0.0,0.0,0.07199210726974559,0.0,-0.035394625863456985
94,206.9,-7.49637e-07,856.457,5.95524e-07,-8.31805e-16,3.96788e-15,-1.49433e-16,-0.0322759,0.0704596,-0.0365347,0.0,0.0,0.0,0.0694691,-0.031760592028435064,0.0,0.0,0.07300121930578651,0.0,-0.03587536180907425
95,209.7,-7.49005e-07,858.347,5.95249e-07,-6.33892e-16,2.23642e-15,-9.1935e-16,-0.0327142,0.0713996,-0.0370327,0.0,0.0,0.0,0.0704439,-0.032184878371804504,0.0,0.0,0.07401031465244357,0.0,-0.03635537634535346
96,212.6,-7.48299e-07,860.214,5.94906e-07,3.46537e-16,4.25326e-15,-1.50928e-15,-0.0331521,0.0723387,-0.0375304,0.0,0.0,0.0,0.071418,-0.03260859183473208,0.0,0.0,0.07501939147679737,0.0,-0.03683486294440863
97,215.4,-7.47524e-07,862.059,5.94501e-07,-5.61538e-16,-5.88378e-17,-1.13205e-15,-0.0335895,0.0732769,-0.0380276,0.0,0.0,0.0,0.0723912,-0.03303163631009187,0.0,0.0,0.0760284479442539,0.0,-0.0373136296192943
98,218.2,-7.46683e-07,863.883,5.94037e-07,4.02564e-16,7.96846e-16,-1.27149e-17,-0.0340267,0.0742143,-0.0385243,0.0,0.0,0.0,0.0733636,-0.03345430247714054,0.0,0.0,0.0770375899223057,0.0,-0.03779167720651577
99,221.0,-7.45781e-07,865.685,5.93516e-07,3.11578e-16,-1.06128e-15,1.52674e-17,-0.0344634,0.0751508,-0.0390206,0.0,0.0,0.0,0.0743352,-0.03387630083320137,0.0,0.0,0.07804670807108893,0.0,-0.038269102714178715
100,223.9,-7.4482e-07,867.468,5.92943e-07,2.41832e-16,1.88381e-17,-7.94773e-16,-0.0348997,0.0760864,-0.0395164,0.0,0.0,0.0,0.075306,-0.034297728661981886,0.0,0.0,0.07905580055101336,0.0,-0.03874581070737637
101,226.7,-7.43805e-07,869.23,5.9232e-07,1.88332e-16,7.59487e-15,-5.85372e-16,-0.0353356,0.0770211,-0.0400118,0.0,0.0,0.0,0.076276,-0.03471858654941762,0.0,0.0,0.08006486552083669,0.0,-0.03922189809616883
102,229.5,-7.42737e-07,870.973,5.9165e-07,1.47268e-16,5.91132e-15,-4.24536e-16,-0.0357711,0.0779549,-0.0405068,0.0,0.0,0.0,0.0772451,-0.03513887508050506,0.0,0.0,0.08107390113766799,0.0,-0.0396973655687034
103,232.3,-7.41621e-07,872.697,5.90936e-07,1.15728e-16,2.91778e-15,-1.13409e-15,-0.0362063,0.0788879,-0.0410013,0.0,0.0,0.0,0.0782135,-0.03555869128343825,0.0,0.0,0.08208301376526816,0.0,-0.04017211782925889
104,235.2,-7.40459e-07,874.402,5.90179e-07,-7.42087e-16,-1.09977e-15,-8.47013e-16,-0.036641,0.07982,-0.0414954,0.0,0.0,0.0,0.079181,-0.03597784281115224,0.0,0.0,0.08309209355097469,0.0,-0.040646251641435094
105,238.0,-7.39253e-07,876.09,5.89383e-07,2.6514e-16,5.89736e-15,-6.26092e-16,-0.0370754,0.0807513,-0.041989,0.0,0.0,0.0,0.0801477,-0.03639652309229413,0.0,0.0,0.08410124705709077,0.0,-0.041119671801917335
106,240.8,-7.38006e-07,877.759,5.88549e-07,-1.46235e-15,2.06805e-15,-4.55962e-16,-0.0375093,0.0816816,-0.0424822,0.0,0.0,0.0,0.0811136,-0.03681453994560979,0.0,0.0,0.08511025571483355,0.0,-0.04159247497693763
107,243.6,-7.3672e-07,879.411,5.87679e-07,-2.89637e-16,8.37689e-15,1.34574e-15,-0.0379429,0.0826112,-0.042975,0.0,0.0,0.0,0.0820787,-0.03723208663042621,0.0,0.0,0.08611944320621756,0.0,-0.042064661848867924
108,246.5,-7.35398e-07,881.046,5.86776e-07,-1.05607e-15,3.16061e-15,-6.06469e-16,-0.0383761,0.0835398,-0.0434673,0.0,0.0,0.0,0.0830429,-0.03764906736594964,0.0,0.0,0.08712848214545077,0.0,-0.04253613735262207
109,249.3,-7.34042e-07,882.664,5.85841e-07,-8.12029e-16,2.47091e-15,-4.41703e-16,-0.0388089,0.0844676,-0.0439592,0.0,0.0,0.0,0.0840063,-0.038065482730808564,0.0,0.0,0.08813758800300509,0.0,-0.043006998008985664
110,252.1,-7.32652e-07,884.266,5.84876e-07,-6.2371e-16,2.78e-15,-3.14486e-16,-0.0392413,0.0853945,-0.0444506,0.0,0.0,0.0,0.084969,-0.03848133330270287,0.0,0.0,0.08914665031100744,0.0,-0.04347714884464282
111,254.9,-7.31232e-07,885.851,5.83883e-07,3.58885e-16,-3.65059e-16,-2.16189e-16,-0.0396733,0.0863206,-0.0449416,0.0,0.0,0.0,0.0859308,-0.03889661965840485,0.0,0.0,0.09015577622749205,0.0,-0.04394668628368592
112,257.8,-7.29783e-07,887.422,5.82862e-07,-5.56267e-16,5.63564e-16,-9.78005e-16,-0.0401049,0.0872458,-0.0454322,0.0,0.0,0.0,0.0868917,-0.03931134237376033,0.0,0.0,0.0911648550795543,0.0,-0.04441561100275615
113,260.6,-7.28307e-07,888.976,5.81816e-07,-4.26596e-16,2.98719e-15,-1.56801e-15,-0.0405362,0.0881702,-0.0459223,0.0,0.0,0.0,0.0878519,-0.03972559805113607,0.0,0.0,0.09217399422384176,0.0,-0.04488382816581571
114,263.4,-7.26805e-07,890.516,5.80747e-07,-3.26286e-16,4.0394e-15,-3.47831e-16,-0.040967,0.0890937,-0.046412,0.0,0.0,0.0,0.0888112,-0.04013919516828013,0.0,0.0,0.09318308278243248,0.0,-0.04535143405251718
115,266.2,-7.25279e-07,892.041,5.79654e-07,-2.4864e-16,1.47078e-15,-2.41488e-16,-0.0413975,0.0900163,-0.0469012,0.0,0.0,0.0,0.0897698,-0.04055232631190098,0.0,0.0,0.09419211889139123,0.0,-0.045818333917960086
116,269.1,-7.2373e-07,893.552,5.7854e-07,-1.88501e-16,2.00471e-15,-9.9883e-16,-0.0418276,0.0909381,-0.0473901,0.0,0.0,0.0,0.0907275,-0.04096489602687703,0.0,0.0,0.09520121020531858,0.0,-0.04628471931730693
117,271.9,-7.22159e-07,895.048,5.77406e-07,-1.41893e-16,3.27474e-15,-7.46471e-16,-0.0422573,0.0918591,-0.0478784,0.0,0.0,0.0,0.0916844,-0.041376904884611765,0.0,0.0,0.09621035515983611,0.0,-0.04675030480691611
118,274.7,-7.20568e-07,896.531,5.76252e-07,7.3482e-16,2.57307e-15,-5.50716e-16,-0.0426866,0.0927792,-0.0483664,0.0,0.0,0.0,0.0926404,-0.041788353455589844,0.0,0.0,0.0972194424670445,0.0,-0.04721537717128388
119,277.5,-7.18958e-07,898.0,5.7508e-07,-2.66149e-16,2.0233e-15,4.42404e-16,-0.0431155,0.0936984,-0.0488539,0.0,0.0,0.0,0.0935957,-0.042199242309379215,0.0,0.0,0.0982284702566858,0.0,-0.04767974647569817
120,280.4,-7.17329e-07,899.455,5.73891e-07,-2.02563e-16,1.59175e-15,-1.31052e-15,-0.043544,0.0946168,-0.0493409,0.0,0.0,0.0,0.0945501,-0.04260957201463178,0.0,0.0,0.0992375465806914,0.0,-0.04814341352707363
121,282.5,-3.72633e-07,900.546,3.12273e-07,7.27262e-16,3.11897e-15,-1.05422e-15,-0.0438676,0.0953102,-0.0497087,0.0,0.0,0.0,0.0952707,-0.042919333435027074,0.0,0.0,0.10000002221524285,0.0,-0.04849344200539529
