,Time,S11,S22,S33,S12,S13,S23,LE11,LE22,LE33,LE12,LE13,LE23,SDV_EPBAR,E11,E12,E13,E22,E23,E33
0,0.0002825,-7.79048e-12,0.00207746,-7.79048e-12,-4.13085e-20,-2.47851e-20,4.13085e-20,-3e-09,1e-08,-3e-09,0.0,0.0,0.0,0.0,-3.000000026176508e-09,0.0,0.0,9.99999993922529e-09,0.0,-3.000000026176508e-09
1,0.000565,3.25261e-19,0.00415492,3.25261e-19,5.37011e-28,0.0,-1.65234e-20,-6e-09,2e-08,-6e-09,0.0,0.0,0.0,0.0,-5.999999941330714e-09,0.0,0.0,2.0000000100495186e-08,0.0,-5.999999941330714e-09
2,0.00098875,4.33681e-19,0.00727111,5.42101e-19,-1.65234e-20,-3.30468e-20,-1.65234e-20,-1.05e-08,3.5e-08,-1.05e-08,0.0,0.0,0.0,0.0,-1.0499999980595476e-08,0.0,0.0,3.5000000675466936e-08,0.0,-1.0499999980595476e-08
3,0.0016244,-2.1684e-19,0.0119454,-5.42101e-19,8.59217e-28,-1.65234e-20,-1.65234e-20,-1.725e-08,5.75e-08,-1.725e-08,0.0,0.0,0.0,0.0,-1.7249999872959165e-08,0.0,0.0,5.7500001648946863e-08,0.0,-1.7249999872959165e-08
4,0.0025778,1.51788e-18,0.0189568,1.6263e-18,8.59217e-28,-1.65234e-20,-1.65234e-20,-2.7375e-08,9.125e-08,-2.7375e-08,0.0,0.0,0.0,0.0,-2.7374999600482397e-08,0.0,0.0,9.125000421938978e-08,0.0,-2.7374999600482397e-08
5,0.004008,-1.95156e-18,0.029474,-2.71051e-18,8.59217e-28,4.95702e-20,-1.65234e-20,-4.25625e-08,1.41875e-07,-4.25625e-08,0.0,0.0,0.0,0.0,-4.256249908074494e-08,0.0,0.0,1.418750099624333e-07,0.0,-4.256249908074494e-08
6,0.0061532,-5.85469e-18,0.0452497,-6.17995e-18,8.59217e-28,4.95702e-20,-1.65234e-20,-6.53437e-08,2.17812e-07,-6.53437e-08,0.0,0.0,0.0,0.0,-6.534369789701344e-08,0.0,0.0,2.178120237505965e-07,0.0,-6.534369789701344e-08
7,0.0093711,8.89046e-18,0.0689132,9.43256e-18,-1.32187e-19,-8.26171e-20,-1.65234e-20,-9.95156e-08,3.31719e-07,-9.95156e-08,0.0,0.0,0.0,0.0,-9.951559509779884e-08,0.0,0.0,3.317190551133109e-07,0.0,-9.951559509779884e-08
8,0.014198,8.0231e-18,0.104409,7.69784e-18,2.04333e-26,-8.26171e-20,1.15664e-19,-1.50773e-07,5.02578e-07,-1.50773e-07,0.0,0.0,0.0,0.0,-1.5077298864962785e-07,0.0,0.0,5.025781262268936e-07,0.0,-1.5077298864962785e-07
9,0.021438,9.75782e-18,0.157652,1.11673e-17,2.04333e-26,-8.26171e-20,1.15664e-19,-2.2766e-07,7.58867e-07,-2.2766e-07,0.0,0.0,0.0,0.0,-2.2765997409468497e-07,0.0,0.0,7.588672878977576e-07,0.0,-2.2765997409468497e-07
10,0.032298,4.55365e-18,0.237516,1.11673e-17,5.28749e-19,1.81758e-19,1.15664e-19,-3.4299e-07,1.1433e-06,-3.4299e-07,0.0,0.0,0.0,0.0,-3.429899412266124e-07,0.0,0.0,1.1433006534833368e-06,0.0,-3.429899412266124e-07
11,0.048589,-3.01408e-17,0.357313,-3.04661e-17,5.28749e-19,1.81758e-19,1.15664e-19,-5.15985e-07,1.71995e-06,-5.15985e-07,0.0,0.0,0.0,0.0,-5.159848668334632e-07,0.0,0.0,1.7199514790178227e-06,0.0,-5.159848668334632e-07
12,0.073024,-1.6263e-17,0.537008,-2.71051e-18,5.28748e-19,1.81758e-19,1.15664e-19,-7.75477e-07,2.58492e-06,-7.75477e-07,0.0,0.0,0.0,0.0,-7.754766992995599e-07,0.0,0.0,2.584923340931411e-06,0.0,-7.754766992995599e-07
13,0.1097,1.14925e-17,0.806549,1.11673e-17,5.28747e-19,1.81758e-19,1.15663e-19,-1.16471e-06,3.88238e-06,-1.16471e-06,0.0,0.0,0.0,0.0,-1.1647093217659332e-06,0.0,0.0,3.882387536346954e-06,0.0,-1.1647093217659332e-06
14,0.1647,-2.38524e-18,1.21086,-1.65883e-17,5.28746e-19,1.81758e-19,1.15663e-19,-1.74857e-06,5.82857e-06,-1.74857e-06,0.0,0.0,0.0,0.0,-1.7485684712381655e-06,0.0,0.0,5.8285869861673945e-06,0.0,-1.7485684712381655e-06
15,0.2471,-1.82796e-16,1.81733,-1.55366e-16,5.28744e-19,1.81758e-19,1.15663e-19,-2.62435e-06,8.74784e-06,-2.62435e-06,0.0,0.0,0.0,0.0,-2.6243465564013135e-06,0.0,0.0,8.747878262438391e-06,0.0,-2.6243465564013135e-06
16,0.3708,4.55582e-16,2.72703,4.55256e-16,5.28741e-19,1.81758e-19,1.15662e-19,-3.93802e-06,1.31267e-05,-3.93802e-06,0.0,0.0,0.0,0.0,-3.9380122459631295e-06,0.0,0.0,1.3126786155615022e-05,0.0,-3.9380122459631295e-06
17,0.5564,2.61293e-16,4.09156,4.55256e-16,5.28736e-19,1.81758e-19,1.15661e-19,-5.90851e-06,1.9695e-05,-5.90851e-06,0.0,0.0,0.0,0.0,-5.908492544781652e-06,0.0,0.0,1.9695193947733003e-05,0.0,-5.908492544781652e-06
18,0.8347,4.83337e-16,6.13835,5.66279e-16,5.28729e-19,1.81758e-19,1.15659e-19,-8.86422e-06,2.95474e-05,-8.86422e-06,0.0,0.0,0.0,0.0,-8.864180712886416e-06,0.0,0.0,2.954783652864279e-05,0.0,-8.864180712886416e-06
19,1.252,-1.07097e-15,9.2085,-1.21008e-15,5.28719e-19,1.81758e-19,1.15657e-19,-1.32977e-05,4.43258e-05,-1.32977e-05,0.0,0.0,0.0,0.0,-1.3297611585971758e-05,0.0,0.0,4.432678240284815e-05,0.0,-1.3297611585971758e-05
20,1.878,-4.51267e-15,13.8136,-4.54075e-15,5.28704e-19,1.81758e-19,1.15654e-19,-1.99479e-05,6.64929e-05,-1.99479e-05,0.0,0.0,0.0,0.0,-1.994770104196686e-05,0.0,0.0,6.649511070189185e-05,0.0,-1.994770104196686e-05
21,2.818,-2.91596e-14,20.7212,-2.98538e-14,5.28681e-19,1.81758e-19,1.15649e-19,-2.99228e-05,9.97427e-05,-2.99228e-05,0.0,0.0,0.0,0.0,-2.9922352317468537e-05,0.0,0.0,9.974767446863098e-05,0.0,-2.9922352317468537e-05
22,4.227,-1.03266e-09,124.772,-1.03265e-09,5.28337e-19,-1.0827e-15,1.15574e-19,-0.000180179,0.000600597,-0.000180179,0.0,0.0,0.0,0.0,-0.00018016276873877857,0.0,0.0,0.0006007773944911587,0.0,-0.00018016276873877857
23,6.341,-9.04826e-07,281.463,-9.04826e-07,5.27818e-19,1.08306e-15,1.1546e-19,-0.000406453,0.00135484,-0.000406453,0.0,0.0,0.0,0.0,-0.00040637040916957634,0.0,0.0,0.0013557582103420618,0.0,-0.00040637040916957634
24,9.166,-2.71079e-08,490.709,-2.71079e-08,5.27126e-19,-1.0827e-15,1.15309e-19,-0.000708618,0.00236206,-0.000708618,0.0,0.0,0.0,0.0,-0.0007083669895586731,0.0,0.0,0.002364851861470285,0.0,-0.0007083669895586731
25,11.99,-0.110469,521.762,0.134522,2.21895e-15,-1.50306e-15,7.87744e-20,-0.00115589,0.00336826,-0.00120772,0.0,0.0,0.0,0.000897212,-0.0011552222164734616,0.0,0.0,0.003373938961997336,0.0,-0.0012069909997063366
26,14.82,-0.000800515,542.584,0.0011277,-2.17268e-15,2.70273e-15,-1.47221e-15,-0.00160865,0.00437346,-0.0017201,0.0,0.0,0.0,0.00184487,-0.0016073568161084628,0.0,0.0,0.0043830375334152905,0.0,-0.0017186214758529994
27,17.64,2.3075e-05,560.253,-1.87361e-05,-2.96393e-15,2.62921e-15,-1.00533e-15,-0.00206421,0.00537764,-0.0022347,0.0,0.0,0.0,0.0028074,-0.002062080983702086,0.0,0.0,0.00539212546020762,0.0,-0.0022322049168883584
28,20.47,-9.71785e-06,575.625,1.08951e-05,-2.03384e-15,-1.18652e-15,-6.89286e-16,-0.00252116,0.00638082,-0.00275133,0.0,0.0,0.0,0.00378045,-0.0025179845452975025,0.0,0.0,0.006401220800131613,0.0,-0.0027475485604065986
29,23.29,-4.53538e-06,589.253,5.18167e-06,-2.89529e-15,1.44677e-15,-4.74158e-16,-0.00297905,0.00738299,-0.00326937,0.0,0.0,0.0,0.00476124,-0.0029746170336507616,0.0,0.0,0.007410311467321629,0.0,-0.0032640314294070105
30,26.12,-2.02265e-06,601.512,2.3936e-06,-5.01979e-16,1.7821e-15,-1.82836e-15,-0.00343758,0.00838415,-0.0037884,0.0,0.0,0.0,0.00574788,-0.0034316782863461626,0.0,0.0,0.00841939541770853,0.0,-0.0037812330659807714
31,28.94,-8.19707e-07,612.665,1.04705e-06,-1.09917e-15,4.32297e-15,-2.77795e-15,-0.00389654,0.00938432,-0.00430814,0.0,0.0,0.0,0.00673905,-0.003888958338626458,0.0,0.0,0.009428490793764732,0.0,-0.004298873277092885
32,31.77,-2.40213e-07,622.905,3.81119e-07,-1.52027e-15,3.83706e-15,-4.23911e-16,-0.00435576,0.0103835,-0.00482836,0.0,0.0,0.0,0.00773377,-0.004346287435807339,0.0,0.0,0.010437595607916128,0.0,-0.004816722207872659
33,34.59,2.64717e-08,632.379,5.6687e-08,-2.57993e-15,2.73377e-15,-1.81241e-15,-0.00481514,0.0113817,-0.00534892,0.0,0.0,0.0,0.00873131,-0.004803565797976472,0.0,0.0,0.011446717985039268,0.0,-0.005334639999621693
34,37.42,1.31262e-07,641.199,-8.97257e-08,-1.8093e-15,4.07198e-16,-1.27072e-15,-0.00527458,0.0123788,-0.00586967,0.0,0.0,0.0,0.00973111,-0.005260693828213925,0.0,0.0,0.0124557344691123,0.0,-0.005852477142293533
35,40.24,1.51091e-07,649.456,-1.41203e-07,-2.79934e-15,2.93219e-16,-8.91737e-16,-0.00573401,0.013375,-0.00639052,0.0,0.0,0.0,0.0107327,-0.005717601940964601,0.0,0.0,0.013464845426503835,0.0,-0.006370144054465454
36,43.07,1.26633e-07,657.222,-1.41727e-07,-1.20724e-15,-1.34471e-15,-6.2561e-16,-0.00619337,0.0143702,-0.00691139,0.0,0.0,0.0,0.0117357,-0.006174230616833198,0.0,0.0,0.01447394768667043,0.0,-0.006887561272280518
37,45.89,7.9967e-08,664.554,-1.15311e-07,-1.61762e-15,1.37383e-15,1.1004e-15,-0.00665262,0.0153644,-0.00743223,0.0,0.0,0.0,0.0127399,-0.006630540313288469,0.0,0.0,0.01548303922174421,0.0,-0.00740467927530708
38,48.72,2.32738e-08,671.502,-7.53502e-08,-1.91362e-15,2.5595e-15,7.89696e-16,-0.00711172,0.0163576,-0.00795296,0.0,0.0,0.0,0.013745,-0.007086491560613362,0.0,0.0,0.016492118001871336,0.0,-0.007921418884083042
39,51.54,-3.66898e-08,678.106,-2.94134e-08,-2.12913e-15,1.85583e-15,5.69516e-16,-0.00757063,0.0173498,-0.00847356,0.0,0.0,0.0,0.0147508,-0.007542044961770467,0.0,0.0,0.017501181995217996,0.0,-0.008437760578007492
40,54.37,-8.76511e-08,684.401,1.1576e-08,-1.51269e-15,1.34902e-15,-1.13749e-15,-0.00802934,0.0183411,-0.00899397,0.0,0.0,0.0,0.0157571,-0.007997190952336641,0.0,0.0,0.018510331019004678,0.0,-0.008953645235614593
41,57.19,-1.44706e-07,690.417,5.85474e-08,-1.07335e-15,2.5602e-15,-8.10482e-16,-0.00848781,0.0193313,-0.00951418,0.0,0.0,0.0,0.0167638,-0.008451890239245086,0.0,0.0,0.01951935943630323,0.0,-0.00946906338536535
42,60.02,-1.98099e-07,696.178,1.03232e-07,-2.31679e-15,3.4495e-15,-5.7676e-16,-0.00894603,0.0203206,-0.0100342,0.0,0.0,0.0,0.0177707,-0.008906133334516175,0.0,0.0,0.020528469012342843,0.0,-0.009984025376151728
43,62.84,-2.47808e-07,701.707,1.45372e-07,-1.6562e-15,9.40359e-16,-4.09291e-16,-0.00940397,0.0213089,-0.0105539,0.0,0.0,0.0,0.0187778,-0.00935989095500478,0.0,0.0,0.021537555856397272,0.0,-0.010498403005559598
44,65.67,-2.93717e-07,707.023,1.84672e-07,-1.96393e-15,2.2769e-15,-2.89001e-16,-0.00986164,0.0222963,-0.0110733,0.0,0.0,0.0,0.019785,-0.00981317347889299,0.0,0.0,0.02254672018148618,0.0,-0.011012216686074439
45,68.49,-3.35901e-07,712.142,2.21062e-07,-2.97331e-15,2.46754e-15,1.3651e-15,-0.010319,0.0232826,-0.0115924,0.0,0.0,0.0,0.0207921,-0.010265941778923371,0.0,0.0,0.023555755535587863,0.0,-0.011525467018743574
46,71.32,-3.74542e-07,717.08,2.54605e-07,-1.3544e-15,1.01974e-15,-2.14489e-15,-0.0107761,0.024268,-0.0121112,0.0,0.0,0.0,0.0217991,-0.010718245834968831,0.0,0.0,0.024564864483416438,0.0,-0.012038154603795426
47,74.14,-4.09869e-07,721.85,2.85435e-07,-1.75356e-15,-4.03329e-15,2.22858e-17,-0.0112328,0.0252524,-0.0126297,0.0,0.0,0.0,0.022806,-0.011169947658133506,0.0,0.0,0.02557394272283675,0.0,-0.012550280040640405
48,76.97,-4.42133e-07,726.463,3.13721e-07,-1.25851e-15,-5.76986e-16,2.33554e-17,-0.0116892,0.0262358,-0.0131479,0.0,0.0,0.0,0.0238126,-0.011621146722563758,0.0,0.0,0.026582988204455038,0.0,-0.013061843927872685
49,79.79,-4.71587e-07,730.931,3.39649e-07,-8.99338e-16,1.17647e-15,-1.55482e-15,-0.0121453,0.0272183,-0.0136657,0.0,0.0,0.0,0.0248189,-0.012071843528323911,0.0,0.0,0.02759210163616399,0.0,-0.013572748220550213
50,82.62,-4.98473e-07,735.262,3.63405e-07,-6.38243e-16,-2.33392e-15,4.53957e-16,-0.012601,0.0281998,-0.0141831,0.0,0.0,0.0,0.0258249,-0.012521939826997452,0.0,0.0,0.028601178407338113,0.0,-0.014082993668740662
51,85.44,-5.2302e-07,739.466,3.85169e-07,-1.24002e-15,-9.25486e-16,3.39689e-16,-0.0130564,0.0291804,-0.0147002,0.0,0.0,0.0,0.0268306,-0.01297153495501946,0.0,0.0,0.02961031942386083,0.0,-0.014592679562069444
52,88.27,-5.45438e-07,743.549,4.0511e-07,-8.89088e-16,-2.29382e-15,2.56375e-16,-0.0135115,0.03016,-0.0152169,0.0,0.0,0.0,0.0278359,-0.013420629410267004,0.0,0.0,0.03061941986947092,0.0,-0.01510170800571653
53,91.09,-5.65921e-07,747.52,4.23388e-07,-6.32655e-16,-1.70393e-15,1.78469e-15,-0.0139662,0.0311386,-0.0157332,0.0,0.0,0.0,0.0288407,-0.013869125076857003,0.0,0.0,0.03162847768521693,0.0,-0.015610079746415373
54,93.92,-5.84645e-07,751.384,4.40148e-07,-1.24054e-15,3.57254e-15,-2.73308e-16,-0.0144205,0.0321163,-0.0162491,0.0,0.0,0.0,0.029845,-0.014317022585711991,0.0,0.0,0.03263759407401201,0.0,-0.01611779552972703
55,96.74,-6.01769e-07,755.148,4.55523e-07,-8.92365e-16,2.66699e-15,-1.94287e-16,-0.0148744,0.033093,-0.0167646,0.0,0.0,0.0,0.0308489,-0.014764322566750199,0.0,0.0,0.033646663911182983,0.0,-0.016624856100040608
56,99.57,-6.17439e-07,758.817,4.69634e-07,-1.43461e-15,-2.85824e-15,-1.36246e-16,-0.015328,0.0340688,-0.0172797,0.0,0.0,0.0,0.0318523,-0.015211124127778919,0.0,0.0,0.03465578859768903,0.0,-0.01713126220057537
57,102.4,-6.31783e-07,762.395,4.82593e-07,-1.03714e-15,-2.13508e-15,1.50472e-15,-0.0157812,0.0350436,-0.0177944,0.0,0.0,0.0,0.0328551,-0.015657329328588432,0.0,0.0,0.035664862803277186,0.0,-0.017637014573382404
58,105.2,-6.44918e-07,765.888,4.94497e-07,-7.44484e-16,8.36302e-16,3.18149e-16,-0.0162341,0.0360175,-0.0183087,0.0,0.0,0.0,0.0338573,-0.016103037185972613,0.0,0.0,0.0366739881269762,0.0,-0.01814211395934684
59,108.0,-6.56951e-07,769.3,5.05438e-07,-2.13083e-15,2.25341e-15,2.41722e-16,-0.0166865,0.0369904,-0.0188226,0.0,0.0,0.0,0.034859,-0.016548051502121464,0.0,0.0,0.037683059032973976,0.0,-0.018646561098188963
60,110.9,-6.67975e-07,772.634,5.15496e-07,-7.53323e-16,-7.44718e-16,1.85317e-16,-0.0171386,0.0379624,-0.0193361,0.0,0.0,0.0,0.03586,-0.016992569637141464,0.0,0.0,0.038692177318390586,0.0,-0.019150356728466655
61,113.7,-6.78078e-07,775.895,5.24747e-07,-5.35462e-16,2.69803e-15,1.4364e-16,-0.0175903,0.0389334,-0.0198491,0.0,0.0,0.0,0.0368605,-0.017436493825610744,0.0,0.0,0.03970123724187746,0.0,-0.019653403552922444
62,116.5,-6.87336e-07,779.085,5.33255e-07,-1.17822e-15,-4.11874e-16,-6.91435e-16,-0.0180416,0.0399035,-0.0203618,0.0,0.0,0.0,0.0378603,-0.01787982469081273,0.0,0.0,0.04071034079866798,0.0,-0.02015589842735266
63,119.3,-6.95818e-07,782.208,5.41083e-07,-8.5198e-16,5.40259e-15,2.97472e-16,-0.0184926,0.0408726,-0.020874,0.0,0.0,0.0,0.0388594,-0.01832266102277824,0.0,0.0,0.04171938204189973,0.0,-0.02065764606763809
64,122.2,-7.03588e-07,785.267,5.48284e-07,-2.22179e-15,8.09798e-16,1.03389e-15,-0.0189431,0.0418408,-0.0213857,0.0,0.0,0.0,0.0398579,-0.01876480706311423,0.0,0.0,0.04272846316493739,0.0,-0.0211586473580333
65,125.0,-7.10704e-07,788.264,5.54908e-07,-1.63042e-15,-1.02168e-15,2.39059e-15,-0.0193933,0.0428081,-0.0218971,0.0,0.0,0.0,0.0408558,-0.01920645972350099,0.0,0.0,0.04373758238918635,0.0,-0.021659098849421188
66,127.8,-7.17216e-07,791.203,5.61e-07,-1.19049e-15,-7.69919e-16,1.72785e-16,-0.019843,0.0437744,-0.022408,0.0,0.0,0.0,0.0418529,-0.019647423420444676,0.0,0.0,0.04474663345955787,0.0,-0.022158805554871708
67,130.6,-7.23173e-07,794.084,5.66601e-07,-8.62811e-16,-2.21923e-15,1.34033e-16,-0.0202924,0.0447398,-0.0229185,0.0,0.0,0.0,0.0428494,-0.020087894887007907,0.0,0.0,0.04575571886665375,0.0,-0.022657866088596434
68,133.5,-7.28616e-07,796.912,5.71749e-07,-1.428e-15,3.24217e-15,1.05153e-16,-0.0207414,0.0457043,-0.0234285,0.0,0.0,0.0,0.0438451,-0.0205277766613553,0.0,0.0,0.046764836826407974,0.0,-0.02315618349515136
69,136.3,-7.33585e-07,799.687,5.76477e-07,-1.85196e-15,-8.24025e-16,8.36093e-17,-0.02119,0.0466679,-0.0239381,0.0,0.0,0.0,0.0448402,-0.02096706936002557,0.0,0.0,0.04777398555294554,0.0,-0.023653856286244834
70,139.1,-7.38114e-07,802.412,5.80817e-07,2.6292e-16,1.0203e-15,8.78928e-16,-0.0216382,0.0476305,-0.0244473,0.0,0.0,0.0,0.0458345,-0.02140577359857465,0.0,0.0,0.048783058380273525,0.0,-0.02415088518832631
71,141.9,-7.42237e-07,805.089,5.84796e-07,-5.87114e-16,3.2448e-15,-9.60642e-16,-0.022086,0.0485922,-0.0249561,0.0,0.0,0.0,0.0468281,-0.021843889991575605,0.0,0.0,0.0497921581953904,0.0,-0.024647270926702047
72,144.8,-7.45982e-07,807.72,5.88441e-07,-1.22557e-15,3.29263e-15,-7.16339e-16,-0.0225334,0.0495529,-0.0254644,0.0,0.0,0.0,0.047821,-0.02228141915262183,0.0,0.0,0.050801178126887114,0.0,-0.02514291673983482
73,147.6,-7.49377e-07,810.305,5.91775e-07,-8.92385e-16,2.50793e-15,-5.3317e-16,-0.0229804,0.0505128,-0.0259722,0.0,0.0,0.0,0.0488131,-0.02271836169432717,0.0,0.0,0.051810326441017907,0.0,-0.025637823499253365
74,150.4,-7.52447e-07,812.847,5.9482e-07,-1.45678e-15,-2.2125e-15,4.18919e-16,-0.023427,0.0514717,-0.0264796,0.0,0.0,0.0,0.0498045,-0.023154718228327598,0.0,0.0,0.05281939108176559,0.0,-0.026132089461731067
75,153.2,-7.55213e-07,815.348,5.97596e-07,-1.0673e-15,-3.37837e-17,-4.94698e-16,-0.0238732,0.0524297,-0.0269866,0.0,0.0,0.0,0.0507951,-0.023590489365283518,0.0,0.0,0.05382847533260282,0.0,-0.026625715347638024
76,156.1,-7.57698e-07,817.808,6.00121e-07,-7.74427e-16,3.28234e-15,4.48732e-16,-0.024319,0.0533868,-0.0274931,0.0,0.0,0.0,0.051785,-0.0240256757148799,0.0,0.0,0.0548375773951042,0.0,-0.027118604588077022
77,158.9,-7.5992e-07,820.229,6.02412e-07,-1.37069e-15,5.81818e-15,-4.73097e-16,-0.0247645,0.054343,-0.0279992,0.0,0.0,0.0,0.0527741,-0.024460375439795623,0.0,0.0,0.055846695469072616,0.0,-0.027610855287748426
78,161.7,-7.61896e-07,822.612,6.04485e-07,-1.82156e-15,-1.3454e-15,1.28349e-15,-0.0252095,0.0552982,-0.0285048,0.0,0.0,0.0,0.0537625,-0.024894393996434006,0.0,0.0,0.05685572206696765,0.0,-0.02810237097367896
79,164.5,-7.63644e-07,824.959,6.06353e-07,2.91378e-16,-1.0276e-15,1.56611e-16,-0.0256541,0.0562526,-0.02901,0.0,0.0,0.0,0.0547501,-0.025327829588991158,0.0,0.0,0.05786486665530499,0.0,-0.028593249649469188
80,167.4,-7.65177e-07,827.271,6.08031e-07,-2.20511e-15,-5.76067e-15,-6.95645e-16,-0.0260984,0.057206,-0.0295148,0.0,0.0,0.0,0.0557369,-0.02576078024719386,0.0,0.0,0.05887391595654301,0.0,-0.029083492029458813
81,170.2,-7.6651e-07,829.548,6.0953e-07,-8.17348e-16,1.39635e-15,1.11812e-15,-0.0265422,0.0581586,-0.0300191,0.0,0.0,0.0,0.0567229,-0.026193051684793134,0.0,0.0,0.059883079837326214,0.0,-0.02957300178416955
82,173.0,-7.67657e-07,831.792,6.10861e-07,-1.40709e-15,1.0733e-15,3.15214e-17,-0.0269857,0.0591102,-0.030523,0.0,0.0,0.0,0.0577081,-0.026624839310387616,0.0,0.0,0.06089214461297354,0.0,-0.030061876766174334
83,175.8,-7.68627e-07,834.004,6.12036e-07,-1.0339e-15,2.48875e-15,2.87203e-17,-0.0274287,0.0600609,-0.0310264,0.0,0.0,0.0,0.0586926,-0.027055949008724656,0.0,0.0,0.06190121436015916,0.0,-0.03055002074126345
84,178.7,-7.69433e-07,836.185,6.13063e-07,-1.57289e-15,1.08218e-15,1.67024e-15,-0.0278713,0.0610107,-0.0315294,0.0,0.0,0.0,0.0596763,-0.02748647876243049,0.0,0.0,0.06291028726642289,0.0,-0.031037531461605594
85,181.5,-7.70085e-07,838.336,6.13953e-07,-1.98291e-15,-3.3288e-15,4.50352e-16,-0.0283136,0.0619596,-0.0320319,0.0,0.0,0.0,0.0606591,-0.027916526380832196,0.0,0.0,0.06391936151757327,0.0,-0.031524312787994946
86,184.3,-7.70592e-07,840.456,6.14712e-07,-6.4947e-16,-5.91813e-17,3.46413e-16,-0.0287555,0.0629077,-0.032534,0.0,0.0,0.0,0.0616412,-0.02834599516970704,0.0,0.0,0.0649285417905412,0.0,-0.03201046237247762
87,187.1,-7.70963e-07,842.549,6.15349e-07,-2.93007e-15,4.96041e-15,2.67497e-16,-0.0291969,0.0638548,-0.0330356,0.0,0.0,0.0,0.0626225,-0.028774788605765766,0.0,0.0,0.0659376133828955,0.0,-0.032495884170586686
88,190.0,-7.71206e-07,844.613,6.15872e-07,-1.37023e-15,1.32169e-15,-6.16893e-16,-0.029638,0.064801,-0.0335368,0.0,0.0,0.0,0.063603,-0.0292031015751415,0.0,0.0,0.066946680867221,0.0,-0.03298067573452623
89,192.8,-7.71329e-07,846.651,6.16287e-07,-1.00747e-15,-6.48629e-16,3.59138e-16,-0.0300786,0.0657463,-0.0340375,0.0,0.0,0.0,0.0645827,-0.029630740472820327,0.0,0.0,0.06795574242244795,0.0,-0.033464741114305085
90,195.6,-7.7134e-07,848.662,6.16599e-07,9.41958e-17,2.00923e-15,2.77819e-16,-0.0305189,0.0666908,-0.0345378,0.0,0.0,0.0,0.0655616,-0.03005790001171682,0.0,0.0,0.0689649031222852,0.0,-0.033948177762564535
91,198.4,-7.71243e-07,850.648,6.16816e-07,-2.36986e-15,-1.1849e-16,2.15882e-16,-0.0309588,0.0676343,-0.0350377,0.0,0.0,0.0,0.0665397,-0.030484483707538645,0.0,0.0,0.06997394745018948,0.0,-0.034430986380432294
92,201.3,-7.71047e-07,852.608,6.16943e-07,-1.77181e-15,2.4219e-15,1.68672e-16,-0.0313982,0.0685769,-0.0355371,0.0,0.0,0.0,0.0675169,-0.030910395245779987,0.0,0.0,0.07098298037556372,0.0,-0.03491307115924558
93,204.1,-7.70756e-07,854.545,6.16984e-07,-1.31557e-15,-1.47445e-15,1.32663e-16,-0.0318373,0.0695187,-0.036036,0.0,0.0,0.0,0.0684934,-0.03133582908039367,0.0,0.0,0.07199210726974559,0.0,-0.035394432942362886
94,206.9,-7.70376e-07,856.457,6.16945e-07,-1.79519e-15,5.37727e-16,1.05179e-16,-0.032276,0.0704596,-0.0365345,0.0,0.0,0.0,0.0694691,-0.031760688852371044,0.0,0.0,0.07300121930578651,0.0,-0.03587516898412746
95,209.7,-7.69912e-07,858.347,6.1683e-07,1.15136e-15,2.93545e-15,1.74158e-15,-0.0327143,0.0713996,-0.0370326,0.0,0.0,0.0,0.0704439,-0.03218497515331187,0.0,0.0,0.07401031465244357,0.0,-0.03635527998088628
96,212.6,-7.69369e-07,860.214,6.16643e-07,-7.37756e-16,5.9926e-16,1.33683e-15,-0.0331522,0.0723387,-0.0375302,0.0,0.0,0.0,0.071418,-0.032608688573868005,0.0,0.0,0.07501939147679737,0.0,-0.036834670311361895
97,215.4,-7.68751e-07,862.059,6.16389e-07,-5.26046e-16,-2.05222e-15,1.02714e-15,-0.0335897,0.0732769,-0.0380274,0.0,0.0,0.0,0.0723912,-0.03303182970374552,0.0,0.0,0.0760284479442539,0.0,-0.037313437082000855
98,218.2,-7.68063e-07,863.883,6.1607e-07,-3.63896e-16,3.45279e-15,-8.70848e-16,-0.0340268,0.0742143,-0.0385242,0.0,0.0,0.0,0.0733636,-0.03345439913170545,0.0,0.0,0.0770375899223057,0.0,-0.03779158098567881
99,221.0,-7.67308e-07,865.685,6.15691e-07,-1.07044e-15,2.68406e-15,-6.65661e-16,-0.0344635,0.0751508,-0.0390205,0.0,0.0,0.0,0.0743352,-0.033876397445566364,0.0,0.0,0.07804670807108893,0.0,-0.038269006541084116
100,223.9,-7.6649e-07,867.468,6.15255e-07,-7.81862e-16,1.24687e-15,-5.08321e-16,-0.0348998,0.0760864,-0.0395163,0.0,0.0,0.0,0.075306,-0.03429782523220415,0.0,0.0,0.07905580055101336,0.0,-0.03874571458195253
101,226.7,-7.65613e-07,869.23,6.14764e-07,-2.22431e-15,9.72358e-16,4.44513e-16,-0.0353357,0.0770211,-0.0400117,0.0,0.0,0.0,0.076276,-0.03471868307755399,0.0,0.0,0.08006486552083669,0.0,-0.0392218020183539
102,229.5,-7.64679e-07,870.973,6.14222e-07,-1.66898e-15,2.44441e-15,1.17731e-15,-0.0357713,0.0779549,-0.0405067,0.0,0.0,0.0,0.0772451,-0.03513906805271072,0.0,0.0,0.08107390113766799,0.0,-0.03969726953843522
103,232.3,-7.63693e-07,872.697,6.13632e-07,-4.09268e-16,2.74899e-15,7.51439e-17,-0.0362064,0.0788879,-0.0410012,0.0,0.0,0.0,0.0782135,-0.03555878772756427,0.0,0.0,0.08208301376526816,0.0,-0.040172021846465844
104,235.2,-7.62656e-07,874.402,6.12995e-07,-1.10684e-15,4.56819e-16,8.94039e-16,-0.0366411,0.07982,-0.0414953,0.0,0.0,0.0,0.079181,-0.03597793921336312,0.0,0.0,0.08309209355097469,0.0,-0.040646155706055453
105,238.0,-7.61572e-07,876.09,6.12315e-07,-8.10384e-16,4.57946e-15,-9.7756e-16,-0.0370755,0.0807513,-0.0419889,0.0,0.0,0.0,0.0801477,-0.03639661945263695,0.0,0.0,0.08410124705709077,0.0,-0.04111957591387971
106,240.8,-7.60443e-07,877.759,6.11594e-07,-2.25139e-15,-4.02716e-15,3.42279e-15,-0.0375095,0.0816816,-0.0424821,0.0,0.0,0.0,0.0811136,-0.03681473258268264,0.0,0.0,0.08511025571483355,0.0,-0.04159237913618019
107,243.6,-7.59271e-07,879.411,6.10833e-07,-8.57967e-16,2.40386e-16,9.71011e-16,-0.037943,0.0826112,-0.0429749,0.0,0.0,0.0,0.0820787,-0.03723218290721275,0.0,0.0,0.08611944320621756,0.0,-0.04206456605532938
108,246.5,-7.58059e-07,881.046,6.10036e-07,-1.45423e-15,1.88178e-15,-8.52774e-17,-0.0383762,0.0835398,-0.0434672,0.0,0.0,0.0,0.0830429,-0.037649163601038094,0.0,0.0,0.08712848214545077,0.0,-0.042536041606231034
109,249.3,-7.5681e-07,882.664,6.09203e-07,-1.91506e-15,-5.29584e-15,-9.01086e-16,-0.038809,0.0844676,-0.0439591,0.0,0.0,0.0,0.0840063,-0.03806557892425544,0.0,0.0,0.08813758800300509,0.0,-0.04300690230968063
110,252.1,-7.55524e-07,884.266,6.08337e-07,-5.98303e-16,9.4198e-16,1.41873e-16,-0.0392414,0.0853945,-0.0444505,0.0,0.0,0.0,0.084969,-0.0384814294545649,0.0,0.0,0.08914665031100744,0.0,-0.043477053192353066
111,254.9,-7.54204e-07,885.851,6.07439e-07,-1.25483e-15,-1.07626e-16,9.48372e-16,-0.0396734,0.0863206,-0.0449415,0.0,0.0,0.0,0.0859308,-0.03889671576873788,0.0,0.0,0.09015577622749205,0.0,-0.04394659067834983
112,257.8,-7.52852e-07,887.422,6.06512e-07,-2.60071e-15,-1.77727e-15,-1.03027e-16,-0.0401051,0.0872458,-0.0454321,0.0,0.0,0.0,0.0868917,-0.039311534511472734,0.0,0.0,0.0911648550795543,0.0,-0.04441551544431244
113,260.6,-7.5147e-07,888.976,6.05555e-07,5.47701e-16,3.69941e-15,-7.86843e-17,-0.0405363,0.0881702,-0.0459222,0.0,0.0,0.0,0.0878519,-0.03972569407857163,0.0,0.0,0.09217399422384176,0.0,-0.044883732654193764
114,263.4,-7.50059e-07,890.516,6.04573e-07,-1.20707e-15,3.55387e-16,-5.98485e-17,-0.0409672,0.0890937,-0.0464119,0.0,0.0,0.0,0.0888112,-0.040139387140421756,0.0,0.0,0.09318308278243248,0.0,-0.04535133858765572
115,266.2,-7.48621e-07,892.041,6.03564e-07,-8.88894e-16,1.13017e-15,7.9402e-16,-0.0413976,0.0900163,-0.0469011,0.0,0.0,0.0,0.0897698,-0.040552422256663445,0.0,0.0,0.09419211889139123,0.0,-0.04581823849978872
116,269.1,-7.47156e-07,893.552,6.02531e-07,-1.48203e-15,-1.65966e-15,-2.23137e-16,-0.0418277,0.0909381,-0.0473899,0.0,0.0,0.0,0.0907275,-0.04096499193038261,0.0,0.0,0.09520121020531858,0.0,-0.04628452857423182
117,271.9,-7.45668e-07,895.048,6.01475e-07,-2.62362e-16,2.09942e-15,6.68041e-16,-0.0422574,0.0918591,-0.0478783,0.0,0.0,0.0,0.0916844,-0.041377000746916415,0.0,0.0,0.09621035515983611,0.0,-0.04675020948194164
118,274.7,-7.44156e-07,896.531,6.00398e-07,-1.56226e-16,1.65099e-15,5.19375e-16,-0.0426867,0.0927792,-0.0483662,0.0,0.0,0.0,0.0926404,-0.04178844927674974,0.0,0.0,0.0972194424670445,0.0,-0.04721518661434021
119,277.5,-7.42623e-07,898.0,5.993e-07,-1.75588e-15,-4.02437e-16,-4.37159e-16,-0.0431156,0.0936984,-0.0488538,0.0,0.0,0.0,0.0935957,-0.04219933808945009,0.0,0.0,0.0982284702566858,0.0,-0.04767965124366813
120,280.4,-7.4107e-07,899.455,5.98182e-07,-4.7489e-16,-2.0168e-15,-3.39065e-16,-0.0435442,0.0946168,-0.0493408,0.0,0.0,0.0,0.0945501,-0.042609763492698294,0.0,0.0,0.0992375465806914,0.0,-0.04814331834141006
121,282.5,-3.91848e-07,900.546,3.31786e-07,-1.24224e-15,-1.67193e-15,6.12306e-16,-0.0438677,0.0953102,-0.0497085,0.0,0.0,0.0,0.0952707,-0.042919429143089105,0.0,0.0,0.10000002221524285,0.0,-0.0484932517040646
