,Time,S11,S22,S33,S12,S13,S23,LE11,LE22,LE33,LE12,LE13,LE23,SDV_EPBAR,E11,E12,E13,E22,E23,E33
0,2.42e-07,0.029678,0.029678,1.04083e-17,0.0,0.0,0.0,1e-07,1e-07,-8.57143e-08,0.0,0.0,0.0,0.0,1.0000000494336803e-07,0.0,0.0,1.0000000494336803e-07,0.0,-8.571429632731054e-08
1,4.84e-07,0.059356,0.059356,3.46945e-18,0.0,0.0,0.0,2e-07,2e-07,-1.71429e-07,0.0,0.0,0.0,0.0,2.0000002010078788e-07,0.0,0.0,2.0000002010078788e-07,0.0,-1.7142898534050488e-07
2,8.47e-07,0.103873,0.103873,3.46945e-18,0.0,0.0,0.0,3.5e-07,3.5e-07,-3e-07,0.0,0.0,0.0,0.0,3.5000006115559756e-07,0.0,0.0,3.5000006115559756e-07,0.0,-2.9999995498908305e-07
3,1.3915e-06,0.170648,0.170648,-1.73472e-17,0.0,0.0,0.0,5.75e-07,5.75e-07,-4.92857e-07,0.0,0.0,0.0,0.0,5.750001652593539e-07,0.0,0.0,5.750001652593539e-07,0.0,-4.928568785311782e-07
4,2.2083e-06,0.270812,0.270812,-3.46945e-18,0.0,0.0,0.0,9.125e-07,9.125e-07,-7.82142e-07,0.0,0.0,0.0,0.0,9.125004163390571e-07,0.0,0.0,9.125004163390571e-07,0.0,-7.821416940778647e-07
5,3.4334e-06,0.421056,0.421056,5.20417e-17,0.0,0.0,0.0,1.41875e-06,1.41875e-06,-1.21607e-06,0.0,0.0,0.0,0.0,1.4187510064544995e-06,0.0,0.0,1.4187510064544995e-06,0.0,-1.2160692606233425e-06
6,5.2711e-06,0.646423,0.646423,2.42861e-17,0.0,0.0,0.0,2.17812e-06,2.17812e-06,-1.86696e-06,0.0,0.0,0.0,0.0,2.178122372020752e-06,0.0,0.0,2.178122372020752e-06,0.0,-1.8669582572128363e-06
7,8.0276e-06,0.984473,0.984473,1.35308e-16,0.0,0.0,0.0,3.31718e-06,3.31718e-06,-2.8433e-06,0.0,0.0,0.0,0.0,3.317185501838793e-06,0.0,0.0,3.317185501838793e-06,0.0,-2.8432959577884276e-06
8,1.2162e-05,1.49155,1.49155,4.68375e-16,0.0,0.0,0.0,5.02577e-06,5.02577e-06,-4.3078e-06,0.0,0.0,0.0,0.0,5.025782629175524e-06,0.0,0.0,5.025782629175524e-06,0.0,-4.307790721469473e-06
9,1.8365e-05,2.25216,2.25216,3.57353e-16,0.0,0.0,0.0,7.58864e-06,7.58864e-06,-6.50455e-06,0.0,0.0,0.0,0.0,7.5886687938009345e-06,0.0,0.0,7.5886687938009345e-06,0.0,-6.50452884543018e-06
10,2.7668e-05,3.39307,3.39307,-3.08781e-16,0.0,0.0,0.0,1.14329e-05,1.14329e-05,-9.79967e-06,0.0,0.0,0.0,0.0,1.1432965355773206e-05,0.0,0.0,1.1432965355773206e-05,0.0,-9.799621983441753e-06
11,4.1623e-05,5.10443,5.10443,-7.5287e-16,0.0,0.0,-1.23207e-38,1.71994e-05,1.71994e-05,-1.47423e-05,0.0,0.0,0.0,0.0,1.7199547910573543e-05,0.0,0.0,1.7199547910573543e-05,0.0,-1.4742191332794974e-05
12,6.2555e-05,7.67145,7.67145,-1.64105e-15,0.0,0.0,-2.77213e-38,2.58489e-05,2.58489e-05,-2.21562e-05,0.0,0.0,0.0,0.0,2.5849234085661976e-05,0.0,0.0,2.5849234085661976e-05,0.0,-2.2155954553237933e-05
13,9.3954e-05,11.5219,11.5219,-8.30239e-15,0.0,0.0,-6.23724e-38,3.88231e-05,3.88231e-05,-3.3277e-05,0.0,0.0,0.0,0.0,3.882385362641294e-05,0.0,0.0,3.882385362641294e-05,0.0,-3.327644632677984e-05
14,0.00014105,17.2976,17.2976,-4.47177e-14,0.0,0.0,-1.40336e-37,5.82842e-05,5.82842e-05,-4.99578e-05,0.0,0.0,0.0,0.0,5.828589855694233e-05,0.0,0.0,5.828589855694233e-05,0.0,-4.995655212991501e-05
15,0.0002117,25.9608,25.9608,-2.25018e-13,0.0,0.0,-3.1575e-37,8.7475e-05,8.7475e-05,-7.49785e-05,0.0,0.0,0.0,0.0,8.747882604942525e-05,0.0,0.0,8.747882604942525e-05,0.0,-7.4975689182466e-05
16,0.00031767,38.9552,38.9552,-1.14339e-12,0.0,0.0,-7.10416e-37,0.00013126,0.00013126,-0.000112508,0.0,0.0,0.0,0.0,0.0001312686149708142,0.0,0.0,0.0001312686149708142,0.0,-0.00011250167121223953
17,0.00047662,58.4457,58.4457,-5.85252e-12,0.0,0.0,-1.59836e-36,0.000196933,0.000196933,-0.0001688,0.0,0.0,0.0,0.0,0.00019695239257622177,0.0,0.0,0.00019695239257622177,0.0,-0.00016878575408152408
18,0.00071506,87.6791,87.6791,-2.95989e-11,0.0,0.0,-3.59607e-36,0.000295435,0.000295435,-0.00025323,0.0,0.0,0.0,0.0,0.00029547864521761724,0.0,0.0,0.00029547864521761724,0.0,-0.00025319793998968
19,0.0010727,131.524,131.524,-1.49709e-10,0.0,0.0,-8.09034e-36,0.000443169,0.000443169,-0.000379859,0.0,0.0,0.0,0.0,0.0004432672138892091,0.0,0.0,0.0004432672138892091,0.0,-0.0003797868627043455
20,0.0016092,197.279,197.279,-7.57628e-10,0.0,0.0,-1.82005e-35,0.00066473,0.00066473,-0.000569769,0.0,0.0,0.0,0.0,0.0006649509819482979,0.0,0.0,0.0006649509819482979,0.0,-0.0005696067124669746
21,0.0024139,295.884,295.884,-3.83263e-09,0.0,0.0,-4.09417e-35,0.00099698,0.00099698,-0.000854554,0.0,0.0,0.0,0.0,0.0009974771497625046,0.0,0.0,0.0009974771497625046,0.0,-0.0008541889727163854
22,0.003621,420.36,423.527,0.00556431,0.0,0.0,1.42765e-32,0.00149515,0.00149515,-0.00136544,0.0,0.0,0.0,0.000129418,0.0014962682940309335,0.0,0.0,0.0014962682940309335,0.0,-0.0013645082109521312
23,0.0054316,437.678,458.706,0.145017,-1.12145e-33,2.76918e-15,-1.36151e-14,0.00224193,0.00224193,-0.00275766,0.0,0.0,0.0,0.00129109,0.0022444450041991804,0.0,0.0,0.0022444450041991804,0.0,-0.0027538611484448916
24,0.0078516,456.838,492.148,0.000116059,-1.60932e-33,-3.39567e-15,4.55266e-15,0.0032392,0.0032392,-0.00465119,0.0,0.0,0.0,0.00289531,0.003244451877416177,0.0,0.0,0.003244451877416177,0.0,-0.0046403899666158654
25,0.010272,473.235,517.392,1.40069e-05,-1.51601e-33,5.45473e-16,2.60238e-15,0.00423547,0.00423547,-0.00656355,0.0,0.0,0.0,0.00453204,0.004244452279975608,0.0,0.0,0.004244452279975608,0.0,-0.0065420569549660135
26,0.012692,487.652,537.541,1.75005e-06,-9.86846e-34,2.86119e-15,6.48539e-15,0.00523074,0.00523074,-0.00848756,0.0,0.0,0.0,0.00618892,0.0052444442044314865,0.0,0.0,0.0052444442044314865,0.0,-0.00845164235218665
27,0.015112,500.53,554.333,3.60878e-07,-9.31386e-34,1.68959e-15,3.75958e-15,0.00622503,0.00622503,-0.010419,0.0,0.0,0.0,0.00785915,0.006244445766251383,0.0,0.0,0.006244445766251383,0.0,-0.010364910236240088
28,0.017532,512.15,568.779,1.50759e-07,-3.25357e-34,-4.16033e-15,-5.40932e-15,0.00721833,0.00721833,-0.0123554,0.0,0.0,0.0,0.00953869,0.007244444941601369,0.0,0.0,0.007244444941601369,0.0,-0.01227938543095819
29,0.019952,522.718,581.504,-7.0637e-08,-1.96437e-34,1.03027e-16,1.9146e-15,0.00821065,0.00821065,-0.0142952,0.0,0.0,0.0,0.0112249,0.008244449829572176,0.0,0.0,0.008244449829572176,0.0,-0.014193508770663166
30,0.022372,532.397,592.911,-3.63787e-07,4.79589e-34,-5.16907e-15,-4.00505e-15,0.00920198,0.00920198,-0.0162373,0.0,0.0,0.0,0.0129162,0.009244448382409898,0.0,0.0,0.009244448382409898,0.0,-0.01610618565121602
31,0.024792,541.318,603.276,-6.81464e-07,3.42643e-34,-5.02492e-16,1.95278e-16,0.0101923,0.0101923,-0.0181808,0.0,0.0,0.0,0.0146111,0.010244418407964417,0.0,0.0,0.010244418407964417,0.0,-0.018016526304562852
32,0.027212,549.587,612.793,-9.89879e-07,3.2438e-34,-2.99975e-16,1.17453e-16,0.0111817,0.0111817,-0.0201253,0.0,0.0,0.0,0.0163089,0.011244448869027979,0.0,0.0,0.011244448869027979,0.0,-0.019924137892727734
33,0.029632,557.293,621.606,-1.27304e-06,-2.57186e-35,-2.83512e-15,2.68194e-15,0.0121701,0.0121701,-0.0220703,0.0,0.0,0.0,0.0180087,0.012244457004898734,0.0,0.0,0.012244457004898734,0.0,-0.021828532820095115
34,0.032052,564.509,629.821,-1.52556e-06,-2.37257e-35,-1.73745e-15,1.62139e-15,0.0131575,0.0131575,-0.0240154,0.0,0.0,0.0,0.0197101,0.013244440792496093,0.0,0.0,0.013244440792496093,0.0,-0.02372932492625357
35,0.034472,571.294,637.523,-1.74733e-06,-2.43899e-34,-1.06329e-15,3.61668e-15,0.0141439,0.0141439,-0.0259604,0.0,0.0,0.0,0.0214126,0.014244398206812336,0.0,0.0,0.014244398206812336,0.0,-0.025626325957735396
36,0.036892,577.698,644.777,-1.94058e-06,-2.3014e-34,-6.47235e-16,2.20043e-15,0.0151294,0.0151294,-0.0279051,0.0,0.0,0.0,0.0231158,0.015244428745356142,0.0,0.0,0.015244428745356142,0.0,-0.027519349163935503
37,0.039312,583.764,651.637,-2.10839e-06,-2.17194e-34,-3.89284e-16,1.33797e-15,0.0161139,0.0161139,-0.0298492,0.0,0.0,0.0,0.0248196,0.016244429054838472,0.0,0.0,0.016244429054838472,0.0,-0.02940811223020179
38,0.041732,589.527,658.147,-2.25394e-06,1.73876e-35,-2.28645e-16,-1.85617e-15,0.0170975,0.0170975,-0.0317926,0.0,0.0,0.0,0.0265236,0.017244498828943522,0.0,0.0,0.017244498828943522,0.0,-0.03129252882420008
39,0.044152,595.018,664.344,-2.38022e-06,2.39667e-34,-1.28171e-16,-3.83411e-15,0.01808,0.01808,-0.0337352,0.0,0.0,0.0,0.0282276,0.01824443268611331,0.0,0.0,0.01824443268611331,0.0,-0.03317251333754101
40,0.046572,600.262,670.259,-2.48988e-06,2.28509e-34,2.66666e-15,2.98653e-15,0.0190616,0.0190616,-0.0356769,0.0,0.0,0.0,0.0299315,0.019244432140675505,0.0,0.0,0.019244432140675505,0.0,-0.03504798088148808
41,0.048992,605.282,675.917,-2.58524e-06,3.29329e-34,1.7e-15,-8.468e-16,0.0200423,0.0200423,-0.0376177,0.0,0.0,0.0,0.0316352,0.02024449545617002,0.0,0.0,0.02024449545617002,0.0,-0.036918943590699915
42,0.051412,610.098,681.343,-2.66829e-06,3.13677e-34,1.0899e-15,-5.37713e-16,0.0210219,0.0210219,-0.0395573,0.0,0.0,0.0,0.0333385,0.02124441664535559,0.0,0.0,0.02124441664535559,0.0,-0.03878512519973165
43,0.053832,614.727,686.556,-2.7407e-06,1.87471e-34,7.03648e-16,2.36474e-15,0.0220006,0.0220006,-0.0414958,0.0,0.0,0.0,0.0350412,0.022244397816892914,0.0,0.0,0.022244397816892914,0.0,-0.04064663538285762
44,0.056252,619.183,691.572,-2.80393e-06,1.40724e-33,-5.06945e-15,-6.68108e-15,0.0229784,0.0229784,-0.0434331,0.0,0.0,0.0,0.0367434,0.02324443722866909,0.0,0.0,0.02324443722866909,0.0,-0.04250339152856919
45,0.058672,623.48,696.408,-2.85919e-06,1.33943e-33,-3.22852e-15,-4.20767e-15,0.0239552,0.0239552,-0.0453691,0.0,0.0,0.0,0.038445,0.024244430712260456,0.0,0.0,0.024244430712260456,0.0,-0.0443553117253882
46,0.061092,627.629,701.077,-2.90751e-06,1.05251e-33,7.25752e-16,7.83484e-17,0.0249311,0.0249311,-0.0473038,0.0,0.0,0.0,0.0401457,0.02524447874626201,0.0,0.0,0.02524447874626201,0.0,-0.04620241013699411
47,0.063512,631.641,705.59,-2.94977e-06,1.00318e-33,4.84251e-16,4.96906e-17,0.025906,0.025906,-0.0492372,0.0,0.0,0.0,0.0418457,0.026244476958517948,0.0,0.0,0.026244476958517948,0.0,-0.048044700880893965
48,0.065932,635.526,709.958,-2.98674e-06,7.33232e-34,3.29281e-16,2.77743e-15,0.0268799,0.0268799,-0.0511692,0.0,0.0,0.0,0.0435448,0.02724442329946286,0.0,0.0,0.02724442329946286,0.0,-0.049882103016801294
49,0.068352,639.291,714.192,-3.01904e-06,1.0352e-33,-2.56842e-15,-9.90361e-16,0.0278529,0.0278529,-0.0530998,0.0,0.0,0.0,0.045243,0.028244418542125116,0.0,0.0,0.028244418542125116,0.0,-0.05171463112015329
50,0.070772,642.944,718.299,-3.04724e-06,6.52527e-34,-1.64316e-15,2.12602e-15,0.028825,0.028825,-0.055029,0.0,0.0,0.0,0.0469402,0.02924446093324229,0.0,0.0,0.02924446093324229,0.0,-0.053542299717813546
51,0.073192,646.493,722.287,-3.07181e-06,6.23645e-34,-1.04466e-15,1.35288e-15,0.0297961,0.0297961,-0.0569567,0.0,0.0,0.0,0.0486365,0.030244445693269784,0.0,0.0,0.030244445693269784,0.0,-0.05536502882475525
52,0.075612,649.943,726.164,-3.09316e-06,2.61025e-34,-6.56603e-16,3.63042e-15,0.0307663,0.0307663,-0.058883,0.0,0.0,0.0,0.0503317,0.03124447388971663,0.0,0.0,0.03124447388971663,0.0,-0.0571829276983008
53,0.078032,653.3,729.936,-3.11164e-06,2.5116e-34,-4.04417e-16,2.31762e-15,0.0317355,0.0317355,-0.0608077,0.0,0.0,0.0,0.0520258,0.032244440539372476,0.0,0.0,0.032244440539372476,0.0,-0.05899582251837854
54,0.080452,656.569,733.609,-3.12758e-06,2.41801e-34,-2.40144e-16,1.4767e-15,0.0327038,0.0327038,-0.0627309,0.0,0.0,0.0,0.0537188,0.03324444690609507,0.0,0.0,0.03324444690609507,0.0,-0.06080382262234074
55,0.082872,659.755,737.188,-3.14123e-06,-5.50182e-34,-2.96558e-15,3.72433e-15,0.0336712,0.0336712,-0.0646526,0.0,0.0,0.0,0.0554107,0.03424449122747819,0.0,0.0,0.03424449122747819,0.0,-0.0626069428334527
56,0.085292,662.862,740.679,-3.15284e-06,1.49973e-34,3.76014e-15,5.17676e-15,0.0346376,0.0346376,-0.0665728,0.0,0.0,0.0,0.0571015,0.03524446821485494,0.0,0.0,0.03524446821485494,0.0,-0.06440519792457178
57,0.087712,665.895,744.085,-3.16261e-06,1.46238e-34,-3.51448e-16,5.23293e-16,0.0356031,0.0356031,-0.0684913,0.0,0.0,0.0,0.058791,0.03624447942664566,0.0,0.0,0.03624447942664566,0.0,-0.06619841585803476
58,0.090132,668.857,747.411,-3.17073e-06,-1.93014e-34,-2.07064e-16,3.11838e-15,0.0365676,0.0365676,-0.0704084,0.0,0.0,0.0,0.0604794,0.037244419370573656,0.0,0.0,0.037244419370573656,0.0,-0.06798689198344199
59,0.092552,671.752,750.661,-3.17736e-06,-2.91946e-34,-5.81808e-15,-8.13044e-16,0.0375313,0.0375313,-0.0723238,0.0,0.0,0.0,0.0621666,0.038244493625901876,0.0,0.0,0.038244493625901876,0.0,-0.06977036131669667
60,0.094972,674.582,753.839,-3.18263e-06,3.97051e-34,-9.50644e-16,-3.36676e-15,0.038494,0.038494,-0.0742376,0.0,0.0,0.0,0.0638525,0.03924449287232035,0.0,0.0,0.03924449287232035,0.0,-0.07154893234174098
61,0.097392,677.351,756.948,-3.18669e-06,3.82688e-34,2.26545e-15,6.0502e-16,0.0394557,0.0394557,-0.0761498,0.0,0.0,0.0,0.0655372,0.04024441503662213,0.0,0.0,0.04024441503662213,0.0,-0.07332262010998336
62,0.099812,680.062,759.99,-3.18964e-06,1.26632e-33,-4.20555e-15,-5.27366e-15,0.0404166,0.0404166,-0.0780605,0.0,0.0,0.0,0.0672206,0.041244466292708726,0.0,0.0,0.041244466292708726,0.0,-0.07509153211150021
63,0.1022,682.717,762.97,-3.19158e-06,6.53874e-34,1.16797e-16,2.19397e-15,0.0413765,0.0413765,-0.0799695,0.0,0.0,0.0,0.0689028,0.042244436714925504,0.0,0.0,0.042244436714925504,0.0,-0.07685549813543058
64,0.1047,685.318,765.889,-3.1926e-06,1.75142e-33,-5.64113e-15,-4.24888e-15,0.0423355,0.0423355,-0.0818769,0.0,0.0,0.0,0.0705836,0.043244428549180425,0.0,0.0,0.043244428549180425,0.0,-0.07861462574495126
65,0.1071,687.867,768.751,-3.19279e-06,1.67851e-33,-3.71231e-15,-2.79778e-15,0.0432936,0.0432936,-0.0837826,0.0,0.0,0.0,0.0722632,0.044244440015168696,0.0,0.0,0.044244440015168696,0.0,-0.08036883782079629
66,0.1095,690.368,771.557,-3.19221e-06,9.3648e-34,-2.42963e-15,9.92213e-16,0.0442508,0.0442508,-0.0856868,0.0,0.0,0.0,0.0739414,0.04524446933082715,0.0,0.0,0.04524446933082715,0.0,-0.08211833325657747
67,0.1119,692.821,774.31,-3.19093e-06,9.0065e-34,-1.57529e-15,6.37092e-16,0.045207,0.045207,-0.0875892,0.0,0.0,0.0,0.0756184,0.046244410087888266,0.0,0.0,0.046244410087888266,0.0,-0.0838628514275701
68,0.1143,695.229,777.012,-3.18902e-06,1.94356e-34,1.88745e-15,6.10068e-15,0.0461624,0.0461624,-0.0894901,0.0,0.0,0.0,0.077294,0.04724446964966855,0.0,0.0,0.04724446964966855,0.0,-0.08560268238706092
69,0.1168,697.593,779.664,-3.18652e-06,1.92605e-34,1.30735e-15,3.99642e-15,0.0471168,0.0471168,-0.0913893,0.0,0.0,0.0,0.0789682,0.048244436879960606,0.0,0.0,0.048244436879960606,0.0,-0.0873376577185977
70,0.1192,699.916,782.27,-3.18348e-06,1.90954e-34,9.1949e-16,2.61039e-15,0.0480703,0.0480703,-0.0932868,0.0,0.0,0.0,0.0806412,0.04924441461414841,0.0,0.0,0.04924441461414841,0.0,-0.08906779252856212
71,0.1216,702.197,784.83,-3.17995e-06,1.89399e-34,6.59846e-16,1.69609e-15,0.0490229,0.0490229,-0.0951827,0.0,0.0,0.0,0.0823127,0.05024440106143513,0.0,0.0,0.05024440106143513,0.0,-0.09079319279070852
72,0.124,704.44,787.346,-3.16897e-06,-2.60895e-34,-2.42263e-15,1.09208e-15,0.0499747,0.0499747,-0.097077,0.0,0.0,0.0,0.0839829,0.05124449955373711,0.0,0.0,0.05124449955373711,0.0,-0.09251387298881886
73,0.1264,706.645,789.819,-3.16472e-06,-3.38601e-33,-7.40807e-15,6.42875e-15,0.0509255,0.0509255,-0.0989696,0.0,0.0,0.0,0.0856518,0.052244498147909324,0.0,0.0,0.052244498147909324,0.0,-0.09422975697959768
74,0.1289,708.814,792.252,-3.16009e-06,-2.55755e-33,-2.01885e-15,4.22546e-15,0.0518753,0.0518753,-0.100861,0.0,0.0,0.0,0.0873193,0.05324439474797682,0.0,0.0,0.05324439474797682,0.0,-0.09594131168971509
75,0.1313,710.948,794.646,-3.1551e-06,-1.76547e-33,1.61309e-15,2.76405e-15,0.0528243,0.0528243,-0.10275,0.0,0.0,0.0,0.0889854,0.05424439810513504,0.0,0.0,0.05424439810513504,0.0,-0.09764746658129586
76,0.1337,713.048,797.001,-3.14977e-06,-2.35536e-33,1.14157e-15,4.67263e-15,0.0537724,0.0537724,-0.104637,0.0,0.0,0.0,0.0906501,0.05524440119553553,0.0,0.0,0.05524440119553553,0.0,-0.09934860028742643
77,0.1361,715.116,799.32,-3.14414e-06,-2.13325e-33,-2.10326e-15,1.78529e-16,0.0547196,0.0547196,-0.106523,0.0,0.0,0.0,0.0923135,0.05624440221806659,0.0,0.0,0.05624440221806659,0.0,-0.10104562802709915
78,0.1385,717.151,801.602,-3.13823e-06,-2.81933e-33,-1.36861e-15,2.95649e-15,0.0556659,0.0556659,-0.108408,0.0,0.0,0.0,0.0939755,0.057244399369914545,0.0,0.0,0.057244399369914545,0.0,-0.10273856092772837
79,0.141,719.156,803.851,-3.13205e-06,-3.47581e-33,-8.71297e-16,4.81051e-15,0.0566114,0.0566114,-0.11029,0.0,0.0,0.0,0.0956361,0.05824449667101317,0.0,0.0,0.05824449667101317,0.0,-0.10442561893652347
80,0.1434,721.131,806.066,-3.12564e-06,-1.74478e-33,-5.34198e-16,-2.62979e-15,0.0575559,0.0575559,-0.112171,0.0,0.0,0.0,0.0972953,0.05924448076626909,0.0,0.0,0.05924448076626909,0.0,-0.10610861099704627
81,0.1458,723.078,808.248,-3.119e-06,-3.34698e-33,-3.24566e-15,1.08383e-15,0.0584995,0.0584995,-0.114051,0.0,0.0,0.0,0.0989531,0.06024445557223701,0.0,0.0,0.06024445557223701,0.0,-0.10778754811297997
82,0.1482,724.996,810.399,-3.11216e-06,-4.09398e-33,-2.14529e-15,3.57026e-15,0.0594422,0.0594422,-0.115928,0.0,0.0,0.0,0.100609,0.06124441927934421,0.0,0.0,0.06124441927934421,0.0,-0.10946066017828271
83,0.1506,726.887,812.52,-3.10512e-06,-3.91e-33,-1.39699e-15,2.33417e-15,0.0603841,0.0603841,-0.117804,0.0,0.0,0.0,0.102264,0.062244476300782114,0.0,0.0,0.062244476300782114,0.0,-0.11112974588788105
84,0.1531,728.752,814.611,-3.09791e-06,-3.7339e-33,-8.87494e-16,1.50506e-15,0.061325,0.061325,-0.119678,0.0,0.0,0.0,0.103918,0.06324441247473667,0.0,0.0,0.06324441247473667,0.0,-0.11279392891755469
85,0.1555,730.592,816.673,-3.09053e-06,-5.5893e-33,-3.49333e-15,3.85799e-15,0.0622651,0.0622651,-0.121551,0.0,0.0,0.0,0.10557,0.06424443853550321,0.0,0.0,0.06424443853550321,0.0,-0.11445411064316191
86,0.1579,732.406,818.708,-3.08301e-06,-2.75685e-33,6.40329e-16,-3.29794e-15,0.0632043,0.0632043,-0.123422,0.0,0.0,0.0,0.107221,0.06524444644238003,0.0,0.0,0.06524444644238003,0.0,-0.11610941797924912
87,0.1603,734.197,820.715,-3.07535e-06,-6.22891e-33,5.05376e-16,9.38028e-15,0.0641426,0.0641426,-0.125291,0.0,0.0,0.0,0.10887,0.06624443437745042,0.0,0.0,0.06624443437745042,0.0,-0.11775986665232074
88,0.1627,735.964,822.696,-3.06755e-06,-5.05625e-33,4.13276e-16,3.32999e-15,0.06508,0.06508,-0.127159,0.0,0.0,0.0,0.110518,0.06724440052114344,0.0,0.0,0.06724440052114344,0.0,-0.119406352924462
89,0.1652,737.708,824.651,-3.05964e-06,-3.03289e-33,3.50404e-16,-3.67369e-15,0.0660166,0.0660166,-0.129025,0.0,0.0,0.0,0.112165,0.06824444987667944,0.0,0.0,0.06824444987667944,0.0,-0.12104800852887843
90,0.1676,739.429,826.581,-3.05162e-06,-3.34346e-33,3.27589e-15,3.29681e-15,0.0669523,0.0669523,-0.130889,0.0,0.0,0.0,0.11381,0.0692444739967506,0.0,0.0,0.0692444739967506,0.0,-0.12268484903169896
91,0.17,741.13,828.487,-3.0435e-06,-5.3291e-33,-6.59485e-16,5.08106e-15,0.0678871,0.0678871,-0.132752,0.0,0.0,0.0,0.115454,0.07024447105684795,0.0,0.0,0.07024447105684795,0.0,-0.12431776562385766
92,0.1724,742.809,830.369,-3.03528e-06,-2.50672e-33,2.58683e-15,-2.50468e-15,0.068821,0.068821,-0.134613,0.0,0.0,0.0,0.117096,0.07124443923082846,0.0,0.0,0.07124443923082846,0.0,-0.12594589481792196
93,0.1748,744.467,832.228,-3.02698e-06,-5.42898e-33,-1.13581e-15,4.09286e-15,0.0697541,0.0697541,-0.136472,0.0,0.0,0.0,0.118737,0.07224448391536265,0.0,0.0,0.07224448391536265,0.0,-0.1275692520214241
94,0.1773,746.106,834.065,-3.0186e-06,-4.17788e-33,-3.69685e-15,-3.18142e-15,0.0706863,0.0706863,-0.13833,0.0,0.0,0.0,0.120377,0.07324449625660368,0.0,0.0,0.07324449625660368,0.0,-0.129188723396371
95,0.1797,747.725,835.88,-3.01015e-06,-5.34131e-33,5.04958e-16,6.58027e-15,0.0716176,0.0716176,-0.140186,0.0,0.0,0.0,0.122015,0.07424447442352577,0.0,0.0,0.07424447442352577,0.0,-0.1308034501957519
96,0.1821,749.325,837.673,-3.00163e-06,-5.10469e-33,-5.55536e-15,-1.50108e-15,0.072548,0.072548,-0.14204,0.0,0.0,0.0,0.123652,0.07524441658348935,0.0,0.0,0.07524441658348935,0.0,-0.13241344767025753
97,0.1845,750.906,839.445,-2.99305e-06,-4.65224e-33,-7.71647e-16,1.83969e-15,0.0734776,0.0734776,-0.143893,0.0,0.0,0.0,0.125287,0.07624442852668256,0.0,0.0,0.07624442852668256,0.0,-0.13401959699480137
98,0.1869,752.47,841.198,-2.98442e-06,-4.44346e-33,-4.59288e-16,1.16527e-15,0.0744063,0.0744063,-0.145744,0.0,0.0,0.0,0.126921,0.07724440099279839,0.0,0.0,0.07724440099279839,0.0,-0.13562104412420573
99,0.1894,754.015,842.93,-2.97573e-06,-5.25673e-33,-2.43281e-16,3.65664e-15,0.0753342,0.0753342,-0.147594,0.0,0.0,0.0,0.128553,0.07824443996881003,0.0,0.0,0.07824443996881003,0.0,-0.13721866693582008
100,0.1918,755.544,844.643,-2.967e-06,-6.3748e-33,-3.09009e-15,2.4018e-15,0.0762612,0.0762612,-0.149441,0.0,0.0,0.0,0.130184,0.07924443599120679,0.0,0.0,0.07924443599120679,0.0,-0.1388107533136148
101,0.1942,757.055,846.336,-2.95823e-06,-6.5457e-33,9.36946e-16,7.45794e-15,0.0771874,0.0771874,-0.151288,0.0,0.0,0.0,0.131814,0.08024449524377042,0.0,0.0,0.08024449524377042,0.0,-0.14039990182182782
102,0.1966,758.55,848.012,-2.94942e-06,-6.25899e-33,7.26112e-16,4.99388e-15,0.0781126,0.0781126,-0.153132,0.0,0.0,0.0,0.133442,0.08124439993535426,0.0,0.0,0.08124439993535426,0.0,-0.14198354383618805
103,0.199,760.029,849.669,-2.94058e-06,-5.98379e-33,5.80034e-16,3.30896e-15,0.0790371,0.0790371,-0.154975,0.0,0.0,0.0,0.135069,0.0822444725954512,0.0,0.0,0.0822444725954512,0.0,-0.14356341186931743
104,0.2015,761.492,851.308,-2.93171e-06,-4.70545e-33,4.78777e-16,-8.08557e-16,0.0799607,0.0799607,-0.156816,0.0,0.0,0.0,0.136694,0.08324449532975087,0.0,0.0,0.08324449532975087,0.0,-0.14513866116617458
105,0.2039,762.939,852.93,-2.92281e-06,-5.50683e-33,4.08569e-16,2.30466e-15,0.0808834,0.0808834,-0.158656,0.0,0.0,0.0,0.138318,0.08424446629124893,0.0,0.0,0.08424446629124893,0.0,-0.14671015980750668
106,0.2063,764.372,854.535,-2.91388e-06,-6.27606e-33,3.59889e-16,4.43864e-15,0.0818053,0.0818053,-0.160493,0.0,0.0,0.0,0.139941,0.0852444921558182,0.0,0.0,0.0852444921558182,0.0,-0.14827621438241678
107,0.2087,765.789,856.124,-2.90494e-06,-5.21037e-33,-2.68815e-15,-3.01327e-15,0.0827263,0.0827263,-0.16233,0.0,0.0,0.0,0.141562,0.08624446274886743,0.0,0.0,0.08624446274886743,0.0,-0.14983939475583496
108,0.2111,767.192,857.696,-2.89598e-06,-4.97616e-33,-1.79405e-15,-2.18173e-15,0.0836465,0.0836465,-0.164164,0.0,0.0,0.0,0.143182,0.08724448494313486,0.0,0.0,0.08724448494313486,0.0,-0.1513971603981229
109,0.2136,768.581,859.253,-2.887e-06,-1.02764e-32,-4.18986e-15,7.32039e-15,0.0845658,0.0845658,-0.165997,0.0,0.0,0.0,0.1448,0.08824444836090461,0.0,0.0,0.08824444836090461,0.0,-0.15295122466808597
110,0.216,769.957,860.794,-2.87801e-06,-7.02302e-33,1.82412e-16,1.93831e-15,0.0854843,0.0854843,-0.167829,0.0,0.0,0.0,0.146417,0.08924446007179787,0.0,0.0,0.08924446007179787,0.0,-0.15450159744940994
111,0.2184,771.318,862.319,-2.86901e-06,-5.58966e-33,2.11012e-16,-1.76704e-15,0.0864019,0.0864019,-0.169658,0.0,0.0,0.0,0.148033,0.09024440949499302,0.0,0.0,0.09024440949499302,0.0,-0.15604660069150944
112,0.2208,772.666,863.83,-2.86001e-06,-5.34047e-33,2.31141e-16,-1.33578e-15,0.0873187,0.0873187,-0.171487,0.0,0.0,0.0,0.149647,0.09124440389700861,0.0,0.0,0.09124440389700861,0.0,-0.15758878070530835
113,0.2232,774.002,865.326,-2.851e-06,-3.97312e-33,2.45359e-16,-4.02523e-15,0.0882347,0.0882347,-0.173313,0.0,0.0,0.0,0.15126,0.09224444171837654,0.0,0.0,0.09224444171837654,0.0,-0.1591256200304162
114,0.2257,775.324,866.808,-2.84198e-06,-7.17121e-33,2.5545e-16,6.07506e-15,0.0891498,0.0891498,-0.175138,0.0,0.0,0.0,0.152871,0.09324441207364731,0.0,0.0,0.09324441207364731,0.0,-0.16065881630671663
115,0.2281,776.634,868.275,-2.83296e-06,-8.66459e-33,-2.77078e-15,4.07567e-15,0.0900641,0.0900641,-0.176961,0.0,0.0,0.0,0.154481,0.09424442252472098,0.0,0.0,0.09424442252472098,0.0,-0.16218754142826985
116,0.2305,777.932,869.729,-2.82394e-06,-8.29435e-33,-1.85565e-15,2.69329e-15,0.0909776,0.0909776,-0.178783,0.0,0.0,0.0,0.156089,0.0952444715075269,0.0,0.0,0.0952444715075269,0.0,-0.16371264593567592
117,0.2329,779.217,871.169,-2.81492e-06,-7.93839e-33,-1.21351e-15,1.73668e-15,0.0918902,0.0918902,-0.180603,0.0,0.0,0.0,0.157697,0.09624444783201991,0.0,0.0,0.09624444783201991,0.0,-0.1652333047008443
118,0.2353,780.491,872.596,-2.80591e-06,-7.59611e-33,-7.62537e-16,1.07413e-15,0.092802,0.092802,-0.182421,0.0,0.0,0.0,0.159302,0.09724445935552417,0.0,0.0,0.09724445935552417,0.0,-0.16674953188477815
119,0.2378,781.753,874.011,-2.7969e-06,-7.26694e-33,-4.45545e-16,6.14827e-16,0.0937129,0.0937129,-0.184238,0.0,0.0,0.0,0.160907,0.09824439468495627,0.0,0.0,0.09824439468495627,0.0,-0.16826217333442228
120,0.2402,783.004,875.412,-2.78789e-06,-6.16003e-33,2.82225e-15,3.29906e-15,0.0946231,0.0946231,-0.186053,0.0,0.0,0.0,0.16251,0.09924447179904927,0.0,0.0,0.09924447179904927,0.0,-0.16977040835250257
121,0.242,783.941,876.462,-1.17982e-06,-5.95092e-33,2.2127e-15,2.36542e-15,0.0953102,0.0953102,-0.187423,0.0,0.0,0.0,0.16372,0.10000002221524285,0.0,0.0,0.10000002221524285,0.0,-0.17090704411977975
