,Time,S11,S22,S33,S12,S13,S23,LE11,LE22,LE33,LE12,LE13,LE23,SDV_EPBAR,E11,E12,E13,E22,E23,E33
0,2.42e-07,0.029678,0.029678,1.04083e-17,0.0,0.0,0.0,1e-07,1e-07,-8.57143e-08,0.0,0.0,0.0,0.0,1.0000000494336803e-07,0.0,0.0,1.0000000494336803e-07,0.0,-8.571429632731054e-08
1,4.84e-07,0.059356,0.059356,3.46945e-18,0.0,0.0,0.0,2e-07,2e-07,-1.71429e-07,0.0,0.0,0.0,0.0,2.0000002010078788e-07,0.0,0.0,2.0000002010078788e-07,0.0,-1.7142898534050488e-07
2,8.47e-07,0.103873,0.103873,3.46945e-18,0.0,0.0,0.0,3.5e-07,3.5e-07,-3e-07,0.0,0.0,0.0,0.0,3.5000006115559756e-07,0.0,0.0,3.5000006115559756e-07,0.0,-2.9999995498908305e-07
3,1.3915e-06,0.170648,0.170648,-1.73472e-17,0.0,0.0,0.0,5.75e-07,5.75e-07,-4.92857e-07,0.0,0.0,0.0,0.0,5.750001652593539e-07,0.0,0.0,5.750001652593539e-07,0.0,-4.928568785311782e-07
4,2.2083e-06,0.270812,0.270812,-3.46945e-18,0.0,0.0,0.0,9.125e-07,9.125e-07,-7.82142e-07,0.0,0.0,0.0,0.0,9.125004163390571e-07,0.0,0.0,9.125004163390571e-07,0.0,-7.821416940778647e-07
5,3.4334e-06,0.421056,0.421056,5.20417e-17,0.0,0.0,0.0,1.41875e-06,1.41875e-06,-1.21607e-06,0.0,0.0,0.0,0.0,1.4187510064544995e-06,0.0,0.0,1.4187510064544995e-06,0.0,-1.2160692606233425e-06
6,5.2711e-06,0.646423,0.646423,2.42861e-17,0.0,0.0,0.0,2.17812e-06,2.17812e-06,-1.86696e-06,0.0,0.0,0.0,0.0,2.178122372020752e-06,0.0,0.0,2.178122372020752e-06,0.0,-1.8669582572128363e-06
7,8.0276e-06,0.984473,0.984473,1.35308e-16,0.0,0.0,0.0,3.31718e-06,3.31718e-06,-2.8433e-06,0.0,0.0,0.0,0.0,3.317185501838793e-06,0.0,0.0,3.317185501838793e-06,0.0,-2.8432959577884276e-06
8,1.2162e-05,1.49155,1.49155,4.68375e-16,0.0,0.0,0.0,5.02577e-06,5.02577e-06,-4.3078e-06,0.0,0.0,0.0,0.0,5.025782629175524e-06,0.0,0.0,5.025782629175524e-06,0.0,-4.307790721469473e-06
9,1.8365e-05,2.25216,2.25216,3.57353e-16,0.0,0.0,0.0,7.58864e-06,7.58864e-06,-6.50455e-06,0.0,0.0,0.0,0.0,7.5886687938009345e-06,0.0,0.0,7.5886687938009345e-06,0.0,-6.50452884543018e-06
10,2.7668e-05,3.39307,3.39307,-3.08781e-16,0.0,0.0,0.0,1.14329e-05,1.14329e-05,-9.79967e-06,0.0,0.0,0.0,0.0,1.1432965355773206e-05,0.0,0.0,1.1432965355773206e-05,0.0,-9.799621983441753e-06
11,4.1623e-05,5.10443,5.10443,-7.5287e-16,0.0,0.0,-1.23207e-38,1.71994e-05,1.71994e-05,-1.47423e-05,0.0,0.0,0.0,0.0,1.7199547910573543e-05,0.0,0.0,1.7199547910573543e-05,0.0,-1.4742191332794974e-05
12,6.2555e-05,7.67145,7.67145,-1.64105e-15,0.0,0.0,-2.77213e-38,2.58489e-05,2.58489e-05,-2.21562e-05,0.0,0.0,0.0,0.0,2.5849234085661976e-05,0.0,0.0,2.5849234085661976e-05,0.0,-2.2155954553237933e-05
13,9.3954e-05,11.5219,11.5219,-8.30239e-15,0.0,0.0,-6.23724e-38,3.88231e-05,3.88231e-05,-3.3277e-05,0.0,0.0,0.0,0.0,3.882385362641294e-05,0.0,0.0,3.882385362641294e-05,0.0,-3.327644632677984e-05
14,0.00014105,17.2976,17.2976,-4.47177e-14,0.0,0.0,-1.40336e-37,5.82842e-05,5.82842e-05,-4.99578e-05,0.0,0.0,0.0,0.0,5.828589855694233e-05,0.0,0.0,5.828589855694233e-05,0.0,-4.995655212991501e-05
15,0.0002117,25.9608,25.9608,-2.25018e-13,0.0,0.0,-3.1575e-37,8.7475e-05,8.7475e-05,-7.49785e-05,0.0,0.0,0.0,0.0,8.747882604942525e-05,0.0,0.0,8.747882604942525e-05,0.0,-7.4975689182466e-05
16,0.00031767,38.9552,38.9552,-1.14339e-12,0.0,0.0,-7.10416e-37,0.00013126,0.00013126,-0.000112508,0.0,0.0,0.0,0.0,0.0001312686149708142,0.0,0.0,0.0001312686149708142,0.0,-0.00011250167121223953
17,0.00047662,58.4457,58.4457,-5.85252e-12,0.0,0.0,-1.59836e-36,0.000196933,0.000196933,-0.0001688,0.0,0.0,0.0,0.0,0.00019695239257622177,0.0,0.0,0.00019695239257622177,0.0,-0.00016878575408152408
18,0.00071506,87.6791,87.6791,-2.95989e-11,0.0,0.0,-3.59607e-36,0.000295435,0.000295435,-0.00025323,0.0,0.0,0.0,0.0,0.00029547864521761724,0.0,0.0,0.00029547864521761724,0.0,-0.00025319793998968
19,0.0010727,131.524,131.524,-1.49709e-10,0.0,0.0,-8.09034e-36,0.000443169,0.000443169,-0.000379859,0.0,0.0,0.0,0.0,0.0004432672138892091,0.0,0.0,0.0004432672138892091,0.0,-0.0003797868627043455
20,0.0016092,197.279,197.279,-7.57628e-10,0.0,0.0,-1.82005e-35,0.00066473,0.00066473,-0.000569769,0.0,0.0,0.0,0.0,0.0006649509819482979,0.0,0.0,0.0006649509819482979,0.0,-0.0005696067124669746
21,0.0024139,295.884,295.884,-3.83263e-09,0.0,0.0,-4.09417e-35,0.00099698,0.00099698,-0.000854554,0.0,0.0,0.0,0.0,0.0009974771497625046,0.0,0.0,0.0009974771497625046,0.0,-0.0008541889727163854
22,0.003621,417.78,413.984,0.00884899,0.0,0.0,1.79281e-32,0.00149515,0.00149515,-0.00138878,0.0,0.0,0.0,0.000162719,0.0014962682940309335,0.0,0.0,0.0014962682940309335,0.0,-0.0013878160913264326
23,0.0054316,450.664,431.413,0.119676,0.0,0.0,-5.46986e-15,0.00224193,0.00224193,-0.00278526,0.0,0.0,0.0,0.00131169,0.0022444450041991804,0.0,0.0,0.0022444450041991804,0.0,-0.002781384762049477
24,0.0078516,481.683,451.101,9.15633e-05,4.43337e-34,2.50742e-15,4.2766e-15,0.0032392,0.0032392,-0.00468239,0.0,0.0,0.0,0.00289502,0.003244451877416177,0.0,0.0,0.003244451877416177,0.0,-0.004671444701992433
25,0.010272,505.106,467.964,1.10606e-05,8.61382e-34,3.9944e-15,4.93519e-15,0.00423547,0.00423547,-0.00659736,0.0,0.0,0.0,0.00450837,0.004244452279975608,0.0,0.0,0.004244452279975608,0.0,-0.006575645200207925
26,0.012692,523.901,482.703,1.36758e-06,5.9147e-34,-2.0694e-16,5.35692e-15,0.00523074,0.00523074,-0.00852334,0.0,0.0,0.0,0.00614032,0.0052444442044314865,0.0,0.0,0.0052444442044314865,0.0,-0.008487119317736491
27,0.015112,539.672,495.771,3.18508e-07,5.58729e-34,-1.31033e-16,3.11416e-15,0.00622503,0.00622503,-0.0104564,0.0,0.0,0.0,0.00778463,0.006244445766251383,0.0,0.0,0.006244445766251383,0.0,-0.010401921896475042
28,0.017532,553.326,507.482,1.25919e-07,8.43908e-35,-2.68283e-15,4.36361e-15,0.00721833,0.00721833,-0.0123942,0.0,0.0,0.0,0.00943756,0.007244444941601369,0.0,0.0,0.007244444941601369,0.0,-0.012317708247336134
29,0.019952,565.418,518.075,-1.09921e-07,7.99904e-35,-1.62405e-15,2.56302e-15,0.00821065,0.00821065,-0.0143351,0.0,0.0,0.0,0.0110967,0.008244449829572176,0.0,0.0,0.008244449829572176,0.0,-0.014232841664966744
30,0.022372,576.303,527.739,-4.13275e-07,-5.90705e-34,-3.62019e-15,4.08586e-15,0.00920198,0.00920198,-0.0162782,0.0,0.0,0.0,0.0127605,0.009244448382409898,0.0,0.0,0.009244448382409898,0.0,-0.01614642608530048
31,0.024792,586.227,536.619,-7.35134e-07,-1.14938e-34,4.3582e-16,-1.78404e-16,0.0101923,0.0101923,-0.0182227,0.0,0.0,0.0,0.0144278,0.010244418407964417,0.0,0.0,0.010244418407964417,0.0,-0.018057670550132743
32,0.027212,595.36,544.836,-1.04382e-06,-1.0918e-34,2.68445e-16,-1.38695e-16,0.0111817,0.0111817,-0.020168,0.0,0.0,0.0,0.0160976,0.011244448869027979,0.0,0.0,0.011244448869027979,0.0,-0.019965986238571043
33,0.029632,603.833,552.482,-1.32511e-06,-1.03774e-34,1.66167e-16,-1.15248e-16,0.0121701,0.0121701,-0.0221138,0.0,0.0,0.0,0.0177694,0.012244457004898734,0.0,0.0,0.012244457004898734,0.0,-0.021871082353458138
34,0.032052,611.741,559.635,-1.57471e-06,-1.87998e-33,-1.06392e-14,-1.01459e-16,0.0131575,0.0131575,-0.0240596,0.0,0.0,0.0,0.0194426,0.013244440792496093,0.0,0.0,0.013244440792496093,0.0,-0.023772475136465188
35,0.034472,619.163,566.356,-1.79316e-06,-1.56056e-33,-3.91549e-15,2.55681e-15,0.0141439,0.0141439,-0.0260053,0.0,0.0,0.0,0.0211167,0.014244398206812336,0.0,0.0,0.014244398206812336,0.0,-0.02567007435354096
36,0.036892,626.158,572.699,-1.98303e-06,-1.03371e-33,-7.84752e-15,-3.78614e-15,0.0151294,0.0151294,-0.0279505,0.0,0.0,0.0,0.0227916,0.015244428745356142,0.0,0.0,0.015244428745356142,0.0,-0.02756349878327946
37,0.039312,632.777,578.704,-2.14758e-06,-9.79367e-34,-2.18115e-15,3.05983e-16,0.0161139,0.0161139,-0.0298952,0.0,0.0,0.0,0.0244669,0.016244429054838472,0.0,0.0,0.016244429054838472,0.0,-0.029452758430168702
38,0.041732,639.061,584.41,-2.29008e-06,-3.4301e-35,4.11065e-15,5.52174e-15,0.0170975,0.0170975,-0.0318392,0.0,0.0,0.0,0.0261424,0.017244498828943522,0.0,0.0,0.017244498828943522,0.0,-0.031337669540569935
39,0.044152,645.045,589.845,-2.41355e-06,1.95085e-34,-1.15901e-16,-1.98891e-15,0.01808,0.01808,-0.0337823,0.0,0.0,0.0,0.0278178,0.01824443268611331,0.0,0.0,0.01824443268611331,0.0,-0.033218049839769725
40,0.046572,650.758,595.035,-2.52065e-06,-4.7989e-34,-4.95434e-17,4.12504e-15,0.0190616,0.0190616,-0.0357246,0.0,0.0,0.0,0.0294931,0.019244432140675505,0.0,0.0,0.019244432140675505,0.0,-0.035094007995044474
41,0.048992,656.225,600.005,-2.61369e-06,-5.63335e-34,-2.76236e-15,-1.69184e-16,0.0200423,0.0200423,-0.0376657,0.0,0.0,0.0,0.0311681,0.02024449545617002,0.0,0.0,0.02024449545617002,0.0,-0.0369651703719559
42,0.051412,661.469,604.771,-2.69463e-06,-9.7806e-34,-1.73494e-15,2.57074e-15,0.0210219,0.0210219,-0.0396058,0.0,0.0,0.0,0.0328427,0.02124441664535559,0.0,0.0,0.02124441664535559,0.0,-0.03883174299066894
43,0.053832,666.507,609.353,-2.76514e-06,-2.54714e-34,-3.85167e-15,-3.87568e-15,0.0220006,0.0220006,-0.0415447,0.0,0.0,0.0,0.0345168,0.022244397816892914,0.0,0.0,0.022244397816892914,0.0,-0.04069354661539848
44,0.056252,671.356,613.764,-2.82665e-06,1.33055e-33,5.89822e-15,2.98098e-15,0.0229784,0.0229784,-0.0434824,0.0,0.0,0.0,0.0361903,0.02324443722866909,0.0,0.0,0.02324443722866909,0.0,-0.04255059494779301
45,0.058672,676.032,618.017,-2.88035e-06,-2.08217e-33,-1.7508e-15,1.00628e-14,0.0239552,0.0239552,-0.0454188,0.0,0.0,0.0,0.037863,0.024244430712260456,0.0,0.0,0.024244430712260456,0.0,-0.04440280608615077
46,0.061092,680.546,622.124,-2.92726e-06,-3.0099e-34,1.69326e-15,-1.91285e-15,0.0249311,0.0249311,-0.047354,0.0,0.0,0.0,0.0395351,0.02524447874626201,0.0,0.0,0.02524447874626201,0.0,-0.04625028957422128
47,0.063512,684.911,626.096,-2.96825e-06,-4.31277e-33,-7.27661e-15,4.23983e-15,0.025906,0.025906,-0.0492877,0.0,0.0,0.0,0.0412063,0.026244476958517948,0.0,0.0,0.026244476958517948,0.0,-0.048092773409657896
48,0.065932,689.136,629.941,-3.00405e-06,-1.6477e-33,9.33511e-16,-5.63593e-15,0.0268799,0.0268799,-0.0512201,0.0,0.0,0.0,0.0428766,0.02724442329946286,0.0,0.0,0.02724442329946286,0.0,-0.04993046278699109
49,0.068352,693.231,633.668,-3.03529e-06,-2.80169e-33,-2.17181e-15,-8.84026e-16,0.0278529,0.0278529,-0.053151,0.0,0.0,0.0,0.044546,0.028244418542125116,0.0,0.0,0.028244418542125116,0.0,-0.05176318208812447
50,0.070772,697.204,637.285,-3.06252e-06,-6.03251e-33,-7.01363e-15,4.93031e-15,0.028825,0.028825,-0.0550805,0.0,0.0,0.0,0.0462145,0.02924446093324229,0.0,0.0,0.02924446093324229,0.0,-0.053591041034278364
51,0.073192,701.063,640.798,-3.0862e-06,-3.7392e-33,-1.70484e-15,-2.45048e-15,0.0297961,0.0297961,-0.0570086,0.0,0.0,0.0,0.0478819,0.030244445693269784,0.0,0.0,0.030244445693269784,0.0,-0.05541405410754219
52,0.075612,704.814,644.214,-3.10674e-06,-3.34338e-33,1.7625e-15,1.15637e-15,0.0307663,0.0307663,-0.0589351,0.0,0.0,0.0,0.0495484,0.03124447388971663,0.0,0.0,0.03124447388971663,0.0,-0.05723204718819386
53,0.078032,708.464,647.537,-3.12448e-06,-3.1897e-33,-1.63757e-15,-2.10035e-15,0.0317355,0.0317355,-0.0608601,0.0,0.0,0.0,0.0512137,0.032244440539372476,0.0,0.0,0.032244440539372476,0.0,-0.05904512984541532
54,0.080452,712.018,650.774,-3.13973e-06,-3.71603e-33,-1.02796e-15,1.38786e-15,0.0327038,0.0327038,-0.0627837,0.0,0.0,0.0,0.052878,0.03324444690609507,0.0,0.0,0.03324444690609507,0.0,-0.060853410871364866
55,0.082872,715.481,653.928,-3.15275e-06,-5.22882e-33,-3.47507e-15,3.64543e-15,0.0336712,0.0336712,-0.0647056,0.0,0.0,0.0,0.0545411,0.03424449122747819,0.0,0.0,0.03424449122747819,0.0,-0.06265662334893707
56,0.085292,718.859,657.005,-3.16377e-06,-4.20687e-33,-2.23707e-15,-5.02822e-16,0.0346376,0.0346376,-0.066626,0.0,0.0,0.0,0.0562031,0.03524446821485494,0.0,0.0,0.03524446821485494,0.0,-0.06445497024408686
57,0.087712,722.156,660.008,-3.173e-06,-4.01602e-33,-1.42211e-15,-3.84368e-16,0.0356031,0.0356031,-0.0685449,0.0,0.0,0.0,0.057864,0.03624447942664566,0.0,0.0,0.03624447942664566,0.0,-0.06624846628158143
58,0.090132,725.375,662.941,-3.18061e-06,-5.29154e-33,1.97775e-15,1.09621e-14,0.0365676,0.0365676,-0.0704622,0.0,0.0,0.0,0.0595236,0.037244419370573656,0.0,0.0,0.037244419370573656,0.0,-0.06803703293984942
59,0.092552,728.522,665.807,-3.18677e-06,-4.1523e-33,-4.37175e-15,-1.39337e-15,0.0375313,0.0375313,-0.0723779,0.0,0.0,0.0,0.061182,0.038244493625901876,0.0,0.0,0.038244493625901876,0.0,-0.06982068537887132
60,0.094972,731.598,668.609,-3.19162e-06,-4.4098e-33,3.12469e-17,4.67713e-15,0.038494,0.038494,-0.0742919,0.0,0.0,0.0,0.0628393,0.03924449287232035,0.0,0.0,0.03924449287232035,0.0,-0.07159934586597516
61,0.097392,734.607,671.351,-3.19527e-06,-4.31919e-33,-2.79775e-15,1.53152e-16,0.0394557,0.0394557,-0.0762044,0.0,0.0,0.0,0.0644952,0.04024441503662213,0.0,0.0,0.04024441503662213,0.0,-0.07337321531366348
62,0.099812,737.553,674.035,-3.19784e-06,-3.10964e-33,1.08123e-15,2.70601e-17,0.0404166,0.0404166,-0.0781153,0.0,0.0,0.0,0.06615,0.041244466292708726,0.0,0.0,0.041244466292708726,0.0,-0.07514221570679736
63,0.1022,740.437,676.664,-3.19942e-06,-7.45824e-33,-4.99078e-15,5.62653e-15,0.0413765,0.0413765,-0.0800245,0.0,0.0,0.0,0.0678034,0.042244436714925504,0.0,0.0,0.042244436714925504,0.0,-0.07690626968680259
64,0.1047,743.264,679.239,-3.20011e-06,-3.53189e-33,2.51536e-15,-2.0742e-15,0.0423355,0.0423355,-0.0819321,0.0,0.0,0.0,0.0694556,0.043244428549180425,0.0,0.0,0.043244428549180425,0.0,-0.07866548481388702
65,0.1071,746.034,681.764,-3.19999e-06,-3.36965e-33,-1.15054e-15,-4.29231e-15,0.0432936,0.0432936,-0.0838381,0.0,0.0,0.0,0.0711065,0.044244440015168696,0.0,0.0,0.044244440015168696,0.0,-0.08041987593397648
66,0.1095,748.751,684.24,-3.19912e-06,-3.21449e-33,-7.05579e-16,-2.90207e-15,0.0442508,0.0442508,-0.0857425,0.0,0.0,0.0,0.0727562,0.04524446933082715,0.0,0.0,0.04524446933082715,0.0,-0.08216945784158203
67,0.1119,751.417,686.67,-3.19757e-06,-3.96541e-33,-4.07608e-16,8.72265e-16,0.045207,0.045207,-0.0876452,0.0,0.0,0.0,0.0744045,0.046244410087888266,0.0,0.0,0.046244410087888266,0.0,-0.08391415367141408
68,0.1143,754.033,689.054,-3.1954e-06,-4.79714e-33,-3.11447e-15,5.04309e-16,0.0461624,0.0461624,-0.0895462,0.0,0.0,0.0,0.0760515,0.04724446964966855,0.0,0.0,0.04724446964966855,0.0,-0.08565397863770574
69,0.1168,756.602,691.395,-3.19266e-06,-6.83132e-33,-4.93468e-15,3.12752e-15,0.0471168,0.0471168,-0.0914456,0.0,0.0,0.0,0.0776972,0.048244436879960606,0.0,0.0,0.048244436879960606,0.0,-0.08738903916206697
70,0.1192,759.125,693.695,-3.18939e-06,-4.50665e-33,-3.3202e-16,-8.74081e-16,0.0480703,0.0480703,-0.0933434,0.0,0.0,0.0,0.0793415,0.04924441461414841,0.0,0.0,0.04924441461414841,0.0,-0.08911934983241954
71,0.1216,761.604,695.955,-3.18564e-06,-3.29188e-33,-1.49311e-16,-3.5302e-15,0.0490229,0.0490229,-0.0952395,0.0,0.0,0.0,0.0809845,0.05024440106143513,0.0,0.0,0.05024440106143513,0.0,-0.0908448342707262
72,0.124,764.041,698.176,-3.18145e-06,-3.81487e-33,2.89638e-15,3.33849e-15,0.0499747,0.0499747,-0.0971339,0.0,0.0,0.0,0.0826262,0.05124449955373711,0.0,0.0,0.05124449955373711,0.0,-0.09256550748043069
73,0.1264,766.436,700.36,-3.17685e-06,-1.84065e-33,2.02893e-15,-3.61883e-15,0.0509255,0.0509255,-0.0990267,0.0,0.0,0.0,0.0842666,0.052244498147909324,0.0,0.0,0.052244498147909324,0.0,-0.09428147498391104
74,0.1289,768.792,702.508,-3.17188e-06,-4.90079e-33,-1.48673e-15,3.28813e-15,0.0518753,0.0518753,-0.100918,0.0,0.0,0.0,0.0859056,0.05324439474797682,0.0,0.0,0.05324439474797682,0.0,-0.09599284156633336
75,0.1313,771.111,704.621,-3.16657e-06,-4.68306e-33,-9.34553e-16,2.11755e-15,0.0528243,0.0528243,-0.102807,0.0,0.0,0.0,0.0875432,0.05424439810513504,0.0,0.0,0.05424439810513504,0.0,-0.09769889920985686
76,0.1337,773.392,706.701,-3.16094e-06,-3.46121e-33,-5.60292e-16,-1.55708e-15,0.0537724,0.0537724,-0.104695,0.0,0.0,0.0,0.0891795,0.05524440119553553,0.0,0.0,0.05524440119553553,0.0,-0.09940083655374343
77,0.1361,775.638,708.748,-3.15501e-06,-3.30286e-33,-3.06239e-16,-1.11837e-15,0.0547196,0.0547196,-0.106581,0.0,0.0,0.0,0.0908144,0.05624440221806659,0.0,0.0,0.05624440221806659,0.0,-0.1010977658686617
78,0.1385,777.849,710.764,-3.14881e-06,-6.64255e-33,-3.07741e-15,4.97557e-15,0.0556659,0.0556659,-0.108466,0.0,0.0,0.0,0.0924479,0.057244399369914545,0.0,0.0,0.057244399369914545,0.0,-0.10279060058202993
79,0.141,780.026,712.75,-3.14237e-06,-6.9175e-33,9.30989e-16,9.06199e-15,0.0566114,0.0566114,-0.110349,0.0,0.0,0.0,0.0940801,0.05824449667101317,0.0,0.0,0.05824449667101317,0.0,-0.10447845626628971
80,0.1434,782.172,714.706,-3.13569e-06,-4.59067e-33,7.11246e-16,1.77916e-16,0.0575559,0.0575559,-0.11223,0.0,0.0,0.0,0.0957109,0.05924448076626909,0.0,0.0,0.05924448076626909,0.0,-0.10616134903320995
81,0.1458,784.286,716.634,-3.1288e-06,-4.38584e-33,5.61691e-16,2.92486e-17,0.0584995,0.0584995,-0.114109,0.0,0.0,0.0,0.0973404,0.06024445557223701,0.0,0.0,0.06024445557223701,0.0,-0.10783929493451716
82,0.1482,786.37,718.534,-3.12172e-06,-5.20336e-33,4.59849e-16,2.84297e-15,0.0594422,0.0594422,-0.115987,0.0,0.0,0.0,0.0989684,0.06124441927934421,0.0,0.0,0.06124441927934421,0.0,-0.10951320044937896
83,0.1506,788.424,720.407,-3.11445e-06,-2.94555e-33,3.90478e-16,-4.01319e-15,0.0603841,0.0603841,-0.117863,0.0,0.0,0.0,0.100595,0.062244476300782114,0.0,0.0,0.062244476300782114,0.0,-0.11118218768582533
84,0.1531,790.45,722.254,-3.10702e-06,-3.25702e-33,3.30689e-15,3.04494e-15,0.061325,0.061325,-0.119737,0.0,0.0,0.0,0.10222,0.06324441247473667,0.0,0.0,0.06324441247473667,0.0,-0.11284627253159674
85,0.1555,792.447,724.076,-3.09943e-06,-3.10519e-33,2.33834e-15,1.96205e-15,0.0622651,0.0622651,-0.12161,0.0,0.0,0.0,0.103844,0.06424443853550321,0.0,0.0,0.06424443853550321,0.0,-0.11450635630937167
86,0.1579,794.418,725.873,-3.0917e-06,-3.18454e-33,-1.29514e-15,-1.69627e-15,0.0632043,0.0632043,-0.123481,0.0,0.0,0.0,0.105467,0.06524444644238003,0.0,0.0,0.06524444644238003,0.0,-0.1161615659852071
87,0.1603,796.363,727.646,-3.08384e-06,-2.02057e-33,-8.16095e-16,-4.17123e-15,0.0641426,0.0641426,-0.125351,0.0,0.0,0.0,0.107088,0.06624443437745042,0.0,0.0,0.06624443437745042,0.0,-0.11781279947232115
88,0.1627,798.282,729.397,-3.07585e-06,-7.88632e-34,5.46506e-15,2.95104e-15,0.06508,0.06508,-0.127219,0.0,0.0,0.0,0.108708,0.06724440052114344,0.0,0.0,0.06724440052114344,0.0,-0.11945918695824964
89,0.1652,800.176,731.124,-3.06775e-06,-3.4395e-33,-2.13022e-15,1.90688e-15,0.0660166,0.0660166,-0.129085,0.0,0.0,0.0,0.110326,0.06824444987667944,0.0,0.0,0.06824444987667944,0.0,-0.12110074406628468
90,0.1676,802.046,732.829,-3.05955e-06,-3.05235e-33,-7.35916e-15,-4.67956e-15,0.0669523,0.0669523,-0.130949,0.0,0.0,0.0,0.111943,0.0692444739967506,0.0,0.0,0.0692444739967506,0.0,-0.1227374863616214
91,0.17,803.893,734.513,-3.05126e-06,-2.79284e-33,-2.00848e-15,-3.27847e-16,0.0678871,0.0678871,-0.132812,0.0,0.0,0.0,0.113559,0.07024447105684795,0.0,0.0,0.07024447105684795,0.0,-0.12437030498172363
92,0.1724,805.716,736.177,-3.04288e-06,-2.65627e-33,-1.30553e-15,-3.1432e-16,0.068821,0.068821,-0.134673,0.0,0.0,0.0,0.115173,0.07124443923082846,0.0,0.0,0.07124443923082846,0.0,-0.12599833649096703
93,0.1748,807.517,737.819,-3.03441e-06,-1.39549e-33,5.16106e-15,5.59032e-15,0.0697541,0.0697541,-0.136533,0.0,0.0,0.0,0.116786,0.07224448391536265,0.0,0.0,0.07224448391536265,0.0,-0.12762246867392635
94,0.1773,809.297,739.442,-3.02588e-06,4.93283e-34,3.6437e-15,-2.18984e-15,0.0706863,0.0706863,-0.138391,0.0,0.0,0.0,0.118397,0.07324449625660368,0.0,0.0,0.07324449625660368,0.0,-0.1292418412641324
95,0.1797,811.055,741.046,-3.01727e-06,-4.12454e-33,-4.01734e-16,7.27242e-15,0.0716176,0.0716176,-0.140247,0.0,0.0,0.0,0.120007,0.07424447442352577,0.0,0.0,0.07424447442352577,0.0,-0.13085646956818264
96,0.1821,812.793,742.631,-3.00861e-06,-1.22505e-33,-6.20151e-15,-6.96353e-15,0.072548,0.072548,-0.142101,0.0,0.0,0.0,0.121616,0.07524441658348935,0.0,0.0,0.07524441658348935,0.0,-0.13246636883583784
97,0.1845,814.51,744.197,-2.99989e-06,-1.76654e-35,-1.21576e-15,-4.85305e-15,0.0734776,0.0734776,-0.143954,0.0,0.0,0.0,0.123223,0.07624442852668256,0.0,0.0,0.07624442852668256,0.0,-0.13407242018826082
98,0.1869,816.208,745.746,-2.99112e-06,1.44363e-35,-7.61873e-16,-3.41032e-15,0.0744063,0.0744063,-0.145805,0.0,0.0,0.0,0.124829,0.07724440099279839,0.0,0.0,0.07724440099279839,0.0,-0.13567376963236988
99,0.1894,817.886,747.277,-2.9823e-06,-1.08362e-33,-4.46641e-16,5.41421e-16,0.0753342,0.0753342,-0.147655,0.0,0.0,0.0,0.126434,0.07824443996881003,0.0,0.0,0.07824443996881003,0.0,-0.1372712949919649
100,0.1918,819.546,748.79,-2.97344e-06,2.82722e-33,5.79203e-15,-5.65348e-15,0.0762612,0.0762612,-0.149503,0.0,0.0,0.0,0.128037,0.07924443599120679,0.0,0.0,0.07924443599120679,0.0,-0.13886414539173797
101,0.1942,821.187,750.287,-2.96454e-06,6.03577e-34,1.09392e-15,-9.91512e-16,0.0771874,0.0771874,-0.151349,0.0,0.0,0.0,0.129638,0.08024449524377042,0.0,0.0,0.08024449524377042,0.0,-0.14045233582856298
102,0.1966,822.81,751.768,-2.95561e-06,6.10428e-34,8.38908e-16,-7.64905e-16,0.0781126,0.0781126,-0.153194,0.0,0.0,0.0,0.131239,0.08124439993535426,0.0,0.0,0.08124439993535426,0.0,-0.14203673920739668
103,0.199,824.416,753.233,-2.94665e-06,-3.99432e-34,6.61409e-16,2.3658e-15,0.0790371,0.0790371,-0.155037,0.0,0.0,0.0,0.132838,0.0822444725954512,0.0,0.0,0.0822444725954512,0.0,-0.1436165092917444
104,0.2015,826.005,754.682,-2.93766e-06,-3.54354e-34,5.37796e-16,1.54012e-15,0.0799607,0.0799607,-0.156878,0.0,0.0,0.0,0.134435,0.08324449532975087,0.0,0.0,0.08324449532975087,0.0,-0.14519166092617286
105,0.2039,827.576,756.116,-2.92865e-06,-1.55357e-33,-2.57092e-15,9.71833e-16,0.0808834,0.0808834,-0.158718,0.0,0.0,0.0,0.136031,0.08424446629124893,0.0,0.0,0.08424446629124893,0.0,-0.1467630621376096
106,0.2063,829.132,757.535,-2.91962e-06,7.94847e-34,-1.71677e-15,-5.38554e-15,0.0818053,0.0818053,-0.160556,0.0,0.0,0.0,0.137626,0.0852444921558182,0.0,0.0,0.0852444921558182,0.0,-0.1483298712907003
107,0.2087,830.671,758.939,-2.91057e-06,-3.34716e-34,-1.11956e-15,-8.11035e-16,0.0827263,0.0827263,-0.162392,0.0,0.0,0.0,0.139219,0.08624446274886743,0.0,0.0,0.08624446274886743,0.0,-0.14989210307938516
108,0.2111,832.195,760.329,-2.9015e-06,1.74187e-33,2.3284e-15,-3.63149e-15,0.0836465,0.0836465,-0.164227,0.0,0.0,0.0,0.140811,0.08724448494313486,0.0,0.0,0.08724448494313486,0.0,-0.15145062069300064
109,0.2136,833.703,761.705,-2.89243e-06,-5.53975e-34,-1.32254e-15,4.02082e-16,0.0845658,0.0845658,-0.16606,0.0,0.0,0.0,0.142402,0.08824444836090461,0.0,0.0,0.08824444836090461,0.0,-0.15300458705999898
110,0.216,835.196,763.067,-2.88334e-06,3.33822e-33,2.18937e-15,-8.78254e-15,0.0854843,0.0854843,-0.167891,0.0,0.0,0.0,0.143991,0.08924446007179787,0.0,0.0,0.08924446007179787,0.0,-0.15455401672535363
111,0.2184,836.675,764.416,-2.87425e-06,1.20776e-33,1.61472e-15,-1.57146e-16,0.0864019,0.0864019,-0.169721,0.0,0.0,0.0,0.145579,0.09024440949499302,0.0,0.0,0.09024440949499302,0.0,-0.15609976808087545
112,0.2208,838.139,765.751,-2.86515e-06,1.73901e-34,1.21154e-15,2.81439e-15,0.0873187,0.0873187,-0.171549,0.0,0.0,0.0,0.147165,0.09124440389700861,0.0,0.0,0.09124440389700861,0.0,-0.15764100858182384
113,0.2232,839.588,767.074,-2.85605e-06,3.24834e-33,9.28484e-16,-7.12813e-15,0.0882347,0.0882347,-0.173376,0.0,0.0,0.0,0.14875,0.09224444171837654,0.0,0.0,0.09224444171837654,0.0,-0.15917859344767404
114,0.2257,841.024,768.384,-2.84694e-06,-2.61112e-33,-2.31466e-15,6.99755e-15,0.0891498,0.0891498,-0.175201,0.0,0.0,0.0,0.150334,0.09324441207364731,0.0,0.0,0.09324441207364731,0.0,-0.1607116931356517
115,0.2281,842.447,769.681,-2.83784e-06,-2.48754e-33,-1.54887e-15,4.77686e-15,0.0900641,0.0900641,-0.177024,0.0,0.0,0.0,0.151916,0.09424442252472098,0.0,0.0,0.09424442252472098,0.0,-0.16224032195055604
116,0.2305,843.856,770.967,-2.82874e-06,6.84222e-34,2.03929e-15,-2.77959e-15,0.0909776,0.0909776,-0.178846,0.0,0.0,0.0,0.153497,0.0952444715075269,0.0,0.0,0.0952444715075269,0.0,-0.16376533037940455
117,0.2329,845.251,772.24,-2.81964e-06,-3.31845e-34,-1.53548e-15,-2.01072e-15,0.0918902,0.0918902,-0.180666,0.0,0.0,0.0,0.155077,0.09624444783201991,0.0,0.0,0.09624444783201991,0.0,-0.16528589334608834
118,0.2353,846.634,773.502,-2.81054e-06,-2.55477e-33,-1.00177e-15,4.54739e-15,0.092802,0.092802,-0.182485,0.0,0.0,0.0,0.156655,0.09724445935552417,0.0,0.0,0.09724445935552417,0.0,-0.1668028582082769
119,0.2378,848.005,774.752,-2.80146e-06,-2.43408e-33,-6.25044e-16,3.08221e-15,0.0937129,0.0937129,-0.184301,0.0,0.0,0.0,0.158232,0.09824439468495627,0.0,0.0,0.09824439468495627,0.0,-0.16831457116695325
120,0.2402,849.363,775.991,-2.79238e-06,-5.52263e-35,-3.58893e-16,-3.97105e-15,0.0946231,0.0946231,-0.186117,0.0,0.0,0.0,0.159807,0.09924447179904927,0.0,0.0,0.09924447179904927,0.0,-0.16982354134609423
121,0.242,850.381,776.92,-1.17997e-06,-3.26235e-35,-2.05747e-16,-3.05558e-15,0.0953102,0.0953102,-0.187487,0.0,0.0,0.0,0.160997,0.10000002221524285,0.0,0.0,0.10000002221524285,0.0,-0.17096010437100995
