,Time,S11,S22,S33,S12,S13,S23,LE11,LE22,LE33,LE12,LE13,LE23,SDV_EPBAR,E11,E12,E13,E22,E23,E33
0,2.42e-07,0.029678,0.029678,1.04083e-17,0.0,0.0,0.0,1e-07,1e-07,-8.57143e-08,0.0,0.0,0.0,0.0,1.0000000494336803e-07,0.0,0.0,1.0000000494336803e-07,0.0,-8.571429632731054e-08
1,4.84e-07,0.059356,0.059356,3.46945e-18,0.0,0.0,0.0,2e-07,2e-07,-1.71429e-07,0.0,0.0,0.0,0.0,2.0000002010078788e-07,0.0,0.0,2.0000002010078788e-07,0.0,-1.7142898534050488e-07
2,8.47e-07,0.103873,0.103873,3.46945e-18,0.0,0.0,0.0,3.5e-07,3.5e-07,-3e-07,0.0,0.0,0.0,0.0,3.5000006115559756e-07,0.0,0.0,3.5000006115559756e-07,0.0,-2.9999995498908305e-07
3,1.3915e-06,0.170648,0.170648,-1.73472e-17,0.0,0.0,0.0,5.75e-07,5.75e-07,-4.92857e-07,0.0,0.0,0.0,0.0,5.750001652593539e-07,0.0,0.0,5.750001652593539e-07,0.0,-4.928568785311782e-07
4,2.2083e-06,0.270812,0.270812,-3.46945e-18,0.0,0.0,0.0,9.125e-07,9.125e-07,-7.82142e-07,0.0,0.0,0.0,0.0,9.125004163390571e-07,0.0,0.0,9.125004163390571e-07,0.0,-7.821416940778647e-07
5,3.4334e-06,0.421056,0.421056,5.20417e-17,0.0,0.0,0.0,1.41875e-06,1.41875e-06,-1.21607e-06,0.0,0.0,0.0,0.0,1.4187510064544995e-06,0.0,0.0,1.4187510064544995e-06,0.0,-1.2160692606233425e-06
6,5.2711e-06,0.646423,0.646423,2.42861e-17,0.0,0.0,0.0,2.17812e-06,2.17812e-06,-1.86696e-06,0.0,0.0,0.0,0.0,2.178122372020752e-06,0.0,0.0,2.178122372020752e-06,0.0,-1.8669582572128363e-06
7,8.0276e-06,0.984473,0.984473,1.35308e-16,0.0,0.0,0.0,3.31718e-06,3.31718e-06,-2.8433e-06,0.0,0.0,0.0,0.0,3.317185501838793e-06,0.0,0.0,3.317185501838793e-06,0.0,-2.8432959577884276e-06
8,1.2162e-05,1.49155,1.49155,4.68375e-16,0.0,0.0,0.0,5.02577e-06,5.02577e-06,-4.3078e-06,0.0,0.0,0.0,0.0,5.025782629175524e-06,0.0,0.0,5.025782629175524e-06,0.0,-4.307790721469473e-06
9,1.8365e-05,2.25216,2.25216,3.57353e-16,0.0,0.0,0.0,7.58864e-06,7.58864e-06,-6.50455e-06,0.0,0.0,0.0,0.0,7.5886687938009345e-06,0.0,0.0,7.5886687938009345e-06,0.0,-6.50452884543018e-06
10,2.7668e-05,3.39307,3.39307,-3.08781e-16,0.0,0.0,0.0,1.14329e-05,1.14329e-05,-9.79967e-06,0.0,0.0,0.0,0.0,1.1432965355773206e-05,0.0,0.0,1.1432965355773206e-05,0.0,-9.799621983441753e-06
11,4.1623e-05,5.10443,5.10443,-7.5287e-16,0.0,0.0,-1.23207e-38,1.71994e-05,1.71994e-05,-1.47423e-05,0.0,0.0,0.0,0.0,1.7199547910573543e-05,0.0,0.0,1.7199547910573543e-05,0.0,-1.4742191332794974e-05
12,6.2555e-05,7.67145,7.67145,-1.64105e-15,0.0,0.0,-2.77213e-38,2.58489e-05,2.58489e-05,-2.21562e-05,0.0,0.0,0.0,0.0,2.5849234085661976e-05,0.0,0.0,2.5849234085661976e-05,0.0,-2.2155954553237933e-05
13,9.3954e-05,11.5219,11.5219,-8.30239e-15,0.0,0.0,-6.23724e-38,3.88231e-05,3.88231e-05,-3.3277e-05,0.0,0.0,0.0,0.0,3.882385362641294e-05,0.0,0.0,3.882385362641294e-05,0.0,-3.327644632677984e-05
14,0.00014105,17.2976,17.2976,-4.47177e-14,0.0,0.0,-1.40336e-37,5.82842e-05,5.82842e-05,-4.99578e-05,0.0,0.0,0.0,0.0,5.828589855694233e-05,0.0,0.0,5.828589855694233e-05,0.0,-4.995655212991501e-05
15,0.0002117,25.9608,25.9608,-2.25018e-13,0.0,0.0,-3.1575e-37,8.7475e-05,8.7475e-05,-7.49785e-05,0.0,0.0,0.0,0.0,8.747882604942525e-05,0.0,0.0,8.747882604942525e-05,0.0,-7.4975689182466e-05
16,0.00031767,38.9552,38.9552,-1.14339e-12,0.0,0.0,-7.10416e-37,0.00013126,0.00013126,-0.000112508,0.0,0.0,0.0,0.0,0.0001312686149708142,0.0,0.0,0.0001312686149708142,0.0,-0.00011250167121223953
17,0.00047662,58.4457,58.4457,-5.85252e-12,0.0,0.0,-1.59836e-36,0.000196933,0.000196933,-0.0001688,0.0,0.0,0.0,0.0,0.00019695239257622177,0.0,0.0,0.00019695239257622177,0.0,-0.00016878575408152408
18,0.00071506,87.6791,87.6791,-2.95989e-11,0.0,0.0,-3.59607e-36,0.000295435,0.000295435,-0.00025323,0.0,0.0,0.0,0.0,0.00029547864521761724,0.0,0.0,0.00029547864521761724,0.0,-0.00025319793998968
19,0.0010727,131.524,131.524,-1.49709e-10,0.0,0.0,-8.09034e-36,0.000443169,0.000443169,-0.000379859,0.0,0.0,0.0,0.0,0.0004432672138892091,0.0,0.0,0.0004432672138892091,0.0,-0.0003797868627043455
20,0.0016092,197.279,197.279,-7.57628e-10,0.0,0.0,-1.82005e-35,0.00066473,0.00066473,-0.000569769,0.0,0.0,0.0,0.0,0.0006649509819482979,0.0,0.0,0.0006649509819482979,0.0,-0.0005696067124669746
21,0.0024139,295.884,295.884,-3.83263e-09,0.0,0.0,-4.09417e-35,0.00099698,0.00099698,-0.000854554,0.0,0.0,0.0,0.0,0.0009974771497625046,0.0,0.0,0.0009974771497625046,0.0,-0.0008541889727163854
22,0.003621,430.719,431.601,0.00164467,0.0,0.0,8.44162e-33,0.00149515,0.00149515,-0.00132996,0.0,0.0,0.0,7.65746e-05,0.0014962682940309335,0.0,0.0,0.0014962682940309335,0.0,-0.0013290759951396502
23,0.0054316,453.527,462.77,0.172122,0.0,0.0,-8.10189e-15,0.00224193,0.00224193,-0.00271927,0.0,0.0,0.0,0.00126287,0.0022444450041991804,0.0,0.0,0.0022444450041991804,0.0,-0.002715576134298292
24,0.0078516,477.41,493.201,0.000127456,-5.50131e-34,-2.47204e-15,5.16814e-15,0.0032392,0.0032392,-0.00460955,0.0,0.0,0.0,0.0029005,0.003244451877416177,0.0,0.0,0.003244451877416177,0.0,-0.004598942329520184
25,0.010272,496.965,516.753,1.61111e-05,-9.57084e-34,3.57162e-15,-1.97376e-15,0.00423547,0.00423547,-0.00651909,0.0,0.0,0.0,0.00457121,0.004244452279975608,0.0,0.0,0.004244452279975608,0.0,-0.006497886832923738
26,0.012692,513.574,535.924,2.1726e-06,-8.99349e-34,2.07676e-15,-1.12231e-15,0.00523074,0.00523074,-0.00844076,0.0,0.0,0.0,0.00626262,0.0052444442044314865,0.0,0.0,0.0052444442044314865,0.0,-0.008405236803167404
27,0.015112,528.052,552.139,4.14293e-07,-7.35885e-34,1.21481e-15,1.85278e-15,0.00622503,0.00622503,-0.0103702,0.0,0.0,0.0,0.00796785,0.006244445766251383,0.0,0.0,0.006244445766251383,0.0,-0.010316614865462204
28,0.017532,540.899,566.237,1.74995e-07,-6.93276e-34,7.13009e-16,1.07823e-15,0.00721833,0.00721833,-0.012305,0.0,0.0,0.0,0.00968279,0.007244444941601369,0.0,0.0,0.007244444941601369,0.0,-0.012229603057478777
29,0.019952,552.452,578.742,-2.86164e-08,9.87412e-36,-4.74109e-15,-4.43116e-15,0.00821065,0.00821065,-0.0142433,0.0,0.0,0.0,0.0114048,0.008244449829572176,0.0,0.0,0.008244449829572176,0.0,-0.014142344086056302
30,0.022372,562.953,590.008,-3.06785e-07,-1.01494e-34,-2.46224e-16,-5.13062e-17,0.00920198,0.00920198,-0.016184,0.0,0.0,0.0,0.013132,0.009244448382409898,0.0,0.0,0.009244448382409898,0.0,-0.016053742713319497
31,0.024792,572.581,600.276,-6.17254e-07,-9.58737e-35,-1.48896e-16,-2.29164e-17,0.0101923,0.0101923,-0.0181264,0.0,0.0,0.0,0.0148631,0.010244418407964417,0.0,0.0,0.010244418407964417,0.0,-0.017963104950546205
32,0.027212,581.476,609.725,-9.23998e-07,-2.0162e-34,-2.71641e-15,2.57209e-15,0.0111817,0.0111817,-0.0200698,0.0,0.0,0.0,0.0165973,0.011244448869027979,0.0,0.0,0.011244448869027979,0.0,-0.019869742172913485
33,0.029632,589.744,618.485,-1.20867e-06,-1.90731e-34,-1.65218e-15,1.54343e-15,0.0121701,0.0121701,-0.0220138,0.0,0.0,0.0,0.0183337,0.012244457004898734,0.0,0.0,0.012244457004898734,0.0,-0.02177326457088613
34,0.032052,597.472,626.659,-1.46431e-06,-2.91357e-34,-1.00656e-15,3.53476e-15,0.0131575,0.0131575,-0.023958,0.0,0.0,0.0,0.0200717,0.013244440792496093,0.0,0.0,0.013244440792496093,0.0,-0.02367328538118474
35,0.034472,604.73,634.325,-1.6899e-06,-3.86518e-34,-6.12876e-16,4.74923e-15,0.0141439,0.0141439,-0.0259022,0.0,0.0,0.0,0.021811,0.014244398206812336,0.0,0.0,0.014244398206812336,0.0,-0.02556961575965533
36,0.036892,611.574,641.549,-1.88717e-06,-2.54714e-34,-3.71639e-16,2.46366e-16,0.0151294,0.0151294,-0.027846,0.0,0.0,0.0,0.0235511,0.015244428745356142,0.0,0.0,0.015244428745356142,0.0,-0.02746187385909249
37,0.039312,618.052,648.381,-2.05893e-06,-1.5745e-33,-5.59246e-15,5.41786e-15,0.0161139,0.0161139,-0.0297894,0.0,0.0,0.0,0.0252918,0.016244429054838472,0.0,0.0,0.016244429054838472,0.0,-0.029350069099840725
38,0.041732,624.202,654.866,-2.20821e-06,-1.04785e-33,1.92366e-15,-1.99716e-15,0.0170975,0.0170975,-0.0317322,0.0,0.0,0.0,0.0270328,0.017244498828943522,0.0,0.0,0.017244498828943522,0.0,-0.031234017125905456
39,0.044152,630.06,661.039,-2.33795e-06,-1.43899e-33,-1.49167e-15,1.42059e-15,0.01808,0.01808,-0.0336741,0.0,0.0,0.0,0.0287739,0.01824443268611331,0.0,0.0,0.01824443268611331,0.0,-0.033113438373383985
40,0.046572,635.652,666.931,-2.45079e-06,-1.36511e-33,-9.21118e-16,8.61358e-16,0.0190616,0.0190616,-0.0356152,0.0,0.0,0.0,0.0305149,0.019244432140675505,0.0,0.0,0.019244432140675505,0.0,-0.03498844150513747
41,0.048992,641.004,672.569,-2.54904e-06,-1.29551e-33,-5.64509e-16,5.17814e-16,0.0200423,0.0200423,-0.0375553,0.0,0.0,0.0,0.0322557,0.02024449545617002,0.0,0.0,0.02024449545617002,0.0,-0.03685884545773788
42,0.051412,646.137,677.974,-2.63472e-06,-1.22989e-33,-3.40827e-16,3.06001e-16,0.0210219,0.0210219,-0.0394944,0.0,0.0,0.0,0.0339961,0.02124441664535559,0.0,0.0,0.02124441664535559,0.0,-0.03872466288258669
43,0.053832,651.068,683.167,-2.70952e-06,-1.16799e-33,-2.00034e-16,1.74936e-16,0.0220006,0.0220006,-0.0414323,0.0,0.0,0.0,0.0357361,0.022244397816892914,0.0,0.0,0.022244397816892914,0.0,-0.04058571450998727
44,0.056252,655.815,688.164,-2.7749e-06,-8.86226e-34,2.63427e-15,5.49149e-15,0.0229784,0.0229784,-0.0433691,0.0,0.0,0.0,0.0374755,0.02324443722866909,0.0,0.0,0.02324443722866909,0.0,-0.04244210978463214
45,0.058672,660.391,692.982,-2.83212e-06,-9.53249e-34,1.68703e-15,6.11599e-15,0.0239552,0.0239552,-0.0453046,0.0,0.0,0.0,0.0392142,0.024244430712260456,0.0,0.0,0.024244430712260456,0.0,-0.04429367065509149
46,0.061092,664.81,697.632,-2.88221e-06,-4.58989e-34,-1.67373e-15,-4.33765e-15,0.0249311,0.0249311,-0.0472389,0.0,0.0,0.0,0.0409522,0.02524447874626201,0.0,0.0,0.02524447874626201,0.0,-0.04614050666466596
47,0.063512,669.081,702.128,-2.9261e-06,-1.55086e-33,-3.82269e-15,2.69285e-15,0.025906,0.025906,-0.0491718,0.0,0.0,0.0,0.0426894,0.026244476958517948,0.0,0.0,0.026244476958517948,0.0,-0.04798244096845472
48,0.065932,673.216,706.48,-2.96453e-06,-1.47309e-33,-2.43039e-15,1.66864e-15,0.0268799,0.0268799,-0.0511034,0.0,0.0,0.0,0.0444257,0.02724442329946286,0.0,0.0,0.02724442329946286,0.0,-0.04981958320230062
49,0.068352,677.224,710.697,-2.99818e-06,-7.3161e-34,4.01947e-15,-4.44312e-15,0.0278529,0.0278529,-0.0530335,0.0,0.0,0.0,0.0461611,0.028244418542125116,0.0,0.0,0.028244418542125116,0.0,-0.051651757715966085
50,0.070772,681.112,714.787,-3.02761e-06,-1.58963e-33,-1.85074e-16,2.64532e-15,0.028825,0.028825,-0.0549623,0.0,0.0,0.0,0.0478955,0.02924446093324229,0.0,0.0,0.02924446093324229,0.0,-0.053479168883814876
51,0.073192,684.888,718.76,-3.0533e-06,-1.73583e-33,-1.03409e-16,4.39624e-15,0.0297961,0.0297961,-0.0568896,0.0,0.0,0.0,0.049629,0.030244445693269784,0.0,0.0,0.030244445693269784,0.0,-0.05530164169157481
52,0.075612,688.559,722.622,-3.07568e-06,-1.4273e-33,-5.64646e-15,-2.74285e-15,0.0307663,0.0307663,-0.0588154,0.0,0.0,0.0,0.0513614,0.03124447388971663,0.0,0.0,0.03124447388971663,0.0,-0.05711919110994079
53,0.078032,692.13,726.379,-3.09512e-06,-5.76471e-34,-8.29162e-16,-7.29132e-15,0.0317355,0.0317355,-0.0607398,0.0,0.0,0.0,0.0530927,0.032244440539372476,0.0,0.0,0.032244440539372476,0.0,-0.05893192616547094
54,0.080452,695.607,730.037,-3.11193e-06,-1.21937e-33,-3.32402e-15,-1.9099e-15,0.0327038,0.0327038,-0.0626626,0.0,0.0,0.0,0.0548229,0.03324444690609507,0.0,0.0,0.03324444690609507,0.0,-0.06073967333275243
55,0.082872,698.997,733.602,-3.12639e-06,-3.39641e-33,-7.76271e-15,4.29758e-15,0.0336712,0.0336712,-0.064584,0.0,0.0,0.0,0.056552,0.03424449122747819,0.0,0.0,0.03424449122747819,0.0,-0.0625426354640134
56,0.085292,702.302,737.078,-3.13874e-06,-1.89508e-33,3.44033e-15,-2.82032e-15,0.0346376,0.0346376,-0.0665038,0.0,0.0,0.0,0.0582799,0.03524446821485494,0.0,0.0,0.03524446821485494,0.0,-0.0643406396559939
57,0.087712,705.527,740.471,-3.14921e-06,-1.58504e-33,7.92488e-15,-7.39054e-15,0.0356031,0.0356031,-0.068422,0.0,0.0,0.0,0.0600066,0.03624447942664566,0.0,0.0,0.03624447942664566,0.0,-0.06613370116591555
58,0.090132,708.677,743.783,-3.15797e-06,-3.19234e-33,-4.59144e-16,3.58915e-15,0.0365676,0.0365676,-0.0703387,0.0,0.0,0.0,0.0617321,0.037244419370573656,0.0,0.0,0.037244419370573656,0.0,-0.06792192840585876
59,0.092552,711.755,747.02,-3.16519e-06,-3.04617e-33,-2.76827e-16,2.29417e-15,0.0375313,0.0375313,-0.0722538,0.0,0.0,0.0,0.0634564,0.038244493625901876,0.0,0.0,0.038244493625901876,0.0,-0.06970524296287306
60,0.094972,714.764,750.185,-3.17102e-06,-2.34867e-33,2.6824e-15,-4.12908e-15,0.038494,0.038494,-0.0741673,0.0,0.0,0.0,0.0651794,0.03924449287232035,0.0,0.0,0.03924449287232035,0.0,-0.07148365993738659
61,0.097392,717.708,753.281,-3.1756e-06,-2.35547e-33,-1.06152e-15,-2.68439e-15,0.0394557,0.0394557,-0.0760792,0.0,0.0,0.0,0.0669012,0.04024441503662213,0.0,0.0,0.04024441503662213,0.0,-0.07325719437746181
62,0.099812,720.59,756.311,-3.17903e-06,-1.80239e-33,-3.52483e-15,-4.55506e-15,0.0404166,0.0404166,-0.0779895,0.0,0.0,0.0,0.0686217,0.041244466292708726,0.0,0.0,0.041244466292708726,0.0,-0.07502586127899313
63,0.1022,723.412,759.279,-3.18142e-06,-1.72297e-33,-2.29609e-15,-2.9622e-15,0.0413765,0.0413765,-0.0798982,0.0,0.0,0.0,0.0703409,0.042244436714925504,0.0,0.0,0.042244436714925504,0.0,-0.07678967558590166
64,0.1047,726.177,762.186,-3.18287e-06,-1.64675e-33,4.22973e-15,8.83816e-16,0.0423355,0.0423355,-0.0818053,0.0,0.0,0.0,0.0720587,0.043244428549180425,0.0,0.0,0.043244428549180425,0.0,-0.07854865219032958
65,0.1071,728.887,765.036,-3.18345e-06,-1.79809e-33,2.8197e-15,3.38615e-15,0.0432936,0.0432936,-0.0837108,0.0,0.0,0.0,0.0737753,0.044244440015168696,0.0,0.0,0.044244440015168696,0.0,-0.08030280593283523
66,0.1095,731.545,767.83,-3.18325e-06,-1.7186e-33,1.888e-15,2.19622e-15,0.0442508,0.0442508,-0.0856146,0.0,0.0,0.0,0.0754905,0.04524446933082715,0.0,0.0,0.04524446933082715,0.0,-0.08205205980779606
67,0.1119,734.152,770.571,-3.18233e-06,-1.86687e-33,-1.59953e-15,1.4209e-15,0.045207,0.045207,-0.0875169,0.0,0.0,0.0,0.0772044,0.046244410087888266,0.0,0.0,0.046244410087888266,0.0,-0.08379661231721325
68,0.1143,736.711,773.262,-3.18074e-06,-1.44867e-33,1.83503e-15,-1.91549e-15,0.0461624,0.0461624,-0.0894174,0.0,0.0,0.0,0.0789169,0.04724446964966855,0.0,0.0,0.04724446964966855,0.0,-0.08553620328558442
69,0.1168,739.224,775.904,-3.17855e-06,-2.3948e-33,-1.63942e-15,4.40387e-15,0.0471168,0.0471168,-0.0913164,0.0,0.0,0.0,0.0806281,0.048244436879960606,0.0,0.0,0.048244436879960606,0.0,-0.08727112220865552
70,0.1192,741.692,778.498,-3.17581e-06,-1.61706e-33,-1.0696e-15,-2.80724e-15,0.0480703,0.0480703,-0.0932137,0.0,0.0,0.0,0.0823379,0.04924441461414841,0.0,0.0,0.04924441461414841,0.0,-0.0890012009503034
71,0.1216,744.117,781.047,-3.17256e-06,-1.54717e-33,-6.90198e-16,-1.85561e-15,0.0490229,0.0490229,-0.0951093,0.0,0.0,0.0,0.0840464,0.05024440106143513,0.0,0.0,0.05024440106143513,0.0,-0.09072645456179651
72,0.124,746.5,783.553,-3.16883e-06,-2.15342e-33,-3.32804e-15,1.61542e-15,0.0499747,0.0499747,-0.0970033,0.0,0.0,0.0,0.0857534,0.05124449955373711,0.0,0.0,0.05124449955373711,0.0,-0.09244698879660584
73,0.1264,748.843,786.016,-3.16468e-06,-1.61193e-33,3.59188e-15,-1.80049e-15,0.0509255,0.0509255,-0.0988957,0.0,0.0,0.0,0.0874591,0.052244498147909324,0.0,0.0,0.052244498147909324,0.0,-0.09416281808527682
74,0.1289,751.148,788.438,-3.16013e-06,-1.76762e-33,2.42679e-15,1.65618e-15,0.0518753,0.0518753,-0.100786,0.0,0.0,0.0,0.0891634,0.05324439474797682,0.0,0.0,0.05324439474797682,0.0,-0.09587350474536316
75,0.1313,753.415,790.822,-3.15521e-06,-1.46748e-33,-1.25497e-15,-1.77823e-15,0.0528243,0.0528243,-0.102675,0.0,0.0,0.0,0.0908663,0.05424439810513504,0.0,0.0,0.05424439810513504,0.0,-0.09757978760335928
76,0.1337,755.646,793.167,-3.14995e-06,-9.55149e-34,4.99177e-15,4.53666e-15,0.0537724,0.0537724,-0.104563,0.0,0.0,0.0,0.0925677,0.05524440119553553,0.0,0.0,0.05524440119553553,0.0,-0.09928194961780346
77,0.1361,757.843,795.476,-3.14439e-06,-1.58784e-33,4.61236e-16,5.84986e-15,0.0547196,0.0547196,-0.106449,0.0,0.0,0.0,0.0942678,0.05624440221806659,0.0,0.0,0.05624440221806659,0.0,-0.10097910294217538
78,0.1385,760.005,797.749,-3.13853e-06,-1.51932e-33,3.27567e-16,3.85255e-15,0.0556659,0.0556659,-0.108333,0.0,0.0,0.0,0.0959665,0.057244399369914545,0.0,0.0,0.057244399369914545,0.0,-0.10267126379618707
79,0.141,762.135,799.988,-3.13241e-06,-1.67833e-33,2.37693e-16,5.40127e-15,0.0566114,0.0566114,-0.110215,0.0,0.0,0.0,0.0976637,0.05824449667101317,0.0,0.0,0.05824449667101317,0.0,-0.1043584483390777
80,0.1434,764.233,802.193,-3.12604e-06,-1.83039e-33,1.77207e-16,6.4307e-15,0.0575559,0.0575559,-0.112096,0.0,0.0,0.0,0.0993595,0.05924448076626909,0.0,0.0,0.05924448076626909,0.0,-0.10604156662873865
81,0.1458,766.301,804.366,-3.11945e-06,-1.52678e-33,1.36464e-16,1.35843e-15,0.0584995,0.0584995,-0.113975,0.0,0.0,0.0,0.101054,0.06024445557223701,0.0,0.0,0.06024445557223701,0.0,-0.10771973738986163
82,0.1482,768.339,806.508,-3.11265e-06,-1.46104e-33,1.09001e-16,8.65743e-16,0.0594422,0.0594422,-0.115852,0.0,0.0,0.0,0.102747,0.06124441927934421,0.0,0.0,0.06124441927934421,0.0,-0.10939297661651359
83,0.1506,770.348,808.62,-3.10565e-06,-1.39818e-33,9.0482e-17,5.37617e-16,0.0603841,0.0603841,-0.117728,0.0,0.0,0.0,0.104439,0.062244476300782114,0.0,0.0,0.062244476300782114,0.0,-0.11106218918144628
84,0.1531,772.329,810.702,-3.09847e-06,-2.34918e-33,-2.85469e-15,3.20772e-15,0.061325,0.061325,-0.119602,0.0,0.0,0.0,0.106129,0.06324441247473667,0.0,0.0,0.06324441247473667,0.0,-0.11272649869383633
85,0.1555,774.282,812.755,-3.09113e-06,-2.24815e-33,-1.9155e-15,2.09889e-15,0.0622651,0.0622651,-0.121475,0.0,0.0,0.0,0.107817,0.06424443853550321,0.0,0.0,0.06424443853550321,0.0,-0.11438680659804945
86,0.1579,776.21,814.781,-3.08363e-06,-1.58949e-33,1.66049e-15,4.25332e-15,0.0632043,0.0632043,-0.123345,0.0,0.0,0.0,0.109505,0.06524444644238003,0.0,0.0,0.06524444644238003,0.0,-0.1160413557840726
87,0.1603,778.111,816.779,-3.07599e-06,-1.29625e-33,1.1476e-15,-1.0143e-16,0.0641426,0.0641426,-0.125214,0.0,0.0,0.0,0.11119,0.06624443437745042,0.0,0.0,0.06624443437745042,0.0,-0.11769193154658508
88,0.1627,779.988,818.752,-3.06822e-06,-1.01561e-33,7.99064e-16,-3.01872e-15,0.06508,0.06508,-0.127082,0.0,0.0,0.0,0.112875,0.06724440052114344,0.0,0.0,0.06724440052114344,0.0,-0.11933854460305027
89,0.1652,781.84,820.699,-3.06033e-06,-1.19652e-33,5.61974e-16,8.33849e-16,0.0660166,0.0660166,-0.128948,0.0,0.0,0.0,0.114558,0.06824444987667944,0.0,0.0,0.06824444987667944,0.0,-0.12098032661981517
90,0.1676,783.669,822.62,-3.05233e-06,-1.14493e-33,4.00537e-16,5.12349e-16,0.0669523,0.0669523,-0.130812,0.0,0.0,0.0,0.116239,0.0692444739967506,0.0,0.0,0.0692444739967506,0.0,-0.12261729316420689
91,0.17,785.475,824.518,-3.04423e-06,-1.09554e-33,2.90512e-16,2.9627e-16,0.0678871,0.0678871,-0.132674,0.0,0.0,0.0,0.117919,0.07024447105684795,0.0,0.0,0.07024447105684795,0.0,-0.12424945974568169
92,0.1724,787.258,826.392,-3.03603e-06,-1.27311e-33,2.1546e-16,3.06458e-15,0.068821,0.068821,-0.134535,0.0,0.0,0.0,0.119598,0.07124443923082846,0.0,0.0,0.07124443923082846,0.0,-0.12587771593877606
93,0.1748,789.019,828.243,-3.02774e-06,-1.2183e-33,1.64224e-16,2.01217e-15,0.0697541,0.0697541,-0.136394,0.0,0.0,0.0,0.121275,0.07224448391536265,0.0,0.0,0.07224448391536265,0.0,-0.1275011997690786
94,0.1773,790.76,830.072,-3.01937e-06,-4.24899e-35,6.05488e-15,-4.53625e-15,0.0706863,0.0706863,-0.138252,0.0,0.0,0.0,0.122951,0.07324449625660368,0.0,0.0,0.07324449625660368,0.0,-0.1291207974677191
95,0.1797,792.479,831.879,-3.01093e-06,-2.06654e-33,-1.77413e-15,2.73491e-15,0.0716176,0.0716176,-0.140108,0.0,0.0,0.0,0.124625,0.07424447442352577,0.0,0.0,0.07424447442352577,0.0,-0.13073565022070244
96,0.1821,794.178,833.664,-3.00242e-06,-8.57447e-34,4.73425e-15,-4.05557e-15,0.072548,0.072548,-0.141962,0.0,0.0,0.0,0.126298,0.07524441658348935,0.0,0.0,0.07524441658348935,0.0,-0.13234577327990893
97,0.1845,795.857,835.429,-2.99385e-06,-2.39947e-33,-2.6859e-15,1.38041e-16,0.0734776,0.0734776,-0.143814,0.0,0.0,0.0,0.12797,0.07624442852668256,0.0,0.0,0.07624442852668256,0.0,-0.13395118184060106
98,0.1869,797.517,837.173,-2.98522e-06,-3.42748e-33,-4.80663e-15,2.97554e-15,0.0744063,0.0744063,-0.145665,0.0,0.0,0.0,0.12964,0.07724440099279839,0.0,0.0,0.07724440099279839,0.0,-0.135552755489326
99,0.1894,799.159,838.898,-2.97654e-06,-5.8601e-34,5.64251e-15,4.89734e-15,0.0753342,0.0753342,-0.147514,0.0,0.0,0.0,0.131308,0.07824443996881003,0.0,0.0,0.07824443996881003,0.0,-0.13714964166820098
100,0.1918,800.781,840.603,-2.96782e-06,-1.01153e-33,-2.06681e-15,-5.54529e-15,0.0762612,0.0762612,-0.149362,0.0,0.0,0.0,0.132975,0.07924443599120679,0.0,0.0,0.07924443599120679,0.0,-0.1387427166757147
101,0.1942,802.386,842.29,-2.95905e-06,-4.05258e-34,1.57175e-15,7.94233e-15,0.0771874,0.0771874,-0.151208,0.0,0.0,0.0,0.134641,0.08024449524377042,0.0,0.0,0.08024449524377042,0.0,-0.14033113106317974
102,0.1966,803.973,843.958,-2.95025e-06,-1.61679e-34,1.09432e-15,-5.48012e-16,0.0781126,0.0781126,-0.153052,0.0,0.0,0.0,0.136305,0.08124439993535426,0.0,0.0,0.08124439993535426,0.0,-0.1419148997739691
103,0.199,805.544,845.608,-2.9414e-06,-1.53269e-34,7.65085e-16,-4.30742e-16,0.0790371,0.0790371,-0.154895,0.0,0.0,0.0,0.137968,0.0822444725954512,0.0,0.0,0.0822444725954512,0.0,-0.14349489420159678
104,0.2015,807.097,847.24,-2.93253e-06,5.30007e-34,3.52769e-15,-3.29809e-15,0.0799607,0.0799607,-0.156736,0.0,0.0,0.0,0.13963,0.08324449532975087,0.0,0.0,0.08324449532975087,0.0,-0.1450702695234387
105,0.2039,808.634,848.855,-2.92363e-06,-3.91388e-34,-5.48567e-16,6.48488e-16,0.0808834,0.0808834,-0.158575,0.0,0.0,0.0,0.141289,0.08424446629124893,0.0,0.0,0.08424446629124893,0.0,-0.14664104053115823
106,0.2063,810.155,850.453,-2.91471e-06,-1.16254e-33,-3.36697e-15,3.86023e-16,0.0818053,0.0818053,-0.160413,0.0,0.0,0.0,0.142948,0.0852444921558182,0.0,0.0,0.0852444921558182,0.0,-0.1482080737539786
107,0.2087,811.66,852.035,-2.90577e-06,-3.24917e-34,6.77598e-16,6.11638e-15,0.0827263,0.0827263,-0.162249,0.0,0.0,0.0,0.144605,0.08624446274886743,0.0,0.0,0.08624446274886743,0.0,-0.14977052895778298
108,0.2111,813.15,853.6,-2.89681e-06,2.52155e-34,3.47879e-15,-7.71524e-15,0.0836465,0.0836465,-0.164084,0.0,0.0,0.0,0.146261,0.08724448494313486,0.0,0.0,0.08724448494313486,0.0,-0.1513292694553532
109,0.2136,814.624,855.15,-2.88783e-06,2.42601e-34,2.41797e-15,5.92245e-16,0.0845658,0.0845658,-0.165917,0.0,0.0,0.0,0.147915,0.08824444836090461,0.0,0.0,0.08824444836090461,0.0,-0.15288345805543113
110,0.216,816.084,856.684,-2.87884e-06,9.08138e-34,7.69163e-15,-5.57558e-15,0.0854843,0.0854843,-0.167748,0.0,0.0,0.0,0.149567,0.08924446007179787,0.0,0.0,0.08924446007179787,0.0,-0.15443310930507093
111,0.2184,817.53,858.203,-2.86984e-06,3.07452e-34,2.33097e-15,-3.8676e-15,0.0864019,0.0864019,-0.169577,0.0,0.0,0.0,0.151219,0.09024440949499302,0.0,0.0,0.09024440949499302,0.0,-0.15597823769750163
112,0.2208,818.961,859.707,-2.86083e-06,-2.69065e-34,-1.39385e-15,-2.69751e-15,0.0873187,0.0873187,-0.171405,0.0,0.0,0.0,0.152869,0.09124440389700861,0.0,0.0,0.09124440389700861,0.0,-0.15751970015306238
113,0.2232,820.379,861.196,-2.85181e-06,-2.58972e-34,-9.71911e-16,-1.89527e-15,0.0882347,0.0882347,-0.173232,0.0,0.0,0.0,0.154517,0.09224444171837654,0.0,0.0,0.09224444171837654,0.0,-0.15905750644707584
114,0.2257,821.783,862.671,-2.84279e-06,-2.49283e-34,-6.78227e-16,1.62719e-15,0.0891498,0.0891498,-0.175056,0.0,0.0,0.0,0.156164,0.09324441207364731,0.0,0.0,0.09324441207364731,0.0,-0.16058998750771158
115,0.2281,823.173,864.132,-2.83377e-06,2.1057e-34,2.54306e-15,-1.90294e-15,0.0900641,0.0900641,-0.176879,0.0,0.0,0.0,0.15781,0.09424442252472098,0.0,0.0,0.09424442252472098,0.0,-0.16211883798986448
116,0.2305,824.551,865.58,-2.82475e-06,2.01184e-34,1.76907e-15,-1.35216e-15,0.0909776,0.0909776,-0.178701,0.0,0.0,0.0,0.159454,0.0952444715075269,0.0,0.0,0.0952444715075269,0.0,-0.16364406756096783
117,0.2329,825.916,867.014,-2.81573e-06,1.92167e-34,1.22907e-15,-9.73332e-16,0.0918902,0.0918902,-0.180521,0.0,0.0,0.0,0.161097,0.09624444783201991,0.0,0.0,0.09624444783201991,0.0,-0.16516485102526723
118,0.2353,827.268,868.434,-2.80671e-06,1.08579e-33,3.87564e-15,2.26881e-15,0.092802,0.092802,-0.182339,0.0,0.0,0.0,0.162738,0.09724445935552417,0.0,0.0,0.09724445935552417,0.0,-0.1666812025449279
119,0.2378,828.608,869.842,-2.79769e-06,1.26747e-33,2.69827e-15,4.50186e-15,0.0937129,0.0937129,-0.184156,0.0,0.0,0.0,0.164378,0.09824439468495627,0.0,0.0,0.09824439468495627,0.0,-0.16819396803625686
120,0.2402,829.936,871.237,-2.78869e-06,4.27343e-34,-1.15318e-15,6.87977e-17,0.0946231,0.0946231,-0.185971,0.0,0.0,0.0,0.166016,0.09924447179904927,0.0,0.0,0.09924447179904927,0.0,-0.16970232673467933
121,0.242,830.931,872.283,-1.17934e-06,1.8619e-34,-8.79285e-16,-6.45557e-15,0.0953102,0.0953102,-0.187341,0.0,0.0,0.0,0.167253,0.10000002221524285,0.0,0.0,0.10000002221524285,0.0,-0.17083905570991087
