,Time,S11,S22,S33,S12,S13,S23,LE11,LE22,LE33,LE12,LE13,LE23,SDV_EPBAR,E11,E12,E13,E22,E23,E33
0,2.42e-07,0.029678,0.029678,1.04083e-17,0.0,0.0,0.0,1e-07,1e-07,-8.57143e-08,0.0,0.0,0.0,0.0,1.0000000494336803e-07,0.0,0.0,1.0000000494336803e-07,0.0,-8.571429632731054e-08
1,4.84e-07,0.059356,0.059356,3.46945e-18,0.0,0.0,0.0,2e-07,2e-07,-1.71429e-07,0.0,0.0,0.0,0.0,2.0000002010078788e-07,0.0,0.0,2.0000002010078788e-07,0.0,-1.7142898534050488e-07
2,8.47e-07,0.103873,0.103873,3.46945e-18,0.0,0.0,0.0,3.5e-07,3.5e-07,-3e-07,0.0,0.0,0.0,0.0,3.5000006115559756e-07,0.0,0.0,3.5000006115559756e-07,0.0,-2.9999995498908305e-07
3,1.3915e-06,0.170648,0.170648,-1.73472e-17,0.0,0.0,0.0,5.75e-07,5.75e-07,-4.92857e-07,0.0,0.0,0.0,0.0,5.750001652593539e-07,0.0,0.0,5.750001652593539e-07,0.0,-4.928568785311782e-07
4,2.2083e-06,0.270812,0.270812,-3.46945e-18,0.0,0.0,0.0,9.125e-07,9.125e-07,-7.82142e-07,0.0,0.0,0.0,0.0,9.125004163390571e-07,0.0,0.0,9.125004163390571e-07,0.0,-7.821416940778647e-07
5,3.4334e-06,0.421056,0.421056,5.20417e-17,0.0,0.0,0.0,1.41875e-06,1.41875e-06,-1.21607e-06,0.0,0.0,0.0,0.0,1.4187510064544995e-06,0.0,0.0,1.4187510064544995e-06,0.0,-1.2160692606233425e-06
6,5.2711e-06,0.646423,0.646423,2.42861e-17,0.0,0.0,0.0,2.17812e-06,2.17812e-06,-1.86696e-06,0.0,0.0,0.0,0.0,2.178122372020752e-06,0.0,0.0,2.178122372020752e-06,0.0,-1.8669582572128363e-06
7,8.0276e-06,0.984473,0.984473,1.35308e-16,0.0,0.0,0.0,3.31718e-06,3.31718e-06,-2.8433e-06,0.0,0.0,0.0,0.0,3.317185501838793e-06,0.0,0.0,3.317185501838793e-06,0.0,-2.8432959577884276e-06
8,1.2162e-05,1.49155,1.49155,4.68375e-16,0.0,0.0,0.0,5.02577e-06,5.02577e-06,-4.3078e-06,0.0,0.0,0.0,0.0,5.025782629175524e-06,0.0,0.0,5.025782629175524e-06,0.0,-4.307790721469473e-06
9,1.8365e-05,2.25216,2.25216,3.57353e-16,0.0,0.0,0.0,7.58864e-06,7.58864e-06,-6.50455e-06,0.0,0.0,0.0,0.0,7.5886687938009345e-06,0.0,0.0,7.5886687938009345e-06,0.0,-6.50452884543018e-06
10,2.7668e-05,3.39307,3.39307,-3.08781e-16,0.0,0.0,0.0,1.14329e-05,1.14329e-05,-9.79967e-06,0.0,0.0,0.0,0.0,1.1432965355773206e-05,0.0,0.0,1.1432965355773206e-05,0.0,-9.799621983441753e-06
11,4.1623e-05,5.10443,5.10443,-7.5287e-16,0.0,0.0,-1.23207e-38,1.71994e-05,1.71994e-05,-1.47423e-05,0.0,0.0,0.0,0.0,1.7199547910573543e-05,0.0,0.0,1.7199547910573543e-05,0.0,-1.4742191332794974e-05
12,6.2555e-05,7.67145,7.67145,-1.64105e-15,0.0,0.0,-2.77213e-38,2.58489e-05,2.58489e-05,-2.21562e-05,0.0,0.0,0.0,0.0,2.5849234085661976e-05,0.0,0.0,2.5849234085661976e-05,0.0,-2.2155954553237933e-05
13,9.3954e-05,11.5219,11.5219,-8.30239e-15,0.0,0.0,-6.23724e-38,3.88231e-05,3.88231e-05,-3.3277e-05,0.0,0.0,0.0,0.0,3.882385362641294e-05,0.0,0.0,3.882385362641294e-05,0.0,-3.327644632677984e-05
14,0.00014105,17.2976,17.2976,-4.47177e-14,0.0,0.0,-1.40336e-37,5.82842e-05,5.82842e-05,-4.99578e-05,0.0,0.0,0.0,0.0,5.828589855694233e-05,0.0,0.0,5.828589855694233e-05,0.0,-4.995655212991501e-05
15,0.0002117,25.9608,25.9608,-2.25018e-13,0.0,0.0,-3.1575e-37,8.7475e-05,8.7475e-05,-7.49785e-05,0.0,0.0,0.0,0.0,8.747882604942525e-05,0.0,0.0,8.747882604942525e-05,0.0,-7.4975689182466e-05
16,0.00031767,38.9552,38.9552,-1.14339e-12,0.0,0.0,-7.10416e-37,0.00013126,0.00013126,-0.000112508,0.0,0.0,0.0,0.0,0.0001312686149708142,0.0,0.0,0.0001312686149708142,0.0,-0.00011250167121223953
17,0.00047662,58.4457,58.4457,-5.85252e-12,0.0,0.0,-1.59836e-36,0.000196933,0.000196933,-0.0001688,0.0,0.0,0.0,0.0,0.00019695239257622177,0.0,0.0,0.00019695239257622177,0.0,-0.00016878575408152408
18,0.00071506,87.6791,87.6791,-2.95989e-11,0.0,0.0,-3.59607e-36,0.000295435,0.000295435,-0.00025323,0.0,0.0,0.0,0.0,0.00029547864521761724,0.0,0.0,0.00029547864521761724,0.0,-0.00025319793998968
19,0.0010727,131.524,131.524,-1.49709e-10,0.0,0.0,-8.09034e-36,0.000443169,0.000443169,-0.000379859,0.0,0.0,0.0,0.0,0.0004432672138892091,0.0,0.0,0.0004432672138892091,0.0,-0.0003797868627043455
20,0.0016092,197.279,197.279,-7.57628e-10,0.0,0.0,-1.82005e-35,0.00066473,0.00066473,-0.000569769,0.0,0.0,0.0,0.0,0.0006649509819482979,0.0,0.0,0.0006649509819482979,0.0,-0.0005696067124669746
21,0.0024139,295.884,295.884,-3.83263e-09,0.0,0.0,-4.09417e-35,0.00099698,0.00099698,-0.000854554,0.0,0.0,0.0,0.0,0.0009974771497625046,0.0,0.0,0.0009974771497625046,0.0,-0.0008541889727163854
22,0.003621,418.739,422.376,0.00645858,0.0,0.0,1.51309e-32,0.00149515,0.00149515,-0.00137077,0.0,0.0,0.0,0.000137119,0.0014962682940309335,0.0,0.0,0.0014962682940309335,0.0,-0.0013698309239382755
23,0.0054316,435.257,458.244,0.142017,2.24424e-34,-2.77278e-15,-2.72666e-15,0.00224193,0.00224193,-0.00276322,0.0,0.0,0.0,0.00129477,0.0022444450041991804,0.0,0.0,0.0022444450041991804,0.0,-0.002759405821562644
24,0.0078516,453.709,492.199,0.000116147,2.11163e-34,-1.59579e-15,-1.53851e-15,0.0032392,0.0032392,-0.00465711,0.0,0.0,0.0,0.00289389,0.003244451877416177,0.0,0.0,0.003244451877416177,0.0,-0.004646282478065422
25,0.010272,469.632,517.732,1.38544e-05,8.83322e-35,1.5965e-15,-8.73322e-16,0.00423547,0.00423547,-0.00656983,0.0,0.0,0.0,0.00452562,0.004244452279975608,0.0,0.0,0.004244452279975608,0.0,-0.006548295851258379
26,0.012692,483.719,538.048,1.70587e-06,8.32493e-35,9.40141e-16,-4.97187e-16,0.00523074,0.00523074,-0.00849415,0.0,0.0,0.0,0.00617751,0.0052444442044314865,0.0,0.0,0.0052444442044314865,0.0,-0.008458176634333125
27,0.015112,496.358,554.941,3.54439e-07,4.10336e-34,3.12283e-15,4.75038e-15,0.00622503,0.00622503,-0.0104259,0.0,0.0,0.0,0.00784272,0.006244445766251383,0.0,0.0,0.006244445766251383,0.0,-0.010371738694801236
28,0.017532,507.795,569.451,1.47329e-07,2.76444e-34,-7.23199e-16,2.782e-15,0.00721833,0.00721833,-0.0123625,0.0,0.0,0.0,0.00951723,0.007244444941601369,0.0,0.0,0.007244444941601369,0.0,-0.012286398222426276
29,0.019952,518.217,582.217,-7.65859e-08,3.71643e-34,2.16631e-15,1.63775e-15,0.00821065,0.00821065,-0.0143025,0.0,0.0,0.0,0.0111984,0.008244449829572176,0.0,0.0,0.008244449829572176,0.0,-0.014200705131782398
30,0.022372,527.773,593.652,-3.71761e-07,4.61572e-34,3.92423e-15,9.67296e-16,0.00920198,0.00920198,-0.0162447,0.0,0.0,0.0,0.0128846,0.009244448382409898,0.0,0.0,0.009244448382409898,0.0,-0.0161134664385032
31,0.024792,536.588,604.038,-6.90384e-07,3.25849e-34,-2.56122e-16,-4.60061e-15,0.0101923,0.0101923,-0.0181885,0.0,0.0,0.0,0.0145744,0.010244418407964417,0.0,0.0,0.010244418407964417,0.0,-0.01802408754819962
32,0.027212,544.765,613.572,-9.9899e-07,3.08734e-34,-1.64819e-16,-2.7624e-15,0.0111817,0.0111817,-0.0201331,0.0,0.0,0.0,0.016267,0.011244448869027979,0.0,0.0,0.011244448869027979,0.0,-0.019931782454638225
33,0.029632,552.387,622.398,-1.28192e-06,-4.1183e-35,-2.7704e-15,8.79064e-15,0.0121701,0.0121701,-0.0220782,0.0,0.0,0.0,0.0179617,0.012244457004898734,0.0,0.0,0.012244457004898734,0.0,-0.021836260344162084
34,0.032052,559.527,630.625,-1.53399e-06,-1.50614e-34,9.5847e-16,6.98714e-17,0.0131575,0.0131575,-0.0240235,0.0,0.0,0.0,0.0196579,0.013244440792496093,0.0,0.0,0.013244440792496093,0.0,-0.023737232686695253
35,0.034472,566.241,638.336,-1.75522e-06,3.01178e-34,3.27291e-15,2.67278e-15,0.0141439,0.0141439,-0.0259686,0.0,0.0,0.0,0.0213552,0.014244398206812336,0.0,0.0,0.014244398206812336,0.0,-0.025634315789104134
36,0.036892,572.58,645.6,-1.94791e-06,2.84424e-34,2.02717e-15,1.62376e-15,0.0151294,0.0151294,-0.0279133,0.0,0.0,0.0,0.0230533,0.015244428745356142,0.0,0.0,0.015244428745356142,0.0,-0.02752732347257758
37,0.039312,578.584,652.468,-2.11517e-06,2.68666e-34,1.25435e-15,9.84232e-16,0.0161139,0.0161139,-0.0298575,0.0,0.0,0.0,0.0247518,0.016244429054838472,0.0,0.0,0.016244429054838472,0.0,-0.029416168109438257
38,0.041732,584.289,658.986,-2.26021e-06,2.53832e-34,7.72903e-16,5.92649e-16,0.0170975,0.0170975,-0.0318011,0.0,0.0,0.0,0.0264506,0.017244498828943522,0.0,0.0,0.017244498828943522,0.0,-0.03130076280271066
39,0.044152,589.725,665.19,-2.38601e-06,2.39854e-34,4.71753e-16,3.51878e-16,0.01808,0.01808,-0.0337438,0.0,0.0,0.0,0.0281495,0.01824443268611331,0.0,0.0,0.01824443268611331,0.0,-0.033180828018173014
40,0.046572,594.918,671.111,-2.49524e-06,4.13974e-36,2.82644e-16,-2.48461e-15,0.0190616,0.0190616,-0.0356856,0.0,0.0,0.0,0.0298482,0.019244432140675505,0.0,0.0,0.019244432140675505,0.0,-0.035056375927535854
41,0.048992,599.888,676.777,-2.5902e-06,2.23149e-33,5.64926e-15,6.53029e-15,0.0200423,0.0200423,-0.0376264,0.0,0.0,0.0,0.0315466,0.02024449545617002,0.0,0.0,0.02024449545617002,0.0,-0.03692732235944285
42,0.051412,604.657,682.209,-2.67288e-06,1.22729e-33,8.15237e-16,-1.35151e-15,0.0210219,0.0210219,-0.0395661,0.0,0.0,0.0,0.0332447,0.02124441664535559,0.0,0.0,0.02124441664535559,0.0,-0.038793583853411695
43,0.053832,609.24,687.428,-2.74497e-06,1.83433e-33,4.96571e-16,4.56071e-15,0.0220006,0.0220006,-0.0415047,0.0,0.0,0.0,0.0349422,0.022244397816892914,0.0,0.0,0.022244397816892914,0.0,-0.04065517358980775
44,0.056252,613.653,692.45,-2.8079e-06,1.40764e-33,-2.47272e-15,5.56132e-15,0.0229784,0.0229784,-0.043442,0.0,0.0,0.0,0.0366392,0.02324443722866909,0.0,0.0,0.02324443722866909,0.0,-0.04251191321046299
45,0.058672,617.908,697.291,-2.86289e-06,1.78247e-33,3.94334e-15,7.44863e-16,0.0239552,0.0239552,-0.0453781,0.0,0.0,0.0,0.0383355,0.024244430712260456,0.0,0.0,0.024244430712260456,0.0,-0.044363912488879165
46,0.061092,622.017,701.965,-2.91097e-06,1.2467e-33,2.50659e-15,-2.29517e-15,0.0249311,0.0249311,-0.0473129,0.0,0.0,0.0,0.040031,0.02524447874626201,0.0,0.0,0.02524447874626201,0.0,-0.04621108965556986
47,0.063512,625.99,706.484,-2.95301e-06,1.63028e-33,1.58537e-15,1.26075e-15,0.025906,0.025906,-0.0492464,0.0,0.0,0.0,0.0417258,0.026244476958517948,0.0,0.0,0.026244476958517948,0.0,-0.048053458829359186
48,0.065932,629.837,710.857,-2.98977e-06,1.54877e-33,9.93126e-16,7.70277e-16,0.0268799,0.0268799,-0.0511784,0.0,0.0,0.0,0.0434197,0.02724442329946286,0.0,0.0,0.02724442329946286,0.0,-0.049890844061244555
49,0.068352,633.566,715.096,-3.02189e-06,1.47152e-33,6.11374e-16,4.59249e-16,0.0278529,0.0278529,-0.0531091,0.0,0.0,0.0,0.0451126,0.028244418542125116,0.0,0.0,0.028244418542125116,0.0,-0.05172345013307533
50,0.070772,637.184,719.208,-3.04992e-06,2.51511e-33,3.17148e-15,3.02268e-15,0.028825,0.028825,-0.0550384,0.0,0.0,0.0,0.0468046,0.02924446093324229,0.0,0.0,0.02924446093324229,0.0,-0.053551196378381904
51,0.073192,640.699,723.201,-3.07434e-06,2.39134e-33,2.02461e-15,1.8965e-15,0.0297961,0.0297961,-0.0569661,0.0,0.0,0.0,0.0484957,0.030244445693269784,0.0,0.0,0.030244445693269784,0.0,-0.05537390835175049
52,0.075612,644.116,727.082,-3.09555e-06,2.27388e-33,1.28037e-15,1.17746e-15,0.0307663,0.0307663,-0.0588924,0.0,0.0,0.0,0.0501856,0.03124447388971663,0.0,0.0,0.03124447388971663,0.0,-0.05719179013712683
53,0.078032,647.44,730.859,-3.1139e-06,2.16237e-33,7.96297e-16,7.17288e-16,0.0317355,0.0317355,-0.0608172,0.0,0.0,0.0,0.0518745,0.032244440539372476,0.0,0.0,0.032244440539372476,0.0,-0.0590047620156019
54,0.080452,650.678,734.536,-3.12972e-06,2.05646e-33,4.80714e-16,4.2208e-16,0.0327038,0.0327038,-0.0627405,0.0,0.0,0.0,0.0535623,0.03324444690609507,0.0,0.0,0.03324444690609507,0.0,-0.06081283886236544
55,0.082872,653.834,738.119,-3.14326e-06,2.51482e-33,2.74496e-16,3.02228e-15,0.0336712,0.0336712,-0.0646622,0.0,0.0,0.0,0.055249,0.03424449122747819,0.0,0.0,0.03424449122747819,0.0,-0.06261594176360652
56,0.085292,656.912,741.614,-3.15477e-06,6.75567e-33,5.82045e-15,1.02936e-14,0.0346376,0.0346376,-0.0665824,0.0,0.0,0.0,0.0569346,0.03524446821485494,0.0,0.0,0.03524446821485494,0.0,-0.0644141795915596
57,0.087712,659.916,745.024,-3.16444e-06,4.86842e-33,3.77726e-15,1.00062e-15,0.0356031,0.0356031,-0.068501,0.0,0.0,0.0,0.0586189,0.03624447942664566,0.0,0.0,0.03624447942664566,0.0,-0.06620747368947033
58,0.090132,662.85,748.354,-3.17247e-06,3.85361e-33,2.43541e-15,-2.2124e-15,0.0365676,0.0365676,-0.0704181,0.0,0.0,0.0,0.0603021,0.037244419370573656,0.0,0.0,0.037244419370573656,0.0,-0.06799593246674329
59,0.092552,665.717,751.608,-3.17902e-06,3.67003e-33,1.55246e-15,-1.48841e-15,0.0375313,0.0375313,-0.0723336,0.0,0.0,0.0,0.061984,0.038244493625901876,0.0,0.0,0.038244493625901876,0.0,-0.06977947752248626
60,0.094972,668.52,754.79,-3.18422e-06,4.2788e-33,9.70374e-16,1.79648e-15,0.038494,0.038494,-0.0742474,0.0,0.0,0.0,0.0636648,0.03924449287232035,0.0,0.0,0.03924449287232035,0.0,-0.07155803111761994
61,0.097392,671.263,757.902,-3.18821e-06,4.85962e-33,5.85886e-16,3.93638e-15,0.0394557,0.0394557,-0.0761597,0.0,0.0,0.0,0.0653443,0.04024441503662213,0.0,0.0,0.04024441503662213,0.0,-0.07333179417063262
62,0.099812,673.948,760.949,-3.19109e-06,4.6301e-33,3.31418e-16,2.5095e-15,0.0404166,0.0404166,-0.0780704,0.0,0.0,0.0,0.0670225,0.041244466292708726,0.0,0.0,0.041244466292708726,0.0,-0.0751006886600073
63,0.1022,676.577,763.932,-3.19297e-06,3.29085e-33,3.03676e-15,-4.08003e-15,0.0413765,0.0413765,-0.0799794,0.0,0.0,0.0,0.0686994,0.042244436714925504,0.0,0.0,0.042244436714925504,0.0,-0.07686463722076042
64,0.1047,679.154,766.854,-3.19393e-06,3.13312e-33,-9.20826e-16,1.07979e-16,0.0423355,0.0423355,-0.0818869,0.0,0.0,0.0,0.0703751,0.043244428549180425,0.0,0.0,0.043244428549180425,0.0,-0.07862383955262497
65,0.1071,681.68,769.719,-3.19406e-06,1.74969e-33,2.21026e-15,-5.6627e-15,0.0432936,0.0432936,-0.0837927,0.0,0.0,0.0,0.0720495,0.044244440015168696,0.0,0.0,0.044244440015168696,0.0,-0.0803781260486286
66,0.1095,684.156,772.529,-3.19343e-06,4.35149e-33,1.41115e-15,4.76014e-15,0.0442508,0.0442508,-0.0856968,0.0,0.0,0.0,0.0737225,0.04524446933082715,0.0,0.0,0.04524446933082715,0.0,-0.08212751202735113
67,0.1119,686.587,775.285,-3.19211e-06,6.16341e-33,3.76954e-15,5.91903e-15,0.045207,0.045207,-0.0875994,0.0,0.0,0.0,0.0753943,0.046244410087888266,0.0,0.0,0.046244410087888266,0.0,-0.08387219597882822
68,0.1143,688.972,777.99,-3.19015e-06,4.08258e-33,-4.43065e-16,9.8255e-16,0.0461624,0.0461624,-0.0895002,0.0,0.0,0.0,0.0770647,0.04724446964966855,0.0,0.0,0.04724446964966855,0.0,-0.0856119177533301
69,0.1168,691.314,780.646,-3.18761e-06,3.88954e-33,-3.63796e-16,5.84119e-16,0.0471168,0.0471168,-0.0913995,0.0,0.0,0.0,0.0787338,0.048244436879960606,0.0,0.0,0.048244436879960606,0.0,-0.08734696682701237
70,0.1192,693.614,783.254,-3.18453e-06,3.70532e-33,-3.10947e-16,3.21256e-16,0.0480703,0.0480703,-0.0932971,0.0,0.0,0.0,0.0804015,0.04924441461414841,0.0,0.0,0.04924441461414841,0.0,-0.08907717508197877
71,0.1216,695.875,785.817,-3.18096e-06,7.11869e-33,-2.7573e-16,1.15994e-14,0.0490229,0.0490229,-0.095193,0.0,0.0,0.0,0.0820679,0.05024440106143513,0.0,0.0,0.05024440106143513,0.0,-0.09080255757259414
72,0.124,698.096,788.336,-3.17694e-06,4.7704e-33,2.65866e-15,-9.99636e-16,0.0499747,0.0499747,-0.0970873,0.0,0.0,0.0,0.083733,0.05124449955373711,0.0,0.0,0.05124449955373711,0.0,-0.09252322004778968
73,0.1264,700.281,790.813,-3.1725e-06,8.58523e-33,1.71933e-15,1.07446e-14,0.0509255,0.0509255,-0.0989799,0.0,0.0,0.0,0.0853967,0.052244498147909324,0.0,0.0,0.052244498147909324,0.0,-0.09423908636505429
74,0.1289,702.429,793.249,-3.16768e-06,4.71185e-33,4.00528e-15,-4.45363e-15,0.0518753,0.0518753,-0.100871,0.0,0.0,0.0,0.087059,0.05324439474797682,0.0,0.0,0.05324439474797682,0.0,-0.09595035223139547
75,0.1313,704.543,795.645,-3.16251e-06,5.15935e-33,-3.21759e-15,8.47102e-15,0.0528243,0.0528243,-0.10276,0.0,0.0,0.0,0.08872,0.05424439810513504,0.0,0.0,0.05424439810513504,0.0,-0.09765649006151234
76,0.1337,706.624,798.003,-3.15701e-06,3.00165e-33,6.53086e-15,-5.98173e-15,0.0537724,0.0537724,-0.104648,0.0,0.0,0.0,0.0903796,0.05524440119553553,0.0,0.0,0.05524440119553553,0.0,-0.09935850739833418
77,0.1361,708.672,800.325,-3.15121e-06,1.83652e-33,1.40828e-15,-4.06968e-15,0.0547196,0.0547196,-0.106534,0.0,0.0,0.0,0.0920378,0.05624440221806659,0.0,0.0,0.05624440221806659,0.0,-0.10105551647080435
78,0.1385,710.688,802.61,-3.14514e-06,6.89937e-33,6.73815e-15,2.98197e-15,0.0556659,0.0556659,-0.108418,0.0,0.0,0.0,0.0936946,0.057244399369914545,0.0,0.0,0.057244399369914545,0.0,-0.10274753349725618
79,0.141,712.674,804.861,-3.13881e-06,3.88101e-33,4.48036e-15,-3.87806e-15,0.0566114,0.0566114,-0.110301,0.0,0.0,0.0,0.09535,0.05824449667101317,0.0,0.0,0.05824449667101317,0.0,-0.10443547020053323
80,0.1434,714.631,807.079,-3.13225e-06,4.92404e-33,9.68027e-18,3.11772e-15,0.0575559,0.0575559,-0.112182,0.0,0.0,0.0,0.0970041,0.05924448076626909,0.0,0.0,0.05924448076626909,0.0,-0.10611844374824508
81,0.1458,716.559,809.264,-3.12546e-06,3.7864e-33,5.80044e-15,-3.79593e-15,0.0584995,0.0584995,-0.114061,0.0,0.0,0.0,0.0986568,0.06024445557223701,0.0,0.0,0.06024445557223701,0.0,-0.10779647019288852
82,0.1482,718.459,811.418,-3.11848e-06,3.59658e-33,3.84794e-15,-2.62468e-15,0.0594422,0.0594422,-0.115939,0.0,0.0,0.0,0.100308,0.06124441927934421,0.0,0.0,0.06124441927934421,0.0,-0.10947045605714334
83,0.1506,720.333,813.541,-3.11131e-06,3.41491e-33,2.51907e-15,-1.83963e-15,0.0603841,0.0603841,-0.117815,0.0,0.0,0.0,0.101958,0.062244476300782114,0.0,0.0,0.062244476300782114,0.0,-0.11113952340689981
84,0.1531,722.18,815.634,-3.10397e-06,3.46548e-33,-1.33892e-15,1.59614e-15,0.061325,0.061325,-0.119689,0.0,0.0,0.0,0.103606,0.06324441247473667,0.0,0.0,0.06324441247473667,0.0,-0.11280368813066077
85,0.1555,724.003,817.699,-3.09647e-06,5.98705e-33,1.93939e-15,3.90627e-15,0.0622651,0.0622651,-0.121562,0.0,0.0,0.0,0.105254,0.06424443853550321,0.0,0.0,0.06424443853550321,0.0,-0.11446385159436956
86,0.1579,725.8,819.736,-3.08882e-06,5.7035e-33,1.22008e-15,2.54622e-15,0.0632043,0.0632043,-0.123433,0.0,0.0,0.0,0.106899,0.06524444644238003,0.0,0.0,0.06524444644238003,0.0,-0.11611914072217622
87,0.1603,727.574,821.746,-3.08104e-06,2.95879e-33,-2.23361e-15,-1.28847e-15,0.0641426,0.0641426,-0.125302,0.0,0.0,0.0,0.108543,0.06624443437745042,0.0,0.0,0.06624443437745042,0.0,-0.11776957124041232
88,0.1627,729.325,823.729,-3.07313e-06,2.80383e-33,-1.63326e-15,-9.53714e-16,0.06508,0.06508,-0.12717,0.0,0.0,0.0,0.110186,0.06724440052114344,0.0,0.0,0.06724440052114344,0.0,-0.11941603940130419
89,0.1652,731.052,825.687,-3.06511e-06,2.65536e-33,-1.22231e-15,-7.27965e-16,0.0660166,0.0660166,-0.129036,0.0,0.0,0.0,0.111828,0.06824444987667944,0.0,0.0,0.06824444987667944,0.0,-0.12105767694760816
90,0.1676,732.758,827.619,-3.05698e-06,3.63785e-33,2.03004e-15,-5.75626e-16,0.0669523,0.0669523,-0.1309,0.0,0.0,0.0,0.113468,0.0692444739967506,0.0,0.0,0.0692444739967506,0.0,-0.12269449944528221
91,0.17,734.443,829.527,-3.04875e-06,4.91664e-33,1.28917e-15,2.45792e-15,0.0678871,0.0678871,-0.132763,0.0,0.0,0.0,0.115107,0.07024447105684795,0.0,0.0,0.07024447105684795,0.0,-0.12432739807545723
92,0.1724,736.106,831.412,-3.04043e-06,9.67476e-34,-2.19671e-15,-4.28837e-15,0.068821,0.068821,-0.134624,0.0,0.0,0.0,0.116744,0.07124443923082846,0.0,0.0,0.07124443923082846,0.0,-0.12595550936019906
93,0.1748,737.749,833.273,-3.03203e-06,8.95762e-34,-1.61542e-15,-2.98946e-15,0.0697541,0.0697541,-0.136483,0.0,0.0,0.0,0.11838,0.07224448391536265,0.0,0.0,0.07224448391536265,0.0,-0.12757884870686997
94,0.1773,739.372,835.112,-3.02356e-06,8.2697e-34,-1.2155e-15,-2.10839e-15,0.0706863,0.0706863,-0.138341,0.0,0.0,0.0,0.120014,0.07324449625660368,0.0,0.0,0.07324449625660368,0.0,-0.12919830226772966
95,0.1797,740.976,836.929,-3.01501e-06,7.6097e-34,-9.40166e-16,-1.5102e-15,0.0716176,0.0716176,-0.140197,0.0,0.0,0.0,0.121647,0.07424447442352577,0.0,0.0,0.07424447442352577,0.0,-0.1308130113052135
96,0.1821,742.562,838.725,-3.58758e-06,6.32679e-33,5.22543e-15,4.78652e-15,0.072548,0.072548,-0.142051,0.0,0.0,0.0,0.123279,0.07524441658348935,0.0,0.0,0.07524441658348935,0.0,-0.13242299106984456
97,0.1845,744.128,840.499,-2.99084e-06,3.44599e-33,5.10449e-16,2.28281e-16,0.0734776,0.0734776,-0.143904,0.0,0.0,0.0,0.124909,0.07624442852668256,0.0,0.0,0.07624442852668256,0.0,-0.13402912272684275
98,0.1869,745.677,842.253,-2.98223e-06,-3.29189e-34,-2.74815e-15,-5.82767e-15,0.0744063,0.0744063,-0.145755,0.0,0.0,0.0,0.126538,0.07724440099279839,0.0,0.0,0.07724440099279839,0.0,-0.13563055224042564
99,0.1894,747.208,843.988,-2.97358e-06,6.86139e-33,3.98589e-15,4.80982e-15,0.0753342,0.0753342,-0.147605,0.0,0.0,0.0,0.128165,0.07824443996881003,0.0,0.0,0.07824443996881003,0.0,-0.13722815747828565
100,0.1918,748.722,845.703,-2.96489e-06,2.45011e-34,2.65035e-15,-8.62328e-15,0.0762612,0.0762612,-0.149453,0.0,0.0,0.0,0.129791,0.07924443599120679,0.0,0.0,0.07924443599120679,0.0,-0.13882108752256983
101,0.1942,750.22,847.398,-2.95615e-06,6.40015e-33,4.72618e-15,2.912e-15,0.0771874,0.0771874,-0.151299,0.0,0.0,0.0,0.131416,0.08024449524377042,0.0,0.0,0.08024449524377042,0.0,-0.1404093573709021
102,0.1966,751.701,849.076,-2.94737e-06,3.5199e-33,1.57664e-16,-1.04725e-15,0.0781126,0.0781126,-0.153143,0.0,0.0,0.0,0.133039,0.08124439993535426,0.0,0.0,0.08124439993535426,0.0,-0.14199298196529608
103,0.199,753.166,850.735,-2.93856e-06,7.96635e-33,2.99953e-15,5.13552e-15,0.0790371,0.0790371,-0.154986,0.0,0.0,0.0,0.134661,0.0822444725954512,0.0,0.0,0.0822444725954512,0.0,-0.14357283261997256
104,0.2015,754.615,852.376,-2.92972e-06,7.61391e-33,1.96445e-15,3.43663e-15,0.0799607,0.0799607,-0.156827,0.0,0.0,0.0,0.136281,0.08324449532975087,0.0,0.0,0.08324449532975087,0.0,-0.14514806458918283
105,0.2039,756.049,854.0,-2.92085e-06,5.58552e-33,1.24452e-15,-6.97389e-16,0.0808834,0.0808834,-0.158667,0.0,0.0,0.0,0.1379,0.08424446629124893,0.0,0.0,0.08424446629124893,0.0,-0.14671954594412495
106,0.2063,757.468,855.608,-2.91196e-06,3.29935e-33,6.7717e-15,-6.50569e-15,0.0818053,0.0818053,-0.160505,0.0,0.0,0.0,0.139518,0.0852444921558182,0.0,0.0,0.0852444921558182,0.0,-0.1482864350065204
107,0.2087,758.873,857.198,-2.90304e-06,4.25903e-33,-1.44597e-15,1.40325e-15,0.0827263,0.0827263,-0.162341,0.0,0.0,0.0,0.141134,0.08624446274886743,0.0,0.0,0.08624446274886743,0.0,-0.14984874647105806
108,0.2111,760.263,858.772,-2.89411e-06,2.36254e-33,-1.13576e-15,-2.09204e-15,0.0836465,0.0836465,-0.164176,0.0,0.0,0.0,0.142748,0.08724448494313486,0.0,0.0,0.08724448494313486,0.0,-0.15140734357109897
109,0.2136,761.639,860.331,-2.88516e-06,3.92323e-33,-9.19563e-16,1.4624e-15,0.0845658,0.0845658,-0.166009,0.0,0.0,0.0,0.144362,0.08824444836090461,0.0,0.0,0.08824444836090461,0.0,-0.15296138919240265
110,0.216,763.001,861.873,-2.8762e-06,6.77471e-33,2.25518e-15,3.90909e-15,0.0854843,0.0854843,-0.16784,0.0,0.0,0.0,0.145974,0.08924446007179787,0.0,0.0,0.08924446007179787,0.0,-0.1545108978806854
111,0.2184,764.35,863.401,-2.86723e-06,3.65055e-33,-1.57979e-15,-3.74054e-16,0.0864019,0.0864019,-0.16967,0.0,0.0,0.0,0.147584,0.09024440949499302,0.0,0.0,0.09024440949499302,0.0,-0.1560567280715366
112,0.2208,765.686,864.913,-2.85825e-06,3.46893e-33,-1.23275e-15,-3.40836e-16,0.0873187,0.0873187,-0.171498,0.0,0.0,0.0,0.149193,0.09124440389700861,0.0,0.0,0.09124440389700861,0.0,-0.15759804717775494
113,0.2232,767.009,866.411,-2.84926e-06,4.98583e-33,-9.90074e-16,2.67103e-15,0.0882347,0.0882347,-0.173324,0.0,0.0,0.0,0.150801,0.09224444171837654,0.0,0.0,0.09224444171837654,0.0,-0.15913486959772316
114,0.2257,768.319,867.895,-2.84027e-06,3.05954e-33,-8.20302e-16,-1.23212e-15,0.0891498,0.0891498,-0.175149,0.0,0.0,0.0,0.152408,0.09324441207364731,0.0,0.0,0.09324441207364731,0.0,-0.16066804900895737
115,0.2281,769.617,869.364,-2.83128e-06,4.59251e-33,-7.01501e-16,2.0577e-15,0.0900641,0.0900641,-0.176973,0.0,0.0,0.0,0.154012,0.09424442252472098,0.0,0.0,0.09424442252472098,0.0,-0.16219759511745047
116,0.2305,770.902,870.82,-2.82228e-06,2.68128e-33,-6.18363e-16,-1.65931e-15,0.0909776,0.0909776,-0.178794,0.0,0.0,0.0,0.155616,0.0952444715075269,0.0,0.0,0.0952444715075269,0.0,-0.16372184504597542
117,0.2329,772.176,872.262,-2.81329e-06,-8.47252e-34,-5.60197e-16,-7.23094e-15,0.0918902,0.0918902,-0.180614,0.0,0.0,0.0,0.157218,0.09624444783201991,0.0,0.0,0.09624444783201991,0.0,-0.16524248708398925
118,0.2353,773.438,873.691,-2.8043e-06,-8.53424e-34,-5.19531e-16,-5.08889e-15,0.092802,0.092802,-0.182433,0.0,0.0,0.0,0.158819,0.09724445935552417,0.0,0.0,0.09724445935552417,0.0,-0.16675953083040185
119,0.2378,774.689,875.106,-2.79531e-06,8.32988e-34,-4.91135e-16,-6.00455e-16,0.0937129,0.0937129,-0.184249,0.0,0.0,0.0,0.160418,0.09824439468495627,0.0,0.0,0.09824439468495627,0.0,-0.1682713224001957
120,0.2402,775.928,876.509,-2.78633e-06,2.45369e-33,-4.71351e-16,2.51367e-15,0.0946231,0.0946231,-0.186065,0.0,0.0,0.0,0.162016,0.09924447179904927,0.0,0.0,0.09924447179904927,0.0,-0.16978037104782606
121,0.242,776.857,877.561,-1.17968e-06,-1.06717e-33,-4.60125e-16,-4.67792e-15,0.0953102,0.0953102,-0.187435,0.0,0.0,0.0,0.163223,0.10000002221524285,0.0,0.0,0.10000002221524285,0.0,-0.1709169931755561
