,Time,S11,S22,S33,S12,S13,S23,LE11,LE22,LE33,LE12,LE13,LE23,SDV_EPBAR,E11,E12,E13,E22,E23,E33
0,2.42e-07,0.029678,0.029678,1.04083e-17,0.0,0.0,0.0,1e-07,1e-07,-8.57143e-08,0.0,0.0,0.0,0.0,1.0000000494336803e-07,0.0,0.0,1.0000000494336803e-07,0.0,-8.571429632731054e-08
1,4.84e-07,0.059356,0.059356,3.46945e-18,0.0,0.0,0.0,2e-07,2e-07,-1.71429e-07,0.0,0.0,0.0,0.0,2.0000002010078788e-07,0.0,0.0,2.0000002010078788e-07,0.0,-1.7142898534050488e-07
2,8.47e-07,0.103873,0.103873,3.46945e-18,0.0,0.0,0.0,3.5e-07,3.5e-07,-3e-07,0.0,0.0,0.0,0.0,3.5000006115559756e-07,0.0,0.0,3.5000006115559756e-07,0.0,-2.9999995498908305e-07
3,1.3915e-06,0.170648,0.170648,-1.73472e-17,0.0,0.0,0.0,5.75e-07,5.75e-07,-4.92857e-07,0.0,0.0,0.0,0.0,5.750001652593539e-07,0.0,0.0,5.750001652593539e-07,0.0,-4.928568785311782e-07
4,2.2083e-06,0.270812,0.270812,-3.46945e-18,0.0,0.0,0.0,9.125e-07,9.125e-07,-7.82142e-07,0.0,0.0,0.0,0.0,9.125004163390571e-07,0.0,0.0,9.125004163390571e-07,0.0,-7.821416940778647e-07
5,3.4334e-06,0.421056,0.421056,5.20417e-17,0.0,0.0,0.0,1.41875e-06,1.41875e-06,-1.21607e-06,0.0,0.0,0.0,0.0,1.4187510064544995e-06,0.0,0.0,1.4187510064544995e-06,0.0,-1.2160692606233425e-06
6,5.2711e-06,0.646423,0.646423,2.42861e-17,0.0,0.0,0.0,2.17812e-06,2.17812e-06,-1.86696e-06,0.0,0.0,0.0,0.0,2.178122372020752e-06,0.0,0.0,2.178122372020752e-06,0.0,-1.8669582572128363e-06
7,8.0276e-06,0.984473,0.984473,1.35308e-16,0.0,0.0,0.0,3.31718e-06,3.31718e-06,-2.8433e-06,0.0,0.0,0.0,0.0,3.317185501838793e-06,0.0,0.0,3.317185501838793e-06,0.0,-2.8432959577884276e-06
8,1.2162e-05,1.49155,1.49155,4.68375e-16,0.0,0.0,0.0,5.02577e-06,5.02577e-06,-4.3078e-06,0.0,0.0,0.0,0.0,5.025782629175524e-06,0.0,0.0,5.025782629175524e-06,0.0,-4.307790721469473e-06
9,1.8365e-05,2.25216,2.25216,3.57353e-16,0.0,0.0,0.0,7.58864e-06,7.58864e-06,-6.50455e-06,0.0,0.0,0.0,0.0,7.5886687938009345e-06,0.0,0.0,7.5886687938009345e-06,0.0,-6.50452884543018e-06
10,2.7668e-05,3.39307,3.39307,-3.08781e-16,0.0,0.0,0.0,1.14329e-05,1.14329e-05,-9.79967e-06,0.0,0.0,0.0,0.0,1.1432965355773206e-05,0.0,0.0,1.1432965355773206e-05,0.0,-9.799621983441753e-06
11,4.1623e-05,5.10443,5.10443,-7.5287e-16,0.0,0.0,-1.23207e-38,1.71994e-05,1.71994e-05,-1.47423e-05,0.0,0.0,0.0,0.0,1.7199547910573543e-05,0.0,0.0,1.7199547910573543e-05,0.0,-1.4742191332794974e-05
12,6.2555e-05,7.67145,7.67145,-1.64105e-15,0.0,0.0,-2.77213e-38,2.58489e-05,2.58489e-05,-2.21562e-05,0.0,0.0,0.0,0.0,2.5849234085661976e-05,0.0,0.0,2.5849234085661976e-05,0.0,-2.2155954553237933e-05
13,9.3954e-05,11.5219,11.5219,-8.30239e-15,0.0,0.0,-6.23724e-38,3.88231e-05,3.88231e-05,-3.3277e-05,0.0,0.0,0.0,0.0,3.882385362641294e-05,0.0,0.0,3.882385362641294e-05,0.0,-3.327644632677984e-05
14,0.00014105,17.2976,17.2976,-4.47177e-14,0.0,0.0,-1.40336e-37,5.82842e-05,5.82842e-05,-4.99578e-05,0.0,0.0,0.0,0.0,5.828589855694233e-05,0.0,0.0,5.828589855694233e-05,0.0,-4.995655212991501e-05
15,0.0002117,25.9608,25.9608,-2.25018e-13,0.0,0.0,-3.1575e-37,8.7475e-05,8.7475e-05,-7.49785e-05,0.0,0.0,0.0,0.0,8.747882604942525e-05,0.0,0.0,8.747882604942525e-05,0.0,-7.4975689182466e-05
16,0.00031767,38.9552,38.9552,-1.14339e-12,0.0,0.0,-7.10416e-37,0.00013126,0.00013126,-0.000112508,0.0,0.0,0.0,0.0,0.0001312686149708142,0.0,0.0,0.0001312686149708142,0.0,-0.00011250167121223953
17,0.00047662,58.4457,58.4457,-5.85252e-12,0.0,0.0,-1.59836e-36,0.000196933,0.000196933,-0.0001688,0.0,0.0,0.0,0.0,0.00019695239257622177,0.0,0.0,0.00019695239257622177,0.0,-0.00016878575408152408
18,0.00071506,87.6791,87.6791,-2.95989e-11,0.0,0.0,-3.59607e-36,0.000295435,0.000295435,-0.00025323,0.0,0.0,0.0,0.0,0.00029547864521761724,0.0,0.0,0.00029547864521761724,0.0,-0.00025319793998968
19,0.0010727,131.524,131.524,-1.49709e-10,0.0,0.0,-8.09034e-36,0.000443169,0.000443169,-0.000379859,0.0,0.0,0.0,0.0,0.0004432672138892091,0.0,0.0,0.0004432672138892091,0.0,-0.0003797868627043455
20,0.0016092,197.279,197.279,-7.57628e-10,0.0,0.0,-1.82005e-35,0.00066473,0.00066473,-0.000569769,0.0,0.0,0.0,0.0,0.0006649509819482979,0.0,0.0,0.0006649509819482979,0.0,-0.0005696067124669746
21,0.0024139,295.884,295.884,-3.83263e-09,0.0,0.0,-4.09417e-35,0.00099698,0.00099698,-0.000854554,0.0,0.0,0.0,0.0,0.0009974771497625046,0.0,0.0,0.0009974771497625046,0.0,-0.0008541889727163854
22,0.003621,399.503,395.252,0.0160606,0.0,0.0,2.83789e-32,0.00149515,0.00149515,-0.00146002,0.0,0.0,0.0,0.000257404,0.0014962682940309335,0.0,0.0,0.0014962682940309335,0.0,-0.0014589546893211125
23,0.0054316,428.523,410.924,0.0641314,0.0,0.0,5.48872e-32,0.00224193,0.00224193,-0.00286745,0.0,0.0,0.0,0.00136437,0.0022444450041991804,0.0,0.0,0.0022444450041991804,0.0,-0.0028633427919244614
24,0.0078516,457.809,427.747,4.59167e-05,2.24201e-34,2.55217e-15,2.50384e-15,0.0032392,0.0032392,-0.00477332,0.0,0.0,0.0,0.00288083,0.003244451877416177,0.0,0.0,0.003244451877416177,0.0,-0.004761945812830293
25,0.010272,480.68,441.789,6.12505e-06,-1.22373e-34,-1.06189e-15,6.51764e-15,0.00423547,0.00423547,-0.00669478,0.0,0.0,0.0,0.0044221,0.004244452279975608,0.0,0.0,0.004244452279975608,0.0,-0.006672419886881165
26,0.012692,499.303,454.038,7.70531e-07,2.1873e-34,1.9614e-15,3.83026e-15,0.00523074,0.00523074,-0.0086259,0.0,0.0,0.0,0.00597913,0.0052444442044314865,0.0,0.0,0.0052444442044314865,0.0,-0.008588803664316913
27,0.015112,514.971,464.998,2.42313e-07,2.07821e-34,3.80542e-15,-3.13943e-16,0.00622503,0.00622503,-0.0105632,0.0,0.0,0.0,0.00754676,0.006244445766251383,0.0,0.0,0.006244445766251383,0.0,-0.01050760532762074
28,0.017532,528.491,474.949,5.13842e-08,-2.64757e-35,2.31208e-15,-2.79796e-15,0.00721833,0.00721833,-0.0125046,0.0,0.0,0.0,0.00912185,0.007244444941601369,0.0,0.0,0.007244444941601369,0.0,-0.012426742353552345
29,0.019952,540.396,484.073,-2.27319e-07,1.43118e-33,4.0674e-15,6.13612e-15,0.00821065,0.00821065,-0.0144488,0.0,0.0,0.0,0.0107023,0.008244449829572176,0.0,0.0,0.008244449829572176,0.0,-0.014344917019264658
30,0.022372,551.047,492.498,-5.57384e-07,6.95062e-34,-2.855e-15,-1.55337e-15,0.00920198,0.00920198,-0.0163947,0.0,0.0,0.0,0.0122868,0.009244448382409898,0.0,0.0,0.009244448382409898,0.0,-0.016261038350367407
31,0.024792,560.701,500.321,-8.89153e-07,1.67475e-33,3.59461e-15,1.67717e-15,0.0101923,0.0101923,-0.0183417,0.0,0.0,0.0,0.0138742,0.010244418407964417,0.0,0.0,0.010244418407964417,0.0,-0.018174514734970337
32,0.027212,569.544,507.622,-1.19719e-06,1.48895e-33,-4.77396e-16,6.32382e-15,0.0111817,0.0111817,-0.0202894,0.0,0.0,0.0,0.0154638,0.011244448869027979,0.0,0.0,0.011244448869027979,0.0,-0.020084955146283057
33,0.029632,577.715,514.462,-1.47219e-06,1.42405e-33,-3.1639e-16,3.8713e-15,0.0121701,0.0121701,-0.0222373,0.0,0.0,0.0,0.0170549,0.012244457004898734,0.0,0.0,0.012244457004898734,0.0,-0.021991873815761176
34,0.032052,585.319,520.896,-1.71288e-06,1.02496e-33,2.51354e-15,-3.00048e-15,0.0131575,0.0131575,-0.0241851,0.0,0.0,0.0,0.0186473,0.013244440792496093,0.0,0.0,0.013244440792496093,0.0,-0.023894984003243303
35,0.034472,592.437,526.969,-1.92151e-06,6.4347e-34,-1.16993e-15,-1.8958e-15,0.0141439,0.0141439,-0.0261326,0.0,0.0,0.0,0.0202404,0.014244398206812336,0.0,0.0,0.014244398206812336,0.0,-0.025794098658761255
36,0.036892,599.134,532.718,-2.10157e-06,5.02945e-34,1.99012e-15,-3.91684e-15,0.0151294,0.0151294,-0.0280795,0.0,0.0,0.0,0.021834,0.015244428745356142,0.0,0.0,0.015244428745356142,0.0,-0.02768893500112657
37,0.039312,605.463,538.177,-2.25678e-06,1.83041e-33,4.01022e-15,2.9525e-15,0.0161139,0.0161139,-0.0300258,0.0,0.0,0.0,0.0234278,0.016244429054838472,0.0,0.0,0.016244429054838472,0.0,-0.029579503623276326
38,0.041732,611.466,543.374,-2.3906e-06,1.30311e-33,-2.3061e-16,1.83121e-15,0.0170975,0.0170975,-0.0319713,0.0,0.0,0.0,0.0250217,0.017244498828943522,0.0,0.0,0.017244498828943522,0.0,-0.03146562138301834
39,0.044152,617.178,548.334,-2.50612e-06,4.51205e-33,5.38852e-15,9.33183e-15,0.01808,0.01808,-0.0339159,0.0,0.0,0.0,0.0266156,0.01824443268611331,0.0,0.0,0.01824443268611331,0.0,-0.0333472032806692
40,0.046572,622.629,553.077,-2.60601e-06,3.53769e-33,6.49981e-16,5.87199e-15,0.0190616,0.0190616,-0.0358595,0.0,0.0,0.0,0.0282091,0.019244432140675505,0.0,0.0,0.019244432140675505,0.0,-0.03522416503407633
41,0.048992,627.843,557.623,-2.69253e-06,1.92997e-33,-2.40964e-15,-4.57111e-15,0.0200423,0.0200423,-0.037802,0.0,0.0,0.0,0.0298023,0.02024449545617002,0.0,0.0,0.02024449545617002,0.0,-0.03709642307415928
42,0.051412,632.843,561.988,-2.76758e-06,1.51446e-33,-1.5902e-15,-5.71423e-15,0.0210219,0.0210219,-0.0397433,0.0,0.0,0.0,0.031395,0.02124441664535559,0.0,0.0,0.02124441664535559,0.0,-0.038963894540380184
43,0.053832,637.646,566.187,-2.83279e-06,2.3553e-33,1.75298e-15,-9.18659e-16,0.0220006,0.0220006,-0.0416834,0.0,0.0,0.0,0.0329871,0.022244397816892914,0.0,0.0,0.022244397816892914,0.0,-0.04082659319348958
44,0.056252,642.269,570.232,-2.88951e-06,1.81065e-33,1.11204e-15,-3.39858e-15,0.0229784,0.0229784,-0.0436222,0.0,0.0,0.0,0.0345786,0.02324443722866909,0.0,0.0,0.02324443722866909,0.0,-0.042684437018840615
45,0.058672,646.726,574.134,-2.93889e-06,2.18965e-33,6.95166e-16,5.68616e-16,0.0239552,0.0239552,-0.0455598,0.0,0.0,0.0,0.0361694,0.024244430712260456,0.0,0.0,0.024244430712260456,0.0,-0.04453753579182518
46,0.061092,651.029,577.905,-2.98188e-06,3.00464e-33,4.23226e-16,5.91463e-15,0.0249311,0.0249311,-0.0474959,0.0,0.0,0.0,0.0377594,0.02524447874626201,0.0,0.0,0.02524447874626201,0.0,-0.04638561705641864
47,0.063512,655.19,581.553,-3.01932e-06,1.98381e-33,2.45312e-16,-1.81238e-15,0.025906,0.025906,-0.0494307,0.0,0.0,0.0,0.0393486,0.026244476958517948,0.0,0.0,0.026244476958517948,0.0,-0.04822888641074885
48,0.065932,659.217,585.086,-3.05189e-06,2.35677e-33,1.28562e-16,1.59422e-15,0.0268799,0.0268799,-0.051364,0.0,0.0,0.0,0.0409369,0.02724442329946286,0.0,0.0,0.02724442329946286,0.0,-0.05006716795722321
49,0.068352,663.121,588.512,-3.08019e-06,2.71535e-33,5.17065e-17,3.80579e-15,0.0278529,0.0278529,-0.0532959,0.0,0.0,0.0,0.0425243,0.028244418542125116,0.0,0.0,0.028244418542125116,0.0,-0.05190057164892581
50,0.070772,666.909,591.837,-3.10474e-06,1.93204e-33,-2.85969e-15,2.43204e-15,0.028825,0.028825,-0.0552264,0.0,0.0,0.0,0.0441108,0.02924446093324229,0.0,0.0,0.02924446093324229,0.0,-0.05372911202886754
51,0.073192,670.587,595.068,-3.12597e-06,1.96895e-33,9.4351e-16,-1.28204e-15,0.0297961,0.0297961,-0.0571553,0.0,0.0,0.0,0.0456962,0.030244445693269784,0.0,0.0,0.030244445693269784,0.0,-0.05555261470213657
52,0.075612,674.164,598.21,-3.14426e-06,1.89175e-33,5.94078e-16,-8.80418e-16,0.0307663,0.0307663,-0.0590827,0.0,0.0,0.0,0.0472806,0.03124447388971663,0.0,0.0,0.03124447388971663,0.0,-0.057371189469075934
53,0.078032,677.643,601.268,-3.15994e-06,2.26926e-33,3.62423e-16,2.21453e-15,0.0317355,0.0317355,-0.0610086,0.0,0.0,0.0,0.048864,0.032244440539372476,0.0,0.0,0.032244440539372476,0.0,-0.05918485126906081
54,0.080452,681.032,604.247,-3.17329e-06,2.18086e-33,2.08487e-16,1.40612e-15,0.0327038,0.0327038,-0.0629329,0.0,0.0,0.0,0.0504463,0.03324444690609507,0.0,0.0,0.03324444690609507,0.0,-0.060993521089980796
55,0.082872,684.335,607.151,-3.18456e-06,2.09601e-33,1.05946e-16,8.76479e-16,0.0336712,0.0336712,-0.0648557,0.0,0.0,0.0,0.0520275,0.03424449122747819,0.0,0.0,0.03424449122747819,0.0,-0.06279730803112293
56,0.085292,687.556,609.984,-3.19396e-06,6.57118e-34,5.82482e-15,-8.01922e-15,0.0346376,0.0346376,-0.0667769,0.0,0.0,0.0,0.0536076,0.03524446821485494,0.0,0.0,0.03524446821485494,0.0,-0.06459613333805359
57,0.087712,690.7,612.749,-3.2017e-06,4.01008e-34,-1.93841e-15,3.84195e-16,0.0356031,0.0356031,-0.0686965,0.0,0.0,0.0,0.0551866,0.03624447942664566,0.0,0.0,0.03624447942664566,0.0,-0.06639001228463526
58,0.090132,693.771,615.451,-3.20792e-06,8.32511e-34,-1.33674e-15,3.07243e-15,0.0365676,0.0365676,-0.0706145,0.0,0.0,0.0,0.0567644,0.037244419370573656,0.0,0.0,0.037244419370573656,0.0,-0.06817896009170565
59,0.092552,696.771,618.091,-3.21279e-06,-5.60326e-34,-9.33757e-16,-6.60491e-15,0.0375313,0.0375313,-0.0725309,0.0,0.0,0.0,0.058341,0.038244493625901876,0.0,0.0,0.038244493625901876,0.0,-0.06996299192727984
60,0.094972,699.705,620.673,-3.21644e-06,4.99768e-33,8.07591e-15,7.06385e-15,0.038494,0.038494,-0.0744456,0.0,0.0,0.0,0.0599165,0.03924449287232035,0.0,0.0,0.03924449287232035,0.0,-0.07174203008095292
61,0.097392,702.575,623.2,-3.21897e-06,3.454e-33,2.47902e-15,1.76826e-15,0.0394557,0.0394557,-0.0763588,0.0,0.0,0.0,0.0614908,0.04024441503662213,0.0,0.0,0.04024441503662213,0.0,-0.07351627544469275
62,0.099812,705.385,625.673,-3.2205e-06,4.90769e-33,4.54894e-15,4.00691e-15,0.0404166,0.0404166,-0.0782703,0.0,0.0,0.0,0.0630638,0.041244466292708726,0.0,0.0,0.041244466292708726,0.0,-0.07528555755408262
63,0.1022,708.136,628.096,-3.22111e-06,4.49843e-33,9.67931e-17,5.49907e-15,0.0413765,0.0413765,-0.0801802,0.0,0.0,0.0,0.0646356,0.042244436714925504,0.0,0.0,0.042244436714925504,0.0,-0.07704998419214792
64,0.1047,710.833,630.471,-3.22089e-06,2.29465e-33,1.51161e-17,-5.05192e-15,0.0423355,0.0423355,-0.0820885,0.0,0.0,0.0,0.0662062,0.043244428549180425,0.0,0.0,0.043244428549180425,0.0,-0.07880957026428614
65,0.1071,713.476,632.798,-3.21991e-06,1.64195e-33,-2.97547e-15,-3.42356e-15,0.0432936,0.0432936,-0.0839951,0.0,0.0,0.0,0.0677756,0.044244440015168696,0.0,0.0,0.044244440015168696,0.0,-0.08056423868068263
66,0.1095,716.068,635.082,-3.21824e-06,3.72908e-33,3.81151e-15,5.58851e-16,0.0442508,0.0442508,-0.0859,0.0,0.0,0.0,0.0693437,0.04524446933082715,0.0,0.0,0.04524446933082715,0.0,-0.08231400476860273
67,0.1119,718.611,637.322,-3.21593e-06,3.25103e-33,5.48174e-15,-2.57449e-15,0.045207,0.045207,-0.0878033,0.0,0.0,0.0,0.0709106,0.046244410087888266,0.0,0.0,0.046244410087888266,0.0,-0.08405897539525953
68,0.1143,721.107,639.521,-3.21305e-06,3.12986e-33,3.67318e-15,-1.77249e-15,0.0461624,0.0461624,-0.089705,0.0,0.0,0.0,0.0724762,0.04724446964966855,0.0,0.0,0.04724446964966855,0.0,-0.08579916525777531
69,0.1168,723.557,641.681,-3.20964e-06,3.12602e-33,-5.08985e-16,1.67291e-15,0.0471168,0.0471168,-0.091605,0.0,0.0,0.0,0.0740405,0.048244436879960606,0.0,0.0,0.048244436879960606,0.0,-0.08753449775586664
70,0.1192,725.965,643.802,-3.20574e-06,3.0092e-33,-4.0741e-16,1.07783e-15,0.0480703,0.0480703,-0.0935033,0.0,0.0,0.0,0.0756036,0.04924441461414841,0.0,0.0,0.04924441461414841,0.0,-0.08926498800429927
71,0.1216,728.33,645.887,-3.20139e-06,4.59528e-33,2.62067e-15,3.59324e-15,0.0490229,0.0490229,-0.0954,0.0,0.0,0.0,0.0771653,0.05024440106143513,0.0,0.0,0.05024440106143513,0.0,-0.09099074196542001
72,0.124,730.655,647.936,-3.19664e-06,1.03212e-33,-4.19544e-15,-9.30733e-15,0.0499747,0.0499747,-0.0972949,0.0,0.0,0.0,0.0787258,0.05124449955373711,0.0,0.0,0.05124449955373711,0.0,-0.09271159267355245
73,0.1264,732.941,649.951,-3.19151e-06,9.92616e-34,-2.93214e-15,-6.32409e-15,0.0509255,0.0509255,-0.0991883,0.0,0.0,0.0,0.080285,0.052244498147909324,0.0,0.0,0.052244498147909324,0.0,-0.09442782727197041
74,0.1289,735.189,651.933,-3.18603e-06,1.29432e-33,9.02996e-16,-4.31045e-15,0.0518753,0.0518753,-0.10108,0.0,0.0,0.0,0.0818429,0.05324439474797682,0.0,0.0,0.05324439474797682,0.0,-0.0961392788642581
75,0.1313,737.401,653.883,-3.18024e-06,1.24561e-33,5.62403e-16,-2.94955e-15,0.0528243,0.0528243,-0.10297,0.0,0.0,0.0,0.0833995,0.05424439810513504,0.0,0.0,0.05424439810513504,0.0,-0.09784596230331788
76,0.1337,739.578,655.803,-3.17415e-06,1.19863e-33,3.28362e-16,-2.02865e-15,0.0537724,0.0537724,-0.104858,0.0,0.0,0.0,0.0849548,0.05524440119553553,0.0,0.0,0.05524440119553553,0.0,-0.09954762225402569
77,0.1361,741.721,657.693,-3.1678e-06,1.15331e-33,1.67295e-16,-1.40474e-15,0.0547196,0.0547196,-0.106745,0.0,0.0,0.0,0.0865088,0.05624440221806659,0.0,0.0,0.05624440221806659,0.0,-0.1012451737472827
78,0.1385,743.831,659.553,-3.16119e-06,1.90282e-33,5.62686e-17,1.95945e-15,0.0556659,0.0556659,-0.10863,0.0,0.0,0.0,0.0880615,0.057244399369914545,0.0,0.0,0.057244399369914545,0.0,-0.1029377308585222
79,0.141,745.91,661.386,-3.15435e-06,2.62637e-33,-2.04019e-17,4.24675e-15,0.0566114,0.0566114,-0.110513,0.0,0.0,0.0,0.0896129,0.05824449667101317,0.0,0.0,0.05824449667101317,0.0,-0.10462530975714657
80,0.1434,747.957,663.192,-3.1473e-06,9.44656e-34,-7.34553e-17,-3.03904e-15,0.0575559,0.0575559,-0.112395,0.0,0.0,0.0,0.091163,0.05924448076626909,0.0,0.0,0.05924448076626909,0.0,-0.10630882024391008
81,0.1458,749.975,664.972,-3.14006e-06,1.70146e-33,-1.10254e-16,8.49638e-16,0.0584995,0.0584995,-0.114275,0.0,0.0,0.0,0.0927117,0.06024445557223701,0.0,0.0,0.06024445557223701,0.0,-0.10798738132004781
82,0.1482,751.964,666.726,-3.13264e-06,2.09217e-33,2.86118e-15,5.47714e-16,0.0594422,0.0594422,-0.116153,0.0,0.0,0.0,0.0942592,0.06124441927934421,0.0,0.0,0.06124441927934421,0.0,-0.10966100898965614
83,0.1506,753.924,668.456,-3.12505e-06,2.24242e-33,-1.08066e-15,3.29919e-15,0.0603841,0.0603841,-0.118029,0.0,0.0,0.0,0.0958053,0.062244476300782114,0.0,0.0,0.062244476300782114,0.0,-0.11132971919721535
84,0.1531,755.858,670.161,-3.1173e-06,2.16077e-33,-8.10775e-16,2.2197e-15,0.061325,0.061325,-0.119904,0.0,0.0,0.0,0.0973501,0.06324441247473667,0.0,0.0,0.06324441247473667,0.0,-0.1129944148338573
85,0.1555,757.765,671.843,-3.10942e-06,2.08191e-33,-6.23705e-16,1.48134e-15,0.0622651,0.0622651,-0.121778,0.0,0.0,0.0,0.0988935,0.06424443853550321,0.0,0.0,0.06424443853550321,0.0,-0.11465510674612511
86,0.1579,759.646,673.503,-3.10141e-06,2.57284e-33,2.51553e-15,9.75742e-16,0.0632043,0.0632043,-0.123649,0.0,0.0,0.0,0.100436,0.06524444644238003,0.0,0.0,0.06524444644238003,0.0,-0.11631003837009202
87,0.1603,761.502,675.141,-3.09327e-06,4.3949e-34,-4.33841e-15,-5.31105e-15,0.0641426,0.0641426,-0.125519,0.0,0.0,0.0,0.101976,0.06624443437745042,0.0,0.0,0.06624443437745042,0.0,-0.11796099447328112
88,0.1627,763.334,676.757,-3.08503e-06,1.78145e-33,-3.07966e-15,2.26542e-15,0.06508,0.06508,-0.127387,0.0,0.0,0.0,0.103516,0.06724440052114344,0.0,0.0,0.06724440052114344,0.0,-0.11960710538934449
89,0.1652,765.142,678.353,-3.07668e-06,1.03606e-33,-2.20299e-15,-1.45703e-15,0.0660166,0.0660166,-0.129254,0.0,0.0,0.0,0.105054,0.06824444987667944,0.0,0.0,0.06824444987667944,0.0,-0.12124926549012371
90,0.1676,766.927,679.928,-3.06825e-06,-3.63866e-34,-7.63446e-15,-6.9965e-15,0.0669523,0.0669523,-0.131119,0.0,0.0,0.0,0.106591,0.0692444739967506,0.0,0.0,0.0692444739967506,0.0,-0.12288660831321485
91,0.17,768.689,681.484,-3.05972e-06,1.23411e-33,-2.35495e-15,1.11705e-15,0.0678871,0.0678871,-0.132982,0.0,0.0,0.0,0.108127,0.07024447105684795,0.0,0.0,0.07024447105684795,0.0,-0.12451914937774478
92,0.1724,770.43,683.02,-3.05112e-06,5.43978e-35,1.33425e-15,-5.23129e-15,0.068821,0.068821,-0.134844,0.0,0.0,0.0,0.109661,0.07124443923082846,0.0,0.0,0.07124443923082846,0.0,-0.12614777799781407
93,0.1748,772.15,684.537,-3.04245e-06,-1.78081e-34,-2.14483e-15,-3.6352e-15,0.0697541,0.0697541,-0.136703,0.0,0.0,0.0,0.111194,0.07224448391536265,0.0,0.0,0.07224448391536265,0.0,-0.12777076024911072
94,0.1773,773.848,686.037,-3.03371e-06,8.46092e-34,1.48431e-15,4.56984e-16,0.0706863,0.0706863,-0.138562,0.0,0.0,0.0,0.112725,0.07324449625660368,0.0,0.0,0.07324449625660368,0.0,-0.12939072817908215
95,0.1797,775.527,687.518,-3.02491e-06,1.49582e-33,9.92135e-16,3.28493e-15,0.0716176,0.0716176,-0.140418,0.0,0.0,0.0,0.114255,0.07424447442352577,0.0,0.0,0.07424447442352577,0.0,-0.1310050804052978
96,0.1821,777.186,688.983,-3.01606e-06,1.44259e-33,-2.39115e-15,5.24117e-15,0.072548,0.072548,-0.142273,0.0,0.0,0.0,0.115784,0.07524441658348935,0.0,0.0,0.07524441658348935,0.0,-0.1326155717885763
97,0.1845,778.825,690.43,-3.00716e-06,4.81489e-34,4.35576e-15,-2.40078e-15,0.0734776,0.0734776,-0.144126,0.0,0.0,0.0,0.117312,0.07624442852668256,0.0,0.0,0.07624442852668256,0.0,-0.13422134692392218
98,0.1869,780.446,691.861,-2.99821e-06,-4.47773e-34,-3.38278e-17,-4.69493e-15,0.0744063,0.0744063,-0.145978,0.0,0.0,0.0,0.118838,0.07724440099279839,0.0,0.0,0.07724440099279839,0.0,-0.13582328513675934
99,0.1894,782.048,693.275,-2.98923e-06,-4.38123e-34,-7.47632e-17,-3.28209e-15,0.0753342,0.0753342,-0.147828,0.0,0.0,0.0,0.120363,0.07824443996881003,0.0,0.0,0.07824443996881003,0.0,-0.13742053414837208
100,0.1918,783.633,694.674,-2.9802e-06,-2.01965e-34,-3.15229e-15,7.05419e-16,0.0762612,0.0762612,-0.149676,0.0,0.0,0.0,0.121886,0.07924443599120679,0.0,0.0,0.07924443599120679,0.0,-0.13901310900886066
101,0.1942,785.199,696.057,-2.97115e-06,-2.00671e-34,-2.26912e-15,4.66379e-16,0.0771874,0.0771874,-0.151523,0.0,0.0,0.0,0.123409,0.08024449524377042,0.0,0.0,0.08024449524377042,0.0,-0.140601884111051
102,0.1966,786.749,697.426,-2.96207e-06,1.41354e-34,1.40714e-15,3.00115e-16,0.0781126,0.0781126,-0.153368,0.0,0.0,0.0,0.12493,0.08124439993535426,0.0,0.0,0.08124439993535426,0.0,-0.1421860118276801
103,0.199,788.282,698.779,-2.95296e-06,6.98868e-34,-2.11155e-15,6.2137e-15,0.0790371,0.0790371,-0.155211,0.0,0.0,0.0,0.126449,0.0822444725954512,0.0,0.0,0.0822444725954512,0.0,-0.14376550705594615
104,0.2015,789.799,700.119,-2.94383e-06,-2.39875e-34,4.57989e-15,-1.73597e-15,0.0799607,0.0799607,-0.157053,0.0,0.0,0.0,0.127967,0.08324449532975087,0.0,0.0,0.08324449532975087,0.0,-0.14534123929702147
105,0.2039,791.3,701.444,-2.93468e-06,-5.80268e-34,1.25142e-16,-1.23869e-15,0.0808834,0.0808834,-0.158893,0.0,0.0,0.0,0.129484,0.08424446629124893,0.0,0.0,0.08424446629124893,0.0,-0.1469123655373069
106,0.2063,792.785,702.755,-2.92552e-06,2.15834e-33,3.78788e-17,1.11972e-14,0.0818053,0.0818053,-0.160731,0.0,0.0,0.0,0.131,0.0852444921558182,0.0,0.0,0.0852444921558182,0.0,-0.14847890052278634
107,0.2087,794.255,704.053,-2.91635e-06,7.18019e-34,-2.39868e-17,1.7327e-15,0.0827263,0.0827263,-0.162568,0.0,0.0,0.0,0.132514,0.08624446274886743,0.0,0.0,0.08624446274886743,0.0,-0.1500417089035444
108,0.2111,795.709,705.338,-2.90716e-06,6.87554e-34,-6.79077e-17,1.17246e-15,0.0836465,0.0836465,-0.164403,0.0,0.0,0.0,0.134027,0.08724448494313486,0.0,0.0,0.08724448494313486,0.0,-0.15159995224219702
109,0.2136,797.149,706.61,-2.89796e-06,6.58042e-34,-9.91392e-17,7.8051e-16,0.0845658,0.0845658,-0.166236,0.0,0.0,0.0,0.135539,0.08824444836090461,0.0,0.0,0.08824444836090461,0.0,-0.15315364513518104
110,0.216,798.575,707.869,-2.88876e-06,6.29449e-34,-1.2139e-16,5.06046e-16,0.0854843,0.0854843,-0.168068,0.0,0.0,0.0,0.137049,0.08924446007179787,0.0,0.0,0.08924446007179787,0.0,-0.15470364742168585
111,0.2184,799.987,709.115,-2.87956e-06,6.01745e-34,-1.37279e-16,3.13678e-16,0.0864019,0.0864019,-0.169898,0.0,0.0,0.0,0.138558,0.09024440949499302,0.0,0.0,0.09024440949499302,0.0,-0.15624912520342982
112,0.2208,801.385,710.35,-2.87035e-06,5.74899e-34,-1.48659e-16,1.78722e-16,0.0873187,0.0873187,-0.171727,0.0,0.0,0.0,0.140066,0.09124440389700861,0.0,0.0,0.09124440389700861,0.0,-0.15779093513843667
113,0.2232,802.769,711.573,-2.86114e-06,1.23105e-33,-1.56838e-16,3.12307e-15,0.0882347,0.0882347,-0.173554,0.0,0.0,0.0,0.141572,0.09224444171837654,0.0,0.0,0.09224444171837654,0.0,-0.15932824633853804
114,0.2257,804.14,712.784,-2.85194e-06,-1.80183e-34,-1.62746e-16,-3.9341e-15,0.0891498,0.0891498,-0.175379,0.0,0.0,0.0,0.143077,0.09324441207364731,0.0,0.0,0.09324441207364731,0.0,-0.16086107315905718
115,0.2281,805.498,713.983,-2.84273e-06,2.0924e-33,2.91778e-15,3.282e-15,0.0900641,0.0900641,-0.177203,0.0,0.0,0.0,0.144581,0.09424442252472098,0.0,0.0,0.09424442252472098,0.0,-0.1623902675123987
116,0.2305,806.844,715.172,-2.83354e-06,1.33686e-33,-1.06114e-15,2.2642e-15,0.0909776,0.0909776,-0.179025,0.0,0.0,0.0,0.146084,0.0952444715075269,0.0,0.0,0.0952444715075269,0.0,-0.1639150029891685
117,0.2329,808.176,716.349,-2.82435e-06,6.04953e-34,-8.09688e-16,-1.50064e-15,0.0918902,0.0918902,-0.180845,0.0,0.0,0.0,0.147585,0.09624444783201991,0.0,0.0,0.09624444783201991,0.0,-0.1654352937994399
118,0.2353,809.497,717.516,-2.81516e-06,5.78317e-34,-6.30262e-16,-1.10151e-15,0.092802,0.092802,-0.182664,0.0,0.0,0.0,0.149085,0.09724445935552417,0.0,0.0,0.09724445935552417,0.0,-0.16695198714921922
119,0.2378,810.806,718.671,-2.80599e-06,5.5249e-34,-5.02161e-16,-8.20216e-16,0.0937129,0.0937129,-0.184481,0.0,0.0,0.0,0.150583,0.09824439468495627,0.0,0.0,0.09824439468495627,0.0,-0.16846426107164758
120,0.2402,812.102,719.817,-2.79682e-06,5.27445e-34,-4.10659e-16,-6.2183e-16,0.0946231,0.0946231,-0.186297,0.0,0.0,0.0,0.15208,0.09924447179904927,0.0,0.0,0.09924447179904927,0.0,-0.1699729596606
121,0.242,813.075,720.676,-1.18278e-06,1.99942e-33,2.9724e-15,2.7864e-15,0.0953102,0.0953102,-0.187667,0.0,0.0,0.0,0.153211,0.10000002221524285,0.0,0.0,0.10000002221524285,0.0,-0.1711093181225828
