,Time,S11,S22,S33,S12,S13,S23,LE11,LE22,LE33,LE12,LE13,LE23,SDV_EPBAR,E11,E12,E13,E22,E23,E33
0,2.42e-07,0.029678,0.029678,1.04083e-17,0.0,0.0,0.0,1e-07,1e-07,-8.57143e-08,0.0,0.0,0.0,0.0,1.0000000494336803e-07,0.0,0.0,1.0000000494336803e-07,0.0,-8.571429632731054e-08
1,4.84e-07,0.059356,0.059356,3.46945e-18,0.0,0.0,0.0,2e-07,2e-07,-1.71429e-07,0.0,0.0,0.0,0.0,2.0000002010078788e-07,0.0,0.0,2.0000002010078788e-07,0.0,-1.7142898534050488e-07
2,8.47e-07,0.103873,0.103873,3.46945e-18,0.0,0.0,0.0,3.5e-07,3.5e-07,-3e-07,0.0,0.0,0.0,0.0,3.5000006115559756e-07,0.0,0.0,3.5000006115559756e-07,0.0,-2.9999995498908305e-07
3,1.3915e-06,0.170648,0.170648,-1.73472e-17,0.0,0.0,0.0,5.75e-07,5.75e-07,-4.92857e-07,0.0,0.0,0.0,0.0,5.750001652593539e-07,0.0,0.0,5.750001652593539e-07,0.0,-4.928568785311782e-07
4,2.2083e-06,0.270812,0.270812,-3.46945e-18,0.0,0.0,0.0,9.125e-07,9.125e-07,-7.82142e-07,0.0,0.0,0.0,0.0,9.125004163390571e-07,0.0,0.0,9.125004163390571e-07,0.0,-7.821416940778647e-07
5,3.4334e-06,0.421056,0.421056,5.20417e-17,0.0,0.0,0.0,1.41875e-06,1.41875e-06,-1.21607e-06,0.0,0.0,0.0,0.0,1.4187510064544995e-06,0.0,0.0,1.4187510064544995e-06,0.0,-1.2160692606233425e-06
6,5.2711e-06,0.646423,0.646423,2.42861e-17,0.0,0.0,0.0,2.17812e-06,2.17812e-06,-1.86696e-06,0.0,0.0,0.0,0.0,2.178122372020752e-06,0.0,0.0,2.178122372020752e-06,0.0,-1.8669582572128363e-06
7,8.0276e-06,0.984473,0.984473,1.35308e-16,0.0,0.0,0.0,3.31718e-06,3.31718e-06,-2.8433e-06,0.0,0.0,0.0,0.0,3.317185501838793e-06,0.0,0.0,3.317185501838793e-06,0.0,-2.8432959577884276e-06
8,1.2162e-05,1.49155,1.49155,4.68375e-16,0.0,0.0,0.0,5.02577e-06,5.02577e-06,-4.3078e-06,0.0,0.0,0.0,0.0,5.025782629175524e-06,0.0,0.0,5.025782629175524e-06,0.0,-4.307790721469473e-06
9,1.8365e-05,2.25216,2.25216,3.57353e-16,0.0,0.0,0.0,7.58864e-06,7.58864e-06,-6.50455e-06,0.0,0.0,0.0,0.0,7.5886687938009345e-06,0.0,0.0,7.5886687938009345e-06,0.0,-6.50452884543018e-06
10,2.7668e-05,3.39307,3.39307,-3.08781e-16,0.0,0.0,0.0,1.14329e-05,1.14329e-05,-9.79967e-06,0.0,0.0,0.0,0.0,1.1432965355773206e-05,0.0,0.0,1.1432965355773206e-05,0.0,-9.799621983441753e-06
11,4.1623e-05,5.10443,5.10443,-7.5287e-16,0.0,0.0,-1.23207e-38,1.71994e-05,1.71994e-05,-1.47423e-05,0.0,0.0,0.0,0.0,1.7199547910573543e-05,0.0,0.0,1.7199547910573543e-05,0.0,-1.4742191332794974e-05
12,6.2555e-05,7.67145,7.67145,-1.64105e-15,0.0,0.0,-2.77213e-38,2.58489e-05,2.58489e-05,-2.21562e-05,0.0,0.0,0.0,0.0,2.5849234085661976e-05,0.0,0.0,2.5849234085661976e-05,0.0,-2.2155954553237933e-05
13,9.3954e-05,11.5219,11.5219,-8.30239e-15,0.0,0.0,-6.23724e-38,3.88231e-05,3.88231e-05,-3.3277e-05,0.0,0.0,0.0,0.0,3.882385362641294e-05,0.0,0.0,3.882385362641294e-05,0.0,-3.327644632677984e-05
14,0.00014105,17.2976,17.2976,-4.47177e-14,0.0,0.0,-1.40336e-37,5.82842e-05,5.82842e-05,-4.99578e-05,0.0,0.0,0.0,0.0,5.828589855694233e-05,0.0,0.0,5.828589855694233e-05,0.0,-4.995655212991501e-05
15,0.0002117,25.9608,25.9608,-2.25018e-13,0.0,0.0,-3.1575e-37,8.7475e-05,8.7475e-05,-7.49785e-05,0.0,0.0,0.0,0.0,8.747882604942525e-05,0.0,0.0,8.747882604942525e-05,0.0,-7.4975689182466e-05
16,0.00031767,38.9552,38.9552,-1.14339e-12,0.0,0.0,-7.10416e-37,0.00013126,0.00013126,-0.000112508,0.0,0.0,0.0,0.0,0.0001312686149708142,0.0,0.0,0.0001312686149708142,0.0,-0.00011250167121223953
17,0.00047662,58.4457,58.4457,-5.85252e-12,0.0,0.0,-1.59836e-36,0.000196933,0.000196933,-0.0001688,0.0,0.0,0.0,0.0,0.00019695239257622177,0.0,0.0,0.00019695239257622177,0.0,-0.00016878575408152408
18,0.00071506,87.6791,87.6791,-2.95989e-11,0.0,0.0,-3.59607e-36,0.000295435,0.000295435,-0.00025323,0.0,0.0,0.0,0.0,0.00029547864521761724,0.0,0.0,0.00029547864521761724,0.0,-0.00025319793998968
19,0.0010727,131.524,131.524,-1.49709e-10,0.0,0.0,-8.09034e-36,0.000443169,0.000443169,-0.000379859,0.0,0.0,0.0,0.0,0.0004432672138892091,0.0,0.0,0.0004432672138892091,0.0,-0.0003797868627043455
20,0.0016092,197.279,197.279,-7.57628e-10,0.0,0.0,-1.82005e-35,0.00066473,0.00066473,-0.000569769,0.0,0.0,0.0,0.0,0.0006649509819482979,0.0,0.0,0.0006649509819482979,0.0,-0.0005696067124669746
21,0.0024139,295.884,295.884,-3.83263e-09,0.0,0.0,-4.09417e-35,0.00099698,0.00099698,-0.000854554,0.0,0.0,0.0,0.0,0.0009974771497625046,0.0,0.0,0.0009974771497625046,0.0,-0.0008541889727163854
22,0.003621,418.028,418.193,0.00555555,-5.83272e-35,-2.00888e-15,2.00213e-15,0.00149515,0.00149515,-0.0013802,0.0,0.0,0.0,0.000150689,0.0014962682940309335,0.0,0.0,0.0014962682940309335,0.0,-0.0013792479620312603
23,0.0054316,442.397,443.397,0.11613,-1.12026e-34,-1.28588e-15,3.98718e-15,0.00224193,0.00224193,-0.00277811,0.0,0.0,0.0,0.00130867,0.0022444450041991804,0.0,0.0,0.0022444450041991804,0.0,-0.0027742546234603704
24,0.0078516,467.355,469.059,7.89023e-05,-2.72814e-34,1.76081e-15,-2.65261e-15,0.0032392,0.0032392,-0.0046754,0.0,0.0,0.0,0.0029002,0.003244451877416177,0.0,0.0,0.003244451877416177,0.0,-0.00466448733107494
25,0.010272,487.326,489.49,1.05065e-05,-8.69865e-34,3.55463e-15,-6.47758e-15,0.00423547,0.00423547,-0.00659015,0.0,0.0,0.0,0.00452034,0.004244452279975608,0.0,0.0,0.004244452279975608,0.0,-0.006568482584788815
26,0.012692,504.011,506.485,1.37156e-06,-8.24662e-34,2.08889e-15,-3.73618e-15,0.00523074,0.00523074,-0.00851585,0.0,0.0,0.0,0.00615852,0.0052444442044314865,0.0,0.0,0.0052444442044314865,0.0,-0.008479692858448296
27,0.015112,518.389,521.082,3.22591e-07,-6.16325e-34,-1.34005e-15,2.88444e-15,0.00622503,0.00622503,-0.0104486,0.0,0.0,0.0,0.00780881,0.006244445766251383,0.0,0.0,0.006244445766251383,0.0,-0.010394203001362068
28,0.017532,531.052,533.905,1.28969e-07,-5.86245e-34,-8.08421e-16,1.70361e-15,0.00721833,0.00721833,-0.0123862,0.0,0.0,0.0,0.00946763,0.007244444941601369,0.0,0.0,0.007244444941601369,0.0,-0.012309806757396125
29,0.019952,542.387,545.363,-1.03933e-07,-5.58099e-34,-4.92621e-16,1.01493e-15,0.00821065,0.00821065,-0.0143269,0.0,0.0,0.0,0.0111327,0.008244449829572176,0.0,0.0,0.008244449829572176,0.0,-0.014224758341126797
30,0.022372,552.661,555.735,-4.05087e-07,-5.31706e-34,-3.03597e-16,6.10118e-16,0.00920198,0.00920198,-0.0162698,0.0,0.0,0.0,0.0128023,0.009244448382409898,0.0,0.0,0.009244448382409898,0.0,-0.01613816168056914
31,0.024792,562.066,565.221,-7.25952e-07,-3.96141e-36,2.45329e-15,5.5614e-15,0.0101923,0.0101923,-0.0182142,0.0,0.0,0.0,0.0144754,0.010244418407964417,0.0,0.0,0.010244418407964417,0.0,-0.01804932400485959
32,0.027212,570.747,573.97,-1.03444e-06,-3.39593e-34,1.49764e-15,-1.87039e-15,0.0111817,0.0111817,-0.0201593,0.0,0.0,0.0,0.016151,0.011244448869027979,0.0,0.0,0.011244448869027979,0.0,-0.01995745990556186
33,0.029632,578.812,582.097,-1.31598e-06,-4.91595e-34,9.14186e-16,-3.75515e-15,0.0121701,0.0121701,-0.0221049,0.0,0.0,0.0,0.0178286,0.012244457004898734,0.0,0.0,0.012244457004898734,0.0,-0.02186237696735227
34,0.032052,586.35,589.689,-1.56603e-06,-6.36563e-34,5.56001e-16,-4.91536e-15,0.0131575,0.0131575,-0.0240506,0.0,0.0,0.0,0.0195076,0.013244440792496093,0.0,0.0,0.013244440792496093,0.0,-0.023763689049204118
35,0.034472,593.429,596.816,-1.78503e-06,-4.39313e-34,3.34961e-16,-3.46186e-16,0.0141439,0.0141439,-0.0259962,0.0,0.0,0.0,0.0211876,0.014244398206812336,0.0,0.0,0.014244398206812336,0.0,-0.02566120791087534
36,0.036892,600.105,603.537,-1.97547e-06,-6.44481e-34,-5.21229e-15,5.11508e-15,0.0151294,0.0151294,-0.0279413,0.0,0.0,0.0,0.0228683,0.015244428745356142,0.0,0.0,0.015244428745356142,0.0,-0.02755455232631454
37,0.039312,606.424,609.899,-2.14058e-06,-1.68218e-33,2.15765e-15,-4.84924e-15,0.0161139,0.0161139,-0.0298859,0.0,0.0,0.0,0.0245495,0.016244429054838472,0.0,0.0,0.016244429054838472,0.0,-0.029443732298850556
38,0.041732,612.426,615.94,-2.2836e-06,-1.60858e-33,1.3495e-15,-2.9879e-15,0.0170975,0.0170975,-0.0318298,0.0,0.0,0.0,0.0262308,0.017244498828943522,0.0,0.0,0.017244498828943522,0.0,-0.031328564071868015
39,0.044152,618.142,621.693,-2.40755e-06,-1.81893e-33,3.577e-15,-1.83995e-15,0.01808,0.01808,-0.0337728,0.0,0.0,0.0,0.0279121,0.01824443268611331,0.0,0.0,0.01824443268611331,0.0,-0.033208865367617135
40,0.046572,623.6,627.186,-2.5151e-06,-1.17941e-33,-3.23484e-15,-1.12926e-15,0.0190616,0.0190616,-0.0357149,0.0,0.0,0.0,0.0295932,0.019244432140675505,0.0,0.0,0.019244432140675505,0.0,-0.035084648361527915
41,0.048992,628.825,632.444,-2.60854e-06,-6.79612e-34,3.43872e-15,4.72375e-15,0.0200423,0.0200423,-0.037656,0.0,0.0,0.0,0.0312741,0.02024449545617002,0.0,0.0,0.02024449545617002,0.0,-0.03695582888880233
42,0.051412,633.836,637.486,-2.68985e-06,-5.94828e-34,-5.82706e-16,2.97237e-15,0.0210219,0.0210219,-0.039596,0.0,0.0,0.0,0.0329545,0.02124441664535559,0.0,0.0,0.02124441664535559,0.0,-0.03882232349559478
43,0.053832,638.651,642.332,-2.7607e-06,-1.01926e-33,2.38241e-15,-8.44636e-16,0.0220006,0.0220006,-0.0415349,0.0,0.0,0.0,0.0346344,0.022244397816892914,0.0,0.0,0.022244397816892914,0.0,-0.04068414536608922
44,0.056252,643.287,646.997,-2.82251e-06,-7.52049e-34,-1.26478e-15,2.20771e-15,0.0229784,0.0229784,-0.0434725,0.0,0.0,0.0,0.0363137,0.02324443722866909,0.0,0.0,0.02324443722866909,0.0,-0.042541116151762925
45,0.058672,647.756,651.495,-2.87648e-06,-7.77338e-34,1.9557e-15,1.40305e-15,0.0239552,0.0239552,-0.0454088,0.0,0.0,0.0,0.0379923,0.024244430712260456,0.0,0.0,0.024244430712260456,0.0,-0.04439325006643158
46,0.061092,652.072,655.837,-2.92364e-06,-8.0101e-34,-1.54691e-15,-4.59263e-15,0.0249311,0.0249311,-0.0473439,0.0,0.0,0.0,0.0396702,0.02524447874626201,0.0,0.0,0.02524447874626201,0.0,-0.046240656653499856
47,0.063512,656.245,660.036,-2.96486e-06,1.76383e-33,4.57939e-15,1.08493e-14,0.025906,0.025906,-0.0492775,0.0,0.0,0.0,0.0413472,0.026244476958517948,0.0,0.0,0.026244476958517948,0.0,-0.04808306390642836
48,0.065932,660.285,664.102,-3.00086e-06,1.29719e-33,2.94367e-15,4.14946e-15,0.0268799,0.0268799,-0.0512098,0.0,0.0,0.0,0.0430234,0.02724442329946286,0.0,0.0,0.02724442329946286,0.0,-0.04992067702036107
49,0.068352,664.201,668.042,-3.0323e-06,1.24402e-33,1.8863e-15,2.64346e-15,0.0278529,0.0278529,-0.0531407,0.0,0.0,0.0,0.0446986,0.028244418542125116,0.0,0.0,0.028244418542125116,0.0,-0.05175341519860077
50,0.070772,668.0,671.864,-3.0597e-06,1.19326e-33,1.2011e-15,1.68347e-15,0.028825,0.028825,-0.0550702,0.0,0.0,0.0,0.0463729,0.02924446093324229,0.0,0.0,0.02924446093324229,0.0,-0.05358129297179859
51,0.073192,671.691,675.577,-3.08354e-06,1.14478e-33,7.56006e-16,1.07007e-15,0.0297961,0.0297961,-0.0569981,0.0,0.0,0.0,0.0480462,0.030244445693269784,0.0,0.0,0.030244445693269784,0.0,-0.05540413590303972
52,0.075612,675.278,679.187,-3.10422e-06,7.04687e-34,4.66194e-16,-2.10502e-15,0.0307663,0.0307663,-0.0589246,0.0,0.0,0.0,0.0497184,0.03124447388971663,0.0,0.0,0.03124447388971663,0.0,-0.05722214807271908
53,0.078032,678.769,682.699,-3.1221e-06,1.12594e-33,-2.55618e-15,7.00102e-15,0.0317355,0.0317355,-0.0608496,0.0,0.0,0.0,0.0513896,0.032244440539372476,0.0,0.0,0.032244440539372476,0.0,-0.05903524976740848
54,0.080452,682.168,686.119,-3.13747e-06,2.48727e-33,1.13805e-15,1.00871e-14,0.0327038,0.0327038,-0.0627731,0.0,0.0,0.0,0.0530597,0.03324444690609507,0.0,0.0,0.03324444690609507,0.0,-0.0608434558647587
55,0.082872,685.481,689.453,-3.1506e-06,2.38531e-33,3.56468e-15,3.69349e-15,0.0336712,0.0336712,-0.064695,0.0,0.0,0.0,0.0547286,0.03424449122747819,0.0,0.0,0.03424449122747819,0.0,-0.0626466874564846
56,0.085292,688.712,692.704,-3.16173e-06,1.27431e-33,2.31457e-15,-3.247e-15,0.0346376,0.0346376,-0.0666154,0.0,0.0,0.0,0.0563964,0.03524446821485494,0.0,0.0,0.03524446821485494,0.0,-0.06444505341421225
57,0.087712,691.866,695.876,-3.17106e-06,1.22196e-33,-1.3619e-15,6.77027e-16,0.0356031,0.0356031,-0.0685342,0.0,0.0,0.0,0.058063,0.03624447942664566,0.0,0.0,0.03624447942664566,0.0,-0.06623847508671787
58,0.090132,694.946,698.975,-3.17877e-06,2.35463e-33,-9.30583e-16,8.85644e-15,0.0365676,0.0365676,-0.0704514,0.0,0.0,0.0,0.0597285,0.037244419370573656,0.0,0.0,0.037244419370573656,0.0,-0.06802696768545291
59,0.092552,697.955,702.003,-3.18501e-06,1.75109e-33,2.21823e-15,8.96234e-17,0.0375313,0.0375313,-0.072367,0.0,0.0,0.0,0.0613927,0.038244493625901876,0.0,0.0,0.038244493625901876,0.0,-0.06981054636908457
60,0.094972,700.898,704.964,-3.18994e-06,1.45331e-33,4.3054e-15,-2.80243e-15,0.038494,0.038494,-0.074281,0.0,0.0,0.0,0.0630557,0.03924449287232035,0.0,0.0,0.03924449287232035,0.0,-0.07158922624369335
61,0.097392,703.777,707.86,-3.19366e-06,7.73051e-34,2.81913e-15,-4.69331e-15,0.0394557,0.0394557,-0.0761935,0.0,0.0,0.0,0.0647175,0.04024441503662213,0.0,0.0,0.04024441503662213,0.0,-0.07336311502666404
62,0.099812,706.595,710.695,-3.1963e-06,1.35996e-33,1.83315e-15,-2.65941e-16,0.0404166,0.0404166,-0.0781043,0.0,0.0,0.0,0.066378,0.041244466292708726,0.0,0.0,0.041244466292708726,0.0,-0.07513204221521597
63,0.1022,709.355,713.472,-3.19795e-06,1.30355e-33,1.17794e-15,-2.03348e-16,0.0413765,0.0413765,-0.0800135,0.0,0.0,0.0,0.0680372,0.042244436714925504,0.0,0.0,0.042244436714925504,0.0,-0.07689611559992171
64,0.1047,712.059,716.193,-3.1987e-06,1.86967e-33,7.41773e-16,2.68031e-15,0.0423355,0.0423355,-0.0819211,0.0,0.0,0.0,0.0696952,0.043244428549180425,0.0,0.0,0.043244428549180425,0.0,-0.07865535007847901
65,0.1071,714.71,718.86,-3.19864e-06,3.88052e-33,6.23397e-15,4.57716e-15,0.0432936,0.0432936,-0.083827,0.0,0.0,0.0,0.0713519,0.044244440015168696,0.0,0.0,0.044244440015168696,0.0,-0.08040966853794829
66,0.1095,717.31,721.475,-3.19782e-06,2.48531e-33,1.22148e-15,1.2535e-16,0.0442508,0.0442508,-0.0857313,0.0,0.0,0.0,0.0730072,0.04524446933082715,0.0,0.0,0.04524446933082715,0.0,-0.0821591780819435
67,0.1119,719.86,724.041,-3.19632e-06,2.38573e-33,7.66069e-16,4.60328e-17,0.045207,0.045207,-0.087634,0.0,0.0,0.0,0.0746613,0.046244410087888266,0.0,0.0,0.046244410087888266,0.0,-0.08390389345247806
68,0.1143,722.363,726.559,-3.1942e-06,2.29013e-33,4.60995e-16,-6.38466e-18,0.0461624,0.0461624,-0.089535,0.0,0.0,0.0,0.0763141,0.04724446964966855,0.0,0.0,0.04724446964966855,0.0,-0.08564373790491842
69,0.1168,724.821,729.032,-3.1915e-06,2.9319e-33,2.56279e-16,2.8227e-15,0.0471168,0.0471168,-0.0914344,0.0,0.0,0.0,0.0779655,0.048244436879960606,0.0,0.0,0.048244436879960606,0.0,-0.08737881786206647
70,0.1192,727.235,731.461,-3.18827e-06,2.47638e-33,3.03055e-15,-1.03871e-15,0.0480703,0.0480703,-0.0933321,0.0,0.0,0.0,0.0796156,0.04924441461414841,0.0,0.0,0.04924441461414841,0.0,-0.08910905682291737
71,0.1216,729.608,733.847,-3.18457e-06,1.86911e-33,-9.32387e-16,-7.27537e-16,0.0490229,0.0490229,-0.0952281,0.0,0.0,0.0,0.0812643,0.05024440106143513,0.0,0.0,0.05024440106143513,0.0,-0.09083446984275978
72,0.124,731.939,736.193,-3.18041e-06,1.79325e-33,-6.84414e-16,-5.21308e-16,0.0499747,0.0499747,-0.0971225,0.0,0.0,0.0,0.0829118,0.05124449955373711,0.0,0.0,0.05124449955373711,0.0,-0.0925551626682507
73,0.1264,734.232,738.499,-3.17585e-06,2.45435e-33,-5.17407e-16,2.49491e-15,0.0509255,0.0509255,-0.0990153,0.0,0.0,0.0,0.0845578,0.052244498147909324,0.0,0.0,0.052244498147909324,0.0,-0.09427114973387196
74,0.1289,736.486,740.768,-3.17092e-06,1.05679e-33,2.52214e-15,-4.14605e-15,0.0518753,0.0518753,-0.100906,0.0,0.0,0.0,0.0862026,0.05324439474797682,0.0,0.0,0.05324439474797682,0.0,-0.09598199341534341
75,0.1313,738.705,742.999,-3.16563e-06,1.64019e-34,1.64872e-15,-5.68664e-15,0.0528243,0.0528243,-0.102796,0.0,0.0,0.0,0.0878459,0.05424439810513504,0.0,0.0,0.05424439810513504,0.0,-0.09768897384315867
76,0.1337,740.888,745.195,-3.16003e-06,1.84685e-33,1.05743e-15,1.95481e-15,0.0537724,0.0537724,-0.104684,0.0,0.0,0.0,0.0894879,0.05524440119553553,0.0,0.0,0.05524440119553553,0.0,-0.09939092990845899
77,0.1361,743.037,747.357,-3.15413e-06,1.77157e-33,6.56598e-16,1.27277e-15,0.0547196,0.0547196,-0.10657,0.0,0.0,0.0,0.0911285,0.05624440221806659,0.0,0.0,0.05624440221806659,0.0,-0.10108787788970242
78,0.1385,745.153,749.486,-3.14797e-06,-8.43419e-34,3.84483e-16,-7.87576e-15,0.0556659,0.0556659,-0.108454,0.0,0.0,0.0,0.0927678,0.057244399369914545,0.0,0.0,0.057244399369914545,0.0,-0.10277983400463764
79,0.141,747.237,751.583,-3.14155e-06,2.57272e-33,1.99478e-16,6.30195e-15,0.0566114,0.0566114,-0.110337,0.0,0.0,0.0,0.0944057,0.05824449667101317,0.0,0.0,0.05824449667101317,0.0,-0.10446770994328702
80,0.1434,749.29,753.648,-3.1349e-06,2.47068e-33,7.34945e-17,4.19236e-15,0.0575559,0.0575559,-0.112218,0.0,0.0,0.0,0.0960422,0.05924448076626909,0.0,0.0,0.05924448076626909,0.0,-0.10615062290504174
81,0.1458,751.313,755.684,-3.12803e-06,2.37246e-33,-1.24467e-17,2.77706e-15,0.0584995,0.0584995,-0.114097,0.0,0.0,0.0,0.0976773,0.06024445557223701,0.0,0.0,0.06024445557223701,0.0,-0.10782858894182046
82,0.1482,753.307,757.69,-3.12097e-06,1.42996e-33,-7.11897e-17,-1.08472e-15,0.0594422,0.0594422,-0.115975,0.0,0.0,0.0,0.0993111,0.06124441927934421,0.0,0.0,0.06124441927934421,0.0,-0.1095025145436691
83,0.1506,755.273,759.668,-3.11372e-06,1.3703e-33,-1.11436e-16,-7.68963e-16,0.0603841,0.0603841,-0.117851,0.0,0.0,0.0,0.100943,0.062244476300782114,0.0,0.0,0.062244476300782114,0.0,-0.11117152180808254
84,0.1531,757.212,761.618,-3.10631e-06,4.64691e-34,-1.39088e-16,-3.47413e-15,0.061325,0.061325,-0.119726,0.0,0.0,0.0,0.102574,0.06324441247473667,0.0,0.0,0.06324441247473667,0.0,-0.11283651378692161
85,0.1555,759.124,763.542,-3.09874e-06,2.13704e-33,-1.58155e-16,3.46354e-15,0.0622651,0.0622651,-0.121598,0.0,0.0,0.0,0.104204,0.06424443853550321,0.0,0.0,0.06424443853550321,0.0,-0.11449573032189142
86,0.1579,761.01,765.439,-3.09103e-06,2.05156e-33,-1.71361e-16,2.29934e-15,0.0632043,0.0632043,-0.12347,0.0,0.0,0.0,0.105832,0.06524444644238003,0.0,0.0,0.06524444644238003,0.0,-0.11615184370896048
87,0.1603,762.871,767.311,-3.08319e-06,7.25129e-34,-3.15081e-15,-1.41424e-15,0.0641426,0.0641426,-0.125339,0.0,0.0,0.0,0.107459,0.06624443437745042,0.0,0.0,0.06624443437745042,0.0,-0.11780221316239714
88,0.1627,764.708,769.159,-3.07522e-06,1.20056e-33,7.50016e-16,-9.96495e-16,0.06508,0.06508,-0.127207,0.0,0.0,0.0,0.109084,0.06724440052114344,0.0,0.0,0.06724440052114344,0.0,-0.11944862040509396
89,0.1652,766.521,770.983,-3.06714e-06,4.54411e-33,4.54064e-16,1.10192e-14,0.0660166,0.0660166,-0.129073,0.0,0.0,0.0,0.110708,0.06824444987667944,0.0,0.0,0.06824444987667944,0.0,-0.12109019721193237
90,0.1676,768.311,772.783,-3.05896e-06,1.54382e-33,-2.72879e-15,-1.38818e-15,0.0669523,0.0669523,-0.130937,0.0,0.0,0.0,0.112331,0.0692444739967506,0.0,0.0,0.0692444739967506,0.0,-0.12272695914829457
91,0.17,770.078,774.561,-3.05068e-06,3.91494e-33,4.02595e-15,1.94926e-15,0.0678871,0.0678871,-0.1328,0.0,0.0,0.0,0.113952,0.07024447105684795,0.0,0.0,0.07024447105684795,0.0,-0.12435979736233782
92,0.1724,771.823,776.317,-3.04231e-06,1.56082e-33,-2.73919e-16,-4.6102e-15,0.068821,0.068821,-0.134661,0.0,0.0,0.0,0.115572,0.07124443923082846,0.0,0.0,0.07124443923082846,0.0,-0.12598784840807653
93,0.1748,773.547,778.051,-3.03386e-06,4.04541e-33,-2.52234e-16,5.65477e-15,0.0697541,0.0697541,-0.136521,0.0,0.0,0.0,0.117191,0.07224448391536265,0.0,0.0,0.07224448391536265,0.0,-0.12761200008073914
94,0.1773,775.251,779.765,-3.02534e-06,3.04491e-33,-2.37401e-16,8.49496e-16,0.0706863,0.0706863,-0.138378,0.0,0.0,0.0,0.118808,0.07324449625660368,0.0,0.0,0.07324449625660368,0.0,-0.12923052133448942
95,0.1797,776.934,781.458,-3.01675e-06,2.92921e-33,-2.27285e-16,5.26713e-16,0.0716176,0.0716176,-0.140235,0.0,0.0,0.0,0.120423,0.07424447442352577,0.0,0.0,0.07424447442352577,0.0,-0.13084603978323883
96,0.1821,778.597,783.131,-3.0081e-06,3.55364e-33,2.77587e-15,3.06547e-16,0.072548,0.072548,-0.142089,0.0,0.0,0.0,0.122038,0.07524441658348935,0.0,0.0,0.07524441658348935,0.0,-0.13245595836980129
97,0.1845,780.24,784.784,-2.99939e-06,2.96559e-33,-4.14188e-15,6.06897e-15,0.0734776,0.0734776,-0.143942,0.0,0.0,0.0,0.12365,0.07624442852668256,0.0,0.0,0.07624442852668256,0.0,-0.134062028994956
98,0.1869,781.865,786.419,-2.99063e-06,1.3793e-33,-5.93445e-15,1.12841e-15,0.0744063,0.0744063,-0.145793,0.0,0.0,0.0,0.125262,0.07724440099279839,0.0,0.0,0.07724440099279839,0.0,-0.13566339765537372
99,0.1894,783.472,788.035,-2.98182e-06,1.65867e-33,7.84394e-15,-5.21186e-15,0.0753342,0.0753342,-0.147643,0.0,0.0,0.0,0.126872,0.07824443996881003,0.0,0.0,0.07824443996881003,0.0,-0.1372609421853881
100,0.1918,785.06,789.633,-2.97297e-06,1.58709e-33,-6.32975e-16,2.30675e-15,0.0762612,0.0762612,-0.14949,0.0,0.0,0.0,0.128481,0.07924443599120679,0.0,0.0,0.07924443599120679,0.0,-0.13885295055286162
101,0.1942,786.631,791.214,-2.96408e-06,1.51799e-33,-5.03791e-16,1.52273e-15,0.0771874,0.0771874,-0.151337,0.0,0.0,0.0,0.130088,0.08024449524377042,0.0,0.0,0.08024449524377042,0.0,-0.1404420211947054
102,0.1966,788.185,792.777,-2.95516e-06,6.01529e-34,-4.14079e-16,-1.9848e-15,0.0781126,0.0781126,-0.153181,0.0,0.0,0.0,0.131694,0.08124439993535426,0.0,0.0,0.08124439993535426,0.0,-0.1420255856125081
103,0.199,789.722,794.323,-2.94621e-06,1.41667e-33,-3.5176e-16,1.55304e-15,0.0790371,0.0790371,-0.155024,0.0,0.0,0.0,0.133298,0.0822444725954512,0.0,0.0,0.0822444725954512,0.0,-0.1436053762340005
104,0.2015,791.243,795.853,-2.93723e-06,1.12655e-33,-3.32588e-15,3.9829e-15,0.0799607,0.0799607,-0.156866,0.0,0.0,0.0,0.134902,0.08324449532975087,0.0,0.0,0.08324449532975087,0.0,-0.14518140316455752
105,0.2039,792.747,797.366,-2.92823e-06,1.80979e-33,-2.37961e-15,5.65316e-15,0.0808834,0.0808834,-0.158705,0.0,0.0,0.0,0.136503,0.08424446629124893,0.0,0.0,0.08424446629124893,0.0,-0.14675196998531848
106,0.2063,794.236,798.864,-2.91921e-06,2.80937e-33,1.30303e-15,3.82197e-15,0.0818053,0.0818053,-0.160543,0.0,0.0,0.0,0.138104,0.0852444921558182,0.0,0.0,0.0852444921558182,0.0,-0.14831879950706062
107,0.2087,795.71,800.346,-2.91017e-06,9.97255e-34,8.49762e-16,-3.40469e-15,0.0827263,0.0827263,-0.16238,0.0,0.0,0.0,0.139702,0.08624446274886743,0.0,0.0,0.08624446274886743,0.0,-0.1498819017234142
108,0.2111,797.168,801.813,-2.90111e-06,2.64839e-33,5.32831e-16,3.55566e-15,0.0836465,0.0836465,-0.164214,0.0,0.0,0.0,0.1413,0.08724448494313486,0.0,0.0,0.08724448494313486,0.0,-0.1514395894793671
109,0.2136,798.612,803.266,-2.89204e-06,2.54217e-33,3.11016e-16,2.381e-15,0.0845658,0.0845658,-0.166047,0.0,0.0,0.0,0.142896,0.08824444836090461,0.0,0.0,0.08824444836090461,0.0,-0.1529935760480592
110,0.216,800.041,804.704,-2.88297e-06,3.51668e-33,3.18783e-15,1.56987e-15,0.0854843,0.0854843,-0.167879,0.0,0.0,0.0,0.144491,0.08924446007179787,0.0,0.0,0.08924446007179787,0.0,-0.154543871312682
111,0.2184,801.456,806.127,-2.87388e-06,-3.02788e-34,-3.90077e-15,-7.96855e-15,0.0864019,0.0864019,-0.169709,0.0,0.0,0.0,0.146084,0.09024440949499302,0.0,0.0,0.09024440949499302,0.0,-0.15608964121733138
112,0.2208,802.858,807.537,-2.86479e-06,3.55045e-33,3.27712e-15,4.11446e-16,0.0873187,0.0873187,-0.171537,0.0,0.0,0.0,0.147676,0.09124440389700861,0.0,0.0,0.09124440389700861,0.0,-0.15763090021327675
113,0.2232,804.246,808.933,-2.85569e-06,5.2456e-34,2.23477e-15,-8.7768e-15,0.0882347,0.0882347,-0.173363,0.0,0.0,0.0,0.149267,0.09224444171837654,0.0,0.0,0.09224444171837654,0.0,-0.15916766269833915
114,0.2257,805.62,810.316,-2.8466e-06,3.49985e-33,4.54422e-15,-1.40827e-16,0.0891498,0.0891498,-0.175188,0.0,0.0,0.0,0.150856,0.09324441207364731,0.0,0.0,0.09324441207364731,0.0,-0.16070078231674245
115,0.2281,806.982,811.685,-2.8375e-06,8.1687e-34,7.88666e-17,-6.16396e-15,0.0900641,0.0900641,-0.177012,0.0,0.0,0.0,0.152444,0.09424442252472098,0.0,0.0,0.09424442252472098,0.0,-0.16223026877410052
116,0.2305,808.33,813.042,-2.8284e-06,2.70536e-33,-1.53989e-17,1.67638e-15,0.0909776,0.0909776,-0.178833,0.0,0.0,0.0,0.15403,0.0952444715075269,0.0,0.0,0.0952444715075269,0.0,-0.16375445925803733
117,0.2329,809.667,814.386,-2.81931e-06,6.7289e-34,-8.18728e-17,-4.90849e-15,0.0918902,0.0918902,-0.180653,0.0,0.0,0.0,0.155615,0.09624444783201991,0.0,0.0,0.09624444783201991,0.0,-0.16527504199216825
118,0.2353,810.99,815.718,-2.81022e-06,6.37519e-34,-1.28817e-16,-3.46454e-15,0.092802,0.092802,-0.182472,0.0,0.0,0.0,0.157199,0.09724445935552417,0.0,0.0,0.09724445935552417,0.0,-0.16679202657502812
119,0.2378,812.302,817.038,-2.80114e-06,2.41908e-33,2.891e-15,5.50844e-16,0.0937129,0.0937129,-0.184289,0.0,0.0,0.0,0.158781,0.09824439468495627,0.0,0.0,0.09824439468495627,0.0,-0.1683045908819255
120,0.2402,813.602,818.346,-2.79207e-06,2.32534e-33,1.96542e-15,3.30761e-16,0.0946231,0.0946231,-0.186104,0.0,0.0,0.0,0.160362,0.09924447179904927,0.0,0.0,0.09924447179904927,0.0,-0.1698127489819814
121,0.242,814.577,819.326,-1.18076e-06,-2.03255e-34,-1.86104e-15,-6.31014e-15,0.0953102,0.0953102,-0.187474,0.0,0.0,0.0,0.161556,0.10000002221524285,0.0,0.0,0.10000002221524285,0.0,-0.17094932678231278
