,Time,S11,S22,S33,S12,S13,S23,LE11,LE22,LE33,LE12,LE13,LE23,SDV_EPBAR,E11,E12,E13,E22,E23,E33
0,2.42e-07,0.029678,0.029678,1.04083e-17,0.0,0.0,0.0,1e-07,1e-07,-8.57143e-08,0.0,0.0,0.0,0.0,1.0000000494336803e-07,0.0,0.0,1.0000000494336803e-07,0.0,-8.571429632731054e-08
1,4.84e-07,0.059356,0.059356,3.46945e-18,0.0,0.0,0.0,2e-07,2e-07,-1.71429e-07,0.0,0.0,0.0,0.0,2.0000002010078788e-07,0.0,0.0,2.0000002010078788e-07,0.0,-1.7142898534050488e-07
2,8.47e-07,0.103873,0.103873,3.46945e-18,0.0,0.0,0.0,3.5e-07,3.5e-07,-3e-07,0.0,0.0,0.0,0.0,3.5000006115559756e-07,0.0,0.0,3.5000006115559756e-07,0.0,-2.9999995498908305e-07
3,1.3915e-06,0.170648,0.170648,-1.73472e-17,0.0,0.0,0.0,5.75e-07,5.75e-07,-4.92857e-07,0.0,0.0,0.0,0.0,5.750001652593539e-07,0.0,0.0,5.750001652593539e-07,0.0,-4.928568785311782e-07
4,2.2083e-06,0.270812,0.270812,-3.46945e-18,0.0,0.0,0.0,9.125e-07,9.125e-07,-7.82142e-07,0.0,0.0,0.0,0.0,9.125004163390571e-07,0.0,0.0,9.125004163390571e-07,0.0,-7.821416940778647e-07
5,3.4334e-06,0.421056,0.421056,5.20417e-17,0.0,0.0,0.0,1.41875e-06,1.41875e-06,-1.21607e-06,0.0,0.0,0.0,0.0,1.4187510064544995e-06,0.0,0.0,1.4187510064544995e-06,0.0,-1.2160692606233425e-06
6,5.2711e-06,0.646423,0.646423,2.42861e-17,0.0,0.0,0.0,2.17812e-06,2.17812e-06,-1.86696e-06,0.0,0.0,0.0,0.0,2.178122372020752e-06,0.0,0.0,2.178122372020752e-06,0.0,-1.8669582572128363e-06
7,8.0276e-06,0.984473,0.984473,1.35308e-16,0.0,0.0,0.0,3.31718e-06,3.31718e-06,-2.8433e-06,0.0,0.0,0.0,0.0,3.317185501838793e-06,0.0,0.0,3.317185501838793e-06,0.0,-2.8432959577884276e-06
8,1.2162e-05,1.49155,1.49155,4.68375e-16,0.0,0.0,0.0,5.02577e-06,5.02577e-06,-4.3078e-06,0.0,0.0,0.0,0.0,5.025782629175524e-06,0.0,0.0,5.025782629175524e-06,0.0,-4.307790721469473e-06
9,1.8365e-05,2.25216,2.25216,3.57353e-16,0.0,0.0,0.0,7.58864e-06,7.58864e-06,-6.50455e-06,0.0,0.0,0.0,0.0,7.5886687938009345e-06,0.0,0.0,7.5886687938009345e-06,0.0,-6.50452884543018e-06
10,2.7668e-05,3.39307,3.39307,-3.08781e-16,0.0,0.0,0.0,1.14329e-05,1.14329e-05,-9.79967e-06,0.0,0.0,0.0,0.0,1.1432965355773206e-05,0.0,0.0,1.1432965355773206e-05,0.0,-9.799621983441753e-06
11,4.1623e-05,5.10443,5.10443,-7.5287e-16,0.0,0.0,-1.23207e-38,1.71994e-05,1.71994e-05,-1.47423e-05,0.0,0.0,0.0,0.0,1.7199547910573543e-05,0.0,0.0,1.7199547910573543e-05,0.0,-1.4742191332794974e-05
12,6.2555e-05,7.67145,7.67145,-1.64105e-15,0.0,0.0,-2.77213e-38,2.58489e-05,2.58489e-05,-2.21562e-05,0.0,0.0,0.0,0.0,2.5849234085661976e-05,0.0,0.0,2.5849234085661976e-05,0.0,-2.2155954553237933e-05
13,9.3954e-05,11.5219,11.5219,-8.30239e-15,0.0,0.0,-6.23724e-38,3.88231e-05,3.88231e-05,-3.3277e-05,0.0,0.0,0.0,0.0,3.882385362641294e-05,0.0,0.0,3.882385362641294e-05,0.0,-3.327644632677984e-05
14,0.00014105,17.2976,17.2976,-4.47177e-14,0.0,0.0,-1.40336e-37,5.82842e-05,5.82842e-05,-4.99578e-05,0.0,0.0,0.0,0.0,5.828589855694233e-05,0.0,0.0,5.828589855694233e-05,0.0,-4.995655212991501e-05
15,0.0002117,25.9608,25.9608,-2.25018e-13,0.0,0.0,-3.1575e-37,8.7475e-05,8.7475e-05,-7.49785e-05,0.0,0.0,0.0,0.0,8.747882604942525e-05,0.0,0.0,8.747882604942525e-05,0.0,-7.4975689182466e-05
16,0.00031767,38.9552,38.9552,-1.14339e-12,0.0,0.0,-7.10416e-37,0.00013126,0.00013126,-0.000112508,0.0,0.0,0.0,0.0,0.0001312686149708142,0.0,0.0,0.0001312686149708142,0.0,-0.00011250167121223953
17,0.00047662,58.4457,58.4457,-5.85252e-12,0.0,0.0,-1.59836e-36,0.000196933,0.000196933,-0.0001688,0.0,0.0,0.0,0.0,0.00019695239257622177,0.0,0.0,0.00019695239257622177,0.0,-0.00016878575408152408
18,0.00071506,87.6791,87.6791,-2.95989e-11,0.0,0.0,-3.59607e-36,0.000295435,0.000295435,-0.00025323,0.0,0.0,0.0,0.0,0.00029547864521761724,0.0,0.0,0.00029547864521761724,0.0,-0.00025319793998968
19,0.0010727,131.524,131.524,-1.49709e-10,0.0,0.0,-8.09034e-36,0.000443169,0.000443169,-0.000379859,0.0,0.0,0.0,0.0,0.0004432672138892091,0.0,0.0,0.0004432672138892091,0.0,-0.0003797868627043455
20,0.0016092,197.279,197.279,-7.57628e-10,0.0,0.0,-1.82005e-35,0.00066473,0.00066473,-0.000569769,0.0,0.0,0.0,0.0,0.0006649509819482979,0.0,0.0,0.0006649509819482979,0.0,-0.0005696067124669746
21,0.0024139,295.884,295.884,-3.83263e-09,0.0,0.0,-4.09417e-35,0.00099698,0.00099698,-0.000854554,0.0,0.0,0.0,0.0,0.0009974771497625046,0.0,0.0,0.0009974771497625046,0.0,-0.0008541889727163854
22,0.003621,418.462,421.182,0.00583585,0.0,0.0,1.55536e-32,0.00149515,0.00149515,-0.00137361,0.0,0.0,0.0,0.000141231,0.0014962682940309335,0.0,0.0,0.0014962682940309335,0.0,-0.001372667029591157
23,0.0054316,436.771,454.109,0.131232,0.0,0.0,-2.72606e-15,0.00224193,0.00224193,-0.00276829,0.0,0.0,0.0,0.00129981,0.0022444450041991804,0.0,0.0,0.0022444450041991804,0.0,-0.0027644618185581615
24,0.0078516,456.528,486.104,9.91333e-05,1.10554e-34,-2.49857e-15,-1.53919e-15,0.0032392,0.0032392,-0.00466342,0.0,0.0,0.0,0.00289659,0.003244451877416177,0.0,0.0,0.003244451877416177,0.0,-0.004652563140207344
25,0.010272,473.127,510.596,1.25175e-05,-6.47337e-36,1.07073e-15,-8.74612e-16,0.00423547,0.00423547,-0.00657684,0.0,0.0,0.0,0.00452435,0.004244452279975608,0.0,0.0,0.004244452279975608,0.0,-0.006555259923295198
26,0.012692,487.568,530.314,1.58445e-06,5.48162e-34,3.17743e-15,6.99491e-15,0.00523074,0.00523074,-0.00850163,0.0,0.0,0.0,0.00617147,0.0052444442044314865,0.0,0.0,0.0052444442044314865,0.0,-0.00846559333943342
27,0.015112,500.398,546.827,3.43513e-07,2.96434e-34,-6.86125e-16,4.06575e-15,0.00622503,0.00622503,-0.0104337,0.0,0.0,0.0,0.00783149,0.006244445766251383,0.0,0.0,0.006244445766251383,0.0,-0.010379457765135047
28,0.017532,511.949,561.066,1.4146e-07,2.80647e-34,-4.11033e-16,4.91472e-15,0.00721833,0.00721833,-0.0123707,0.0,0.0,0.0,0.00950055,0.007244444941601369,0.0,0.0,0.007244444941601369,0.0,-0.012294497440753949
29,0.019952,522.448,573.619,-8.54548e-08,3.7649e-34,2.35726e-15,3.30295e-16,0.00821065,0.00821065,-0.0143109,0.0,0.0,0.0,0.0111761,0.008244449829572176,0.0,0.0,0.008244449829572176,0.0,-0.014208985811080321
30,0.022372,532.065,584.874,-3.80903e-07,2.30139e-35,-1.19845e-15,2.75567e-15,0.00920198,0.00920198,-0.0162534,0.0,0.0,0.0,0.0128566,0.009244448382409898,0.0,0.0,0.009244448382409898,0.0,-0.016122026214110297
31,0.024792,540.934,595.1,-6.99927e-07,2.18361e-35,-7.31734e-16,-9.60035e-16,0.0101923,0.0101923,-0.0181973,0.0,0.0,0.0,0.0145406,0.010244418407964417,0.0,0.0,0.010244418407964417,0.0,-0.018032728898207062
32,0.027212,549.16,604.487,-1.00842e-06,2.0405e-35,2.20187e-15,-3.19768e-15,0.0111817,0.0111817,-0.0201421,0.0,0.0,0.0,0.0162274,0.011244448869027979,0.0,0.0,0.011244448869027979,0.0,-0.01994060302890366
33,0.029632,556.83,613.177,-1.2909e-06,1.90581e-35,1.35046e-15,-1.94527e-15,0.0121701,0.0121701,-0.0220874,0.0,0.0,0.0,0.0179161,0.012244457004898734,0.0,0.0,0.012244457004898734,0.0,-0.021845259409171036
34,0.032052,564.016,621.276,-1.54235e-06,1.77887e-35,8.29056e-16,-1.19204e-15,0.0131575,0.0131575,-0.0240328,0.0,0.0,0.0,0.0196064,0.013244440792496093,0.0,0.0,0.013244440792496093,0.0,-0.023746311888212968
35,0.034472,570.775,628.867,-1.76291e-06,1.27927e-34,5.08117e-16,1.90433e-15,0.0141439,0.0141439,-0.0259781,0.0,0.0,0.0,0.0212978,0.014244398206812336,0.0,0.0,0.014244398206812336,0.0,-0.025643572219135935
36,0.036892,577.157,636.016,-1.95494e-06,9.68438e-36,3.09615e-16,-1.49828e-15,0.0151294,0.0151294,-0.027923,0.0,0.0,0.0,0.0229899,0.015244428745356142,0.0,0.0,0.015244428745356142,0.0,-0.027536756411790098
37,0.039312,583.204,642.775,-2.12156e-06,-5.4965e-34,-2.52312e-15,9.71879e-15,0.0161139,0.0161139,-0.0298673,0.0,0.0,0.0,0.0246824,0.016244429054838472,0.0,0.0,0.016244429054838472,0.0,-0.029425679784383596
38,0.041732,588.95,649.19,-2.26601e-06,-8.6096e-34,6.56906e-15,-2.04274e-15,0.0170975,0.0170975,-0.031811,0.0,0.0,0.0,0.0263752,0.017244498828943522,0.0,0.0,0.017244498828943522,0.0,-0.0313103528776878
39,0.044152,594.426,655.296,-2.39127e-06,-1.15699e-33,4.12621e-15,-3.96625e-15,0.01808,0.01808,-0.0337538,0.0,0.0,0.0,0.028068,0.01824443268611331,0.0,0.0,0.01824443268611331,0.0,-0.03319049616155223
40,0.046572,599.656,661.123,-2.50001e-06,-1.21549e-33,-1.46187e-16,-2.4792e-15,0.0190616,0.0190616,-0.0356957,0.0,0.0,0.0,0.0297607,0.019244432140675505,0.0,0.0,0.019244432140675505,0.0,-0.0350661218089221
41,0.048992,604.664,666.698,-2.59453e-06,-1.27175e-33,-2.85508e-15,1.14203e-15,0.0200423,0.0200423,-0.0376366,0.0,0.0,0.0,0.031453,0.02024449545617002,0.0,0.0,0.02024449545617002,0.0,-0.03693714565065587
42,0.051412,609.468,672.044,-2.67682e-06,-1.3259e-33,9.2542e-16,-2.00774e-15,0.0210219,0.0210219,-0.0395764,0.0,0.0,0.0,0.033145,0.02124441664535559,0.0,0.0,0.02124441664535559,0.0,-0.0388034842285111
43,0.053832,614.085,677.18,-2.74856e-06,-1.04257e-33,5.75678e-16,1.4454e-15,0.0220006,0.0220006,-0.0415151,0.0,0.0,0.0,0.0348365,0.022244397816892914,0.0,0.0,0.022244397816892914,0.0,-0.040665150724121246
44,0.056252,618.531,682.123,-2.81117e-06,-1.22044e-33,3.12262e-15,-1.82799e-15,0.0229784,0.0229784,-0.0434525,0.0,0.0,0.0,0.0365274,0.02324443722866909,0.0,0.0,0.02324443722866909,0.0,-0.04252196678259301
45,0.058672,622.818,686.888,-2.86588e-06,-8.3109e-34,1.98342e-15,1.56707e-15,0.0239552,0.0239552,-0.0453887,0.0,0.0,0.0,0.0382176,0.024244430712260456,0.0,0.0,0.024244430712260456,0.0,-0.04437404217771934
46,0.061092,626.958,691.488,-2.9137e-06,1.10618e-33,4.0381e-15,9.19164e-15,0.0249311,0.0249311,-0.0473236,0.0,0.0,0.0,0.0399071,0.02524447874626201,0.0,0.0,0.02524447874626201,0.0,-0.046221295142311214
47,0.063512,630.962,695.935,-2.95552e-06,1.49795e-33,2.57674e-15,8.54674e-15,0.025906,0.025906,-0.0492571,0.0,0.0,0.0,0.0415957,0.026244476958517948,0.0,0.0,0.026244476958517948,0.0,-0.048063644602855726
48,0.065932,634.838,700.24,-2.99207e-06,1.42397e-33,1.63632e-15,5.39703e-15,0.0268799,0.0268799,-0.0511893,0.0,0.0,0.0,0.0432835,0.02724442329946286,0.0,0.0,0.02724442329946286,0.0,-0.04990120019460342
49,0.068352,638.595,704.411,-3.02401e-06,1.35365e-33,1.02959e-15,3.39832e-15,0.0278529,0.0278529,-0.05312,0.0,0.0,0.0,0.0449704,0.028244418542125116,0.0,0.0,0.028244418542125116,0.0,-0.051733786291136896
50,0.070772,642.241,708.458,-3.05187e-06,1.7346e-33,6.37139e-16,4.89113e-15,0.028825,0.028825,-0.0550493,0.0,0.0,0.0,0.0466563,0.02924446093324229,0.0,0.0,0.02924446093324229,0.0,-0.05356151261411768
51,0.073192,645.782,712.389,-3.07613e-06,1.20229e-33,3.82656e-16,3.10636e-16,0.0297961,0.0297961,-0.0569772,0.0,0.0,0.0,0.0483412,0.030244445693269784,0.0,0.0,0.030244445693269784,0.0,-0.05538439364317427
52,0.075612,649.225,716.209,-3.0972e-06,4.69869e-34,3.03893e-15,-5.40132e-15,0.0307663,0.0307663,-0.0589035,0.0,0.0,0.0,0.050025,0.03124447388971663,0.0,0.0,0.03124447388971663,0.0,-0.05720225525017486
53,0.078032,652.575,719.926,-3.11543e-06,2.12387e-33,1.94838e-15,4.83463e-15,0.0317355,0.0317355,-0.0608284,0.0,0.0,0.0,0.0517078,0.032244440539372476,0.0,0.0,0.032244440539372476,0.0,-0.059015301103248374
54,0.080452,655.838,723.546,-3.13113e-06,1.46152e-33,1.23691e-15,2.76225e-16,0.0327038,0.0327038,-0.0627517,0.0,0.0,0.0,0.0533895,0.03324444690609507,0.0,0.0,0.03324444690609507,0.0,-0.060823357699664626
55,0.082872,659.018,727.073,-3.14457e-06,8.29248e-34,7.71734e-16,-2.66304e-15,0.0336712,0.0336712,-0.0646735,0.0,0.0,0.0,0.0550701,0.03424449122747819,0.0,0.0,0.03424449122747819,0.0,-0.06262653414361763
56,0.085292,662.119,730.513,-3.15598e-06,7.86116e-34,4.66933e-16,-1.76599e-15,0.0346376,0.0346376,-0.0665938,0.0,0.0,0.0,0.0567496,0.03524446821485494,0.0,0.0,0.03524446821485494,0.0,-0.06442484520911818
57,0.087712,665.146,733.87,-3.16557e-06,1.84233e-34,2.66773e-16,-3.99055e-15,0.0356031,0.0356031,-0.0685125,0.0,0.0,0.0,0.0584278,0.03624447942664566,0.0,0.0,0.03624447942664566,0.0,-0.06621821224177626
58,0.090132,668.102,737.148,-3.17352e-06,7.3091e-34,1.35027e-16,1.81145e-16,0.0365676,0.0365676,-0.0704296,0.0,0.0,0.0,0.0601049,0.037244419370573656,0.0,0.0,0.037244419370573656,0.0,-0.06800665045189147
59,0.092552,670.992,740.351,-3.17999e-06,4.84561e-33,5.76523e-15,8.51841e-15,0.0375313,0.0375313,-0.0723451,0.0,0.0,0.0,0.0617807,0.038244493625901876,0.0,0.0,0.038244493625901876,0.0,-0.06979017499698414
60,0.094972,673.817,743.483,-3.18513e-06,2.15926e-33,-1.96242e-15,-1.43161e-16,0.038494,0.038494,-0.074259,0.0,0.0,0.0,0.0634553,0.03924449287232035,0.0,0.0,0.03924449287232035,0.0,-0.0715688009819937
61,0.097392,676.58,746.547,-3.18905e-06,2.06054e-33,-1.34446e-15,-1.42408e-16,0.0394557,0.0394557,-0.0761714,0.0,0.0,0.0,0.0651287,0.04024441503662213,0.0,0.0,0.04024441503662213,0.0,-0.07334263612521519
62,0.099812,679.286,749.546,-3.19187e-06,4.21221e-33,1.93705e-15,5.51375e-15,0.0404166,0.0404166,-0.0780821,0.0,0.0,0.0,0.0668008,0.041244466292708726,0.0,0.0,0.041244466292708726,0.0,-0.07511150991864546
63,0.1022,681.936,752.482,-3.1937e-06,2.67749e-33,-1.63643e-15,7.18267e-16,0.0413765,0.0413765,-0.0799912,0.0,0.0,0.0,0.0684717,0.042244436714925504,0.0,0.0,0.042244436714925504,0.0,-0.0768755301537728
64,0.1047,684.532,755.36,-3.19461e-06,2.55728e-33,-1.13317e-15,4.14697e-16,0.0423355,0.0423355,-0.0818987,0.0,0.0,0.0,0.0701413,0.043244428549180425,0.0,0.0,0.043244428549180425,0.0,-0.07863471172717218
65,0.1071,687.077,758.18,-3.1947e-06,2.4424e-33,-7.9857e-16,2.15683e-16,0.0432936,0.0432936,-0.0838045,0.0,0.0,0.0,0.0718095,0.044244440015168696,0.0,0.0,0.044244440015168696,0.0,-0.08038897752271745
66,0.1095,689.573,760.946,-3.19403e-06,3.45608e-33,-5.75813e-16,5.77619e-15,0.0442508,0.0442508,-0.0857087,0.0,0.0,0.0,0.0734765,0.04524446933082715,0.0,0.0,0.04524446933082715,0.0,-0.08213843464496817
67,0.1119,692.022,763.659,-3.19267e-06,3.52717e-33,2.46687e-15,8.8786e-16,0.045207,0.045207,-0.0876113,0.0,0.0,0.0,0.0751422,0.046244410087888266,0.0,0.0,0.046244410087888266,0.0,-0.08388309783482994
68,0.1143,694.425,766.322,-3.19067e-06,6.69461e-34,-7.08931e-15,1.19372e-14,0.0461624,0.0461624,-0.0895122,0.0,0.0,0.0,0.0768065,0.04724446964966855,0.0,0.0,0.04724446964966855,0.0,-0.08562289034448145
69,0.1168,696.785,768.937,-3.18809e-06,2.93022e-34,-1.88635e-15,-7.73264e-16,0.0471168,0.0471168,-0.0914115,0.0,0.0,0.0,0.0784695,0.048244436879960606,0.0,0.0,0.048244436879960606,0.0,-0.08735791859769981
70,0.1192,699.104,771.505,-3.18498e-06,1.95651e-33,1.60372e-15,2.27601e-15,0.0480703,0.0480703,-0.0933091,0.0,0.0,0.0,0.0801312,0.04924441461414841,0.0,0.0,0.04924441461414841,0.0,-0.08908810609029172
71,0.1216,701.381,774.028,-3.18138e-06,6.46567e-35,-1.87114e-15,-4.3036e-15,0.0490229,0.0490229,-0.0952051,0.0,0.0,0.0,0.0817915,0.05024440106143513,0.0,0.0,0.05024440106143513,0.0,-0.09081355879509001
72,0.124,703.62,776.508,-3.17734e-06,9.51528e-34,1.61829e-15,-2.92503e-15,0.0499747,0.0499747,-0.0970994,0.0,0.0,0.0,0.0834505,0.05124449955373711,0.0,0.0,0.05124449955373711,0.0,-0.09253420045039551
73,0.1264,705.822,778.946,-3.17287e-06,3.38651e-34,-1.86609e-15,8.62016e-16,0.0509255,0.0509255,-0.0989921,0.0,0.0,0.0,0.0851081,0.052244498147909324,0.0,0.0,0.052244498147909324,0.0,-0.09425013658079417
74,0.1289,707.987,781.344,-3.16803e-06,4.47719e-33,7.4686e-15,3.37789e-15,0.0518753,0.0518753,-0.100883,0.0,0.0,0.0,0.0867644,0.05324439474797682,0.0,0.0,0.05324439474797682,0.0,-0.09596120076207737
75,0.1313,710.117,783.703,-3.16284e-06,1.01945e-33,-8.50497e-16,-6.4721e-15,0.0528243,0.0528243,-0.102772,0.0,0.0,0.0,0.0884193,0.05424439810513504,0.0,0.0,0.05424439810513504,0.0,-0.09766731811866325
76,0.1337,712.214,786.025,-3.15732e-06,5.18247e-34,-3.54685e-15,-1.49528e-15,0.0537724,0.0537724,-0.10466,0.0,0.0,0.0,0.0900728,0.05524440119553553,0.0,0.0,0.05524440119553553,0.0,-0.09936931503139945
77,0.1361,714.277,788.31,-3.1515e-06,3.18973e-33,3.42308e-15,1.82275e-15,0.0547196,0.0547196,-0.106546,0.0,0.0,0.0,0.091725,0.05624440221806659,0.0,0.0,0.05624440221806659,0.0,-0.10106630373988301
78,0.1385,716.309,790.561,-3.14541e-06,3.72495e-33,2.27647e-15,4.03832e-15,0.0556659,0.0556659,-0.108431,0.0,0.0,0.0,0.0933758,0.057244399369914545,0.0,0.0,0.057244399369914545,0.0,-0.10275919770350317
79,0.141,718.311,792.777,-3.13906e-06,3.56276e-33,1.49897e-15,2.62487e-15,0.0566114,0.0566114,-0.110313,0.0,0.0,0.0,0.0950252,0.05824449667101317,0.0,0.0,0.05824449667101317,0.0,-0.10444621691041034
80,0.1434,720.283,794.96,-3.13248e-06,2.73172e-33,9.7109e-16,-1.21928e-15,0.0575559,0.0575559,-0.112194,0.0,0.0,0.0,0.0966732,0.05924448076626909,0.0,0.0,0.05924448076626909,0.0,-0.10612917026256086
81,0.1458,722.226,797.112,-3.12568e-06,2.61033e-33,6.12228e-16,-8.93173e-16,0.0584995,0.0584995,-0.114074,0.0,0.0,0.0,0.0983198,0.06024445557223701,0.0,0.0,0.06024445557223701,0.0,-0.107808068763385
82,0.1482,724.141,799.232,-3.11869e-06,1.81816e-33,3.67946e-16,-3.58022e-15,0.0594422,0.0594422,-0.115951,0.0,0.0,0.0,0.0999651,0.06124441927934421,0.0,0.0,0.06124441927934421,0.0,-0.1094811423475528
83,0.1506,726.029,801.322,-3.1115e-06,1.73401e-33,2.01431e-16,-2.47677e-15,0.0603841,0.0603841,-0.117827,0.0,0.0,0.0,0.101609,0.062244476300782114,0.0,0.0,0.062244476300782114,0.0,-0.11115018966862134
84,0.1531,727.891,803.384,-3.10415e-06,1.65327e-33,8.77607e-17,-1.73556e-15,0.061325,0.061325,-0.119702,0.0,0.0,0.0,0.103251,0.06324441247473667,0.0,0.0,0.06324441247473667,0.0,-0.11281522160774737
85,0.1555,729.727,805.417,-3.09664e-06,1.57579e-33,1.00408e-17,-1.23714e-15,0.0622651,0.0622651,-0.121574,0.0,0.0,0.0,0.104892,0.06424443853550321,0.0,0.0,0.06424443853550321,0.0,-0.11447447796439203
86,0.1579,731.539,807.422,-3.08898e-06,1.05037e-33,-3.00484e-15,2.01669e-15,0.0632043,0.0632043,-0.123445,0.0,0.0,0.0,0.106532,0.06524444644238003,0.0,0.0,0.06524444644238003,0.0,-0.11612974722884828
87,0.1603,733.326,809.401,-3.08118e-06,9.96813e-34,-2.1042e-15,1.29e-15,0.0641426,0.0641426,-0.125315,0.0,0.0,0.0,0.10817,0.06624443437745042,0.0,0.0,0.06624443437745042,0.0,-0.11778104016143798
88,0.1627,735.09,811.353,-3.07327e-06,-7.09258e-35,4.44801e-15,-7.97433e-15,0.06508,0.06508,-0.127183,0.0,0.0,0.0,0.109807,0.06724440052114344,0.0,0.0,0.06724440052114344,0.0,-0.11942748691838279
89,0.1652,736.831,813.281,-3.06523e-06,-1.94638e-34,3.00301e-17,-2.52666e-15,0.0660166,0.0660166,-0.129049,0.0,0.0,0.0,0.111443,0.06824444987667944,0.0,0.0,0.06824444987667944,0.0,-0.12106910312353747
90,0.1676,738.551,815.184,-3.0571e-06,-5.39256e-34,-3.00315e-15,1.15874e-15,0.0669523,0.0669523,-0.130913,0.0,0.0,0.0,0.113077,0.0692444739967506,0.0,0.0,0.0692444739967506,0.0,-0.12270590434265738
91,0.17,740.248,817.062,-3.04886e-06,2.56647e-34,3.84197e-15,-2.21248e-15,0.0678871,0.0678871,-0.132776,0.0,0.0,0.0,0.114709,0.07024447105684795,0.0,0.0,0.07024447105684795,0.0,-0.12433878174528812
92,0.1724,741.924,818.918,-3.04054e-06,1.6964e-33,-3.87793e-16,1.01845e-14,0.068821,0.068821,-0.134637,0.0,0.0,0.0,0.116341,0.07124443923082846,0.0,0.0,0.07124443923082846,0.0,-0.1259668718647209
93,0.1748,743.58,820.75,-3.03213e-06,1.04874e-33,2.66455e-15,9.61323e-16,0.0697541,0.0697541,-0.136496,0.0,0.0,0.0,0.117971,0.07224448391536265,0.0,0.0,0.07224448391536265,0.0,-0.12759019010811745
94,0.1773,745.216,822.561,-3.02365e-06,2.00558e-33,4.76831e-15,5.80759e-16,0.0706863,0.0706863,-0.138354,0.0,0.0,0.0,0.119599,0.07324449625660368,0.0,0.0,0.07324449625660368,0.0,-0.12920962261621782
95,0.1797,746.833,824.35,-3.01509e-06,8.94422e-34,2.43695e-16,3.21899e-16,0.0716176,0.0716176,-0.14021,0.0,0.0,0.0,0.121226,0.07424447442352577,0.0,0.0,0.07424447442352577,0.0,-0.13082431066262057
96,0.1821,748.43,826.118,-3.00648e-06,8.417e-34,3.10109e-15,-2.80243e-15,0.072548,0.072548,-0.142064,0.0,0.0,0.0,0.122852,0.07524441658348935,0.0,0.0,0.07524441658348935,0.0,-0.1324342694976507
97,0.1845,750.009,827.865,-2.99781e-06,1.69364e-33,2.08236e-15,9.70487e-16,0.0734776,0.0734776,-0.143917,0.0,0.0,0.0,0.124476,0.07624442852668256,0.0,0.0,0.07624442852668256,0.0,-0.13404038027507315
98,0.1869,751.57,829.592,-2.98908e-06,-8.26258e-35,-1.61863e-15,-2.36408e-15,0.0744063,0.0744063,-0.145768,0.0,0.0,0.0,0.126099,0.07724440099279839,0.0,0.0,0.07724440099279839,0.0,-0.13564178897020762
99,0.1894,753.113,831.3,-2.98031e-06,8.05587e-34,1.8167e-15,-1.68388e-15,0.0753342,0.0753342,-0.147618,0.0,0.0,0.0,0.12772,0.07824443996881003,0.0,0.0,0.07824443996881003,0.0,-0.13723937343933457
100,0.1918,754.639,832.989,-2.97149e-06,-1.5002e-33,-1.80601e-15,-7.13744e-15,0.0762612,0.0762612,-0.149466,0.0,0.0,0.0,0.12934,0.07924443599120679,0.0,0.0,0.07924443599120679,0.0,-0.1388322827756625
101,0.1942,756.148,834.658,-2.96263e-06,1.70105e-33,-1.31456e-15,6.90356e-15,0.0771874,0.0771874,-0.151312,0.0,0.0,0.0,0.130959,0.08024449524377042,0.0,0.0,0.08024449524377042,0.0,-0.1404205319766212
102,0.1966,757.64,836.31,-2.95374e-06,-1.31817e-33,2.03332e-15,-7.20204e-15,0.0781126,0.0781126,-0.153156,0.0,0.0,0.0,0.132576,0.08124439993535426,0.0,0.0,0.08124439993535426,0.0,-0.14200413598402928
103,0.199,759.117,837.944,-2.94482e-06,-1.73901e-33,-4.66906e-15,9.3765e-16,0.0790371,0.0790371,-0.154999,0.0,0.0,0.0,0.134192,0.0822444725954512,0.0,0.0,0.0822444725954512,0.0,-0.14358396610078084
104,0.2015,760.577,839.56,-2.93587e-06,-1.69212e-33,-3.30582e-15,5.78747e-16,0.0799607,0.0799607,-0.15684,0.0,0.0,0.0,0.135806,0.08324449532975087,0.0,0.0,0.08324449532975087,0.0,-0.1451591775921086
105,0.2039,762.022,841.159,-2.9269e-06,-2.3246e-33,-2.35716e-15,-2.6398e-15,0.0808834,0.0808834,-0.15868,0.0,0.0,0.0,0.137419,0.08424446629124893,0.0,0.0,0.08424446629124893,0.0,-0.1467306385179259
106,0.2063,763.453,842.741,-2.9179e-06,3.42743e-34,1.32055e-15,4.07386e-15,0.0818053,0.0818053,-0.160518,0.0,0.0,0.0,0.139031,0.0852444921558182,0.0,0.0,0.0852444921558182,0.0,-0.14829750721089574
107,0.2087,764.868,844.307,-2.90888e-06,-7.05557e-34,-2.15485e-15,2.7338e-15,0.0827263,0.0827263,-0.162354,0.0,0.0,0.0,0.140641,0.08624446274886743,0.0,0.0,0.08624446274886743,0.0,-0.14985979836551655
108,0.2111,766.269,845.857,-2.89985e-06,-6.97549e-34,-1.55762e-15,1.81175e-15,0.0836465,0.0836465,-0.164189,0.0,0.0,0.0,0.14225,0.08724448494313486,0.0,0.0,0.08724448494313486,0.0,-0.15141837520392665
109,0.2136,767.656,847.392,-2.89081e-06,-1.36768e-33,-1.14067e-15,-1.80548e-15,0.0845658,0.0845658,-0.166022,0.0,0.0,0.0,0.143857,0.08824444836090461,0.0,0.0,0.08824444836090461,0.0,-0.15297240062276873
110,0.216,769.029,848.911,-2.88175e-06,2.7338e-33,5.2043e-15,4.65601e-15,0.0854843,0.0854843,-0.167853,0.0,0.0,0.0,0.145463,0.08924446007179787,0.0,0.0,0.08924446007179787,0.0,-0.15452188916756948
111,0.2184,770.388,850.415,-2.87269e-06,1.48342e-33,5.53641e-16,3.13746e-15,0.0864019,0.0864019,-0.169683,0.0,0.0,0.0,0.147068,0.09024440949499302,0.0,0.0,0.09024440949499302,0.0,-0.15606769926275876
112,0.2208,771.734,851.904,-2.86362e-06,2.53992e-33,3.36175e-15,2.0891e-15,0.0873187,0.0873187,-0.171511,0.0,0.0,0.0,0.148671,0.09124440389700861,0.0,0.0,0.09124440389700861,0.0,-0.15760899833195896
113,0.2232,773.068,853.379,-2.85455e-06,2.6521e-33,-7.39532e-16,7.34859e-15,0.0882347,0.0882347,-0.173338,0.0,0.0,0.0,0.150273,0.09224444171837654,0.0,0.0,0.09224444171837654,0.0,-0.15914664162714431
114,0.2257,774.388,854.84,-2.84547e-06,1.74284e-33,-5.78217e-16,2.0009e-15,0.0891498,0.0891498,-0.175163,0.0,0.0,0.0,0.151874,0.09324441207364731,0.0,0.0,0.09324441207364731,0.0,-0.160679799574017
115,0.2281,775.696,856.287,-2.8364e-06,2.44984e-33,-4.65128e-16,4.29428e-15,0.0900641,0.0900641,-0.176986,0.0,0.0,0.0,0.153473,0.09424442252472098,0.0,0.0,0.09424442252472098,0.0,-0.16220848647792008
116,0.2305,776.991,857.72,-2.82732e-06,3.13049e-33,-3.85815e-16,5.8817e-15,0.0909776,0.0909776,-0.178808,0.0,0.0,0.0,0.15507,0.0952444715075269,0.0,0.0,0.0952444715075269,0.0,-0.1637335528581898
117,0.2329,778.275,859.14,-2.81825e-06,2.99447e-33,-3.30176e-16,3.97973e-15,0.0918902,0.0918902,-0.180628,0.0,0.0,0.0,0.156667,0.09624444783201991,0.0,0.0,0.09624444783201991,0.0,-0.16525417360736439
118,0.2353,779.547,860.547,-2.80918e-06,2.07197e-33,-2.91141e-16,-3.43286e-16,0.092802,0.092802,-0.182446,0.0,0.0,0.0,0.158261,0.09724445935552417,0.0,0.0,0.09724445935552417,0.0,-0.16677036288609237
119,0.2378,780.807,861.941,-2.80011e-06,4.34977e-33,2.78392e-15,2.66838e-15,0.0937129,0.0937129,-0.184263,0.0,0.0,0.0,0.159855,0.09824439468495627,0.0,0.0,0.09824439468495627,0.0,-0.16828296652017305
120,0.2402,782.056,863.322,-2.79106e-06,3.26422e-33,1.89889e-15,-1.25683e-15,0.0946231,0.0946231,-0.186078,0.0,0.0,0.0,0.161447,0.09924447179904927,0.0,0.0,0.09924447179904927,0.0,-0.1697911638328492
121,0.242,782.992,864.358,-1.18043e-06,4.06968e-33,1.39092e-15,2.22675e-15,0.0953102,0.0953102,-0.187449,0.0,0.0,0.0,0.162649,0.10000002221524285,0.0,0.0,0.10000002221524285,0.0,-0.17092860025640189
