,Time,S11,S22,S33,S12,S13,S23,LE11,LE22,LE33,LE12,LE13,LE23,SDV_EPBAR,E11,E12,E13,E22,E23,E33
0,2.42e-07,0.029678,0.029678,1.04083e-17,0.0,0.0,0.0,1e-07,1e-07,-8.57143e-08,0.0,0.0,0.0,0.0,1.0000000494336803e-07,0.0,0.0,1.0000000494336803e-07,0.0,-8.571429632731054e-08
1,4.84e-07,0.059356,0.059356,3.46945e-18,0.0,0.0,0.0,2e-07,2e-07,-1.71429e-07,0.0,0.0,0.0,0.0,2.0000002010078788e-07,0.0,0.0,2.0000002010078788e-07,0.0,-1.7142898534050488e-07
2,8.47e-07,0.103873,0.103873,3.46945e-18,0.0,0.0,0.0,3.5e-07,3.5e-07,-3e-07,0.0,0.0,0.0,0.0,3.5000006115559756e-07,0.0,0.0,3.5000006115559756e-07,0.0,-2.9999995498908305e-07
3,1.3915e-06,0.170648,0.170648,-1.73472e-17,0.0,0.0,0.0,5.75e-07,5.75e-07,-4.92857e-07,0.0,0.0,0.0,0.0,5.750001652593539e-07,0.0,0.0,5.750001652593539e-07,0.0,-4.928568785311782e-07
4,2.2083e-06,0.270812,0.270812,-3.46945e-18,0.0,0.0,0.0,9.125e-07,9.125e-07,-7.82142e-07,0.0,0.0,0.0,0.0,9.125004163390571e-07,0.0,0.0,9.125004163390571e-07,0.0,-7.821416940778647e-07
5,3.4334e-06,0.421056,0.421056,5.20417e-17,0.0,0.0,0.0,1.41875e-06,1.41875e-06,-1.21607e-06,0.0,0.0,0.0,0.0,1.4187510064544995e-06,0.0,0.0,1.4187510064544995e-06,0.0,-1.2160692606233425e-06
6,5.2711e-06,0.646423,0.646423,2.42861e-17,0.0,0.0,0.0,2.17812e-06,2.17812e-06,-1.86696e-06,0.0,0.0,0.0,0.0,2.178122372020752e-06,0.0,0.0,2.178122372020752e-06,0.0,-1.8669582572128363e-06
7,8.0276e-06,0.984473,0.984473,1.35308e-16,0.0,0.0,0.0,3.31718e-06,3.31718e-06,-2.8433e-06,0.0,0.0,0.0,0.0,3.317185501838793e-06,0.0,0.0,3.317185501838793e-06,0.0,-2.8432959577884276e-06
8,1.2162e-05,1.49155,1.49155,4.68375e-16,0.0,0.0,0.0,5.02577e-06,5.02577e-06,-4.3078e-06,0.0,0.0,0.0,0.0,5.025782629175524e-06,0.0,0.0,5.025782629175524e-06,0.0,-4.307790721469473e-06
9,1.8365e-05,2.25216,2.25216,3.57353e-16,0.0,0.0,0.0,7.58864e-06,7.58864e-06,-6.50455e-06,0.0,0.0,0.0,0.0,7.5886687938009345e-06,0.0,0.0,7.5886687938009345e-06,0.0,-6.50452884543018e-06
10,2.7668e-05,3.39307,3.39307,-3.08781e-16,0.0,0.0,0.0,1.14329e-05,1.14329e-05,-9.79967e-06,0.0,0.0,0.0,0.0,1.1432965355773206e-05,0.0,0.0,1.1432965355773206e-05,0.0,-9.799621983441753e-06
11,4.1623e-05,5.10443,5.10443,-7.5287e-16,0.0,0.0,-1.23207e-38,1.71994e-05,1.71994e-05,-1.47423e-05,0.0,0.0,0.0,0.0,1.7199547910573543e-05,0.0,0.0,1.7199547910573543e-05,0.0,-1.4742191332794974e-05
12,6.2555e-05,7.67145,7.67145,-1.64105e-15,0.0,0.0,-2.77213e-38,2.58489e-05,2.58489e-05,-2.21562e-05,0.0,0.0,0.0,0.0,2.5849234085661976e-05,0.0,0.0,2.5849234085661976e-05,0.0,-2.2155954553237933e-05
13,9.3954e-05,11.5219,11.5219,-8.30239e-15,0.0,0.0,-6.23724e-38,3.88231e-05,3.88231e-05,-3.3277e-05,0.0,0.0,0.0,0.0,3.882385362641294e-05,0.0,0.0,3.882385362641294e-05,0.0,-3.327644632677984e-05
14,0.00014105,17.2976,17.2976,-4.47177e-14,0.0,0.0,-1.40336e-37,5.82842e-05,5.82842e-05,-4.99578e-05,0.0,0.0,0.0,0.0,5.828589855694233e-05,0.0,0.0,5.828589855694233e-05,0.0,-4.995655212991501e-05
15,0.0002117,25.9608,25.9608,-2.25018e-13,0.0,0.0,-3.1575e-37,8.7475e-05,8.7475e-05,-7.49785e-05,0.0,0.0,0.0,0.0,8.747882604942525e-05,0.0,0.0,8.747882604942525e-05,0.0,-7.4975689182466e-05
16,0.00031767,38.9552,38.9552,-1.14339e-12,0.0,0.0,-7.10416e-37,0.00013126,0.00013126,-0.000112508,0.0,0.0,0.0,0.0,0.0001312686149708142,0.0,0.0,0.0001312686149708142,0.0,-0.00011250167121223953
17,0.00047662,58.4457,58.4457,-5.85252e-12,0.0,0.0,-1.59836e-36,0.000196933,0.000196933,-0.0001688,0.0,0.0,0.0,0.0,0.00019695239257622177,0.0,0.0,0.00019695239257622177,0.0,-0.00016878575408152408
18,0.00071506,87.6791,87.6791,-2.95989e-11,0.0,0.0,-3.59607e-36,0.000295435,0.000295435,-0.00025323,0.0,0.0,0.0,0.0,0.00029547864521761724,0.0,0.0,0.00029547864521761724,0.0,-0.00025319793998968
19,0.0010727,131.524,131.524,-1.49709e-10,0.0,0.0,-8.09034e-36,0.000443169,0.000443169,-0.000379859,0.0,0.0,0.0,0.0,0.0004432672138892091,0.0,0.0,0.0004432672138892091,0.0,-0.0003797868627043455
20,0.0016092,197.279,197.279,-7.57628e-10,0.0,0.0,-1.82005e-35,0.00066473,0.00066473,-0.000569769,0.0,0.0,0.0,0.0,0.0006649509819482979,0.0,0.0,0.0006649509819482979,0.0,-0.0005696067124669746
21,0.0024139,295.884,295.884,-3.83263e-09,0.0,0.0,-4.09417e-35,0.00099698,0.00099698,-0.000854554,0.0,0.0,0.0,0.0,0.0009974771497625046,0.0,0.0,0.0009974771497625046,0.0,-0.0008541889727163854
22,0.003621,424.07,425.853,0.00363269,0.0,0.0,1.2387e-32,0.00149515,0.00149515,-0.00135382,0.0,0.0,0.0,0.000112434,0.0014962682940309335,0.0,0.0,0.0014962682940309335,0.0,-0.0013529039991171388
23,0.0054316,444.37,457.962,0.148379,0.0,0.0,7.2437e-32,0.00224193,0.00224193,-0.00274621,0.0,0.0,0.0,0.00128379,0.0022444450041991804,0.0,0.0,0.0022444450041991804,0.0,-0.0027424426147840686
24,0.0078516,466.001,489.19,0.000110349,0.0,0.0,2.43763e-15,0.0032392,0.0032392,-0.00463924,0.0,0.0,0.0,0.00289919,0.003244451877416177,0.0,0.0,0.003244451877416177,0.0,-0.004628495348205752
25,0.010272,483.965,513.196,1.39542e-05,6.63199e-34,-5.022e-15,-3.54213e-15,0.00423547,0.00423547,-0.00655097,0.0,0.0,0.0,0.0045464,0.004244452279975608,0.0,0.0,0.004244452279975608,0.0,-0.006529559175431632
26,0.012692,499.418,532.615,1.8176e-06,1.06855e-33,2.13662e-15,5.42622e-15,0.00523074,0.00523074,-0.00847438,0.0,0.0,0.0,0.0062135,0.0052444442044314865,0.0,0.0,0.0052444442044314865,0.0,-0.00843857365871048
27,0.015112,513.022,548.951,3.73076e-07,1.00889e-33,1.26449e-15,-4.38707e-15,0.00622503,0.00622503,-0.0104053,0.0,0.0,0.0,0.00789386,0.006244445766251383,0.0,0.0,0.006244445766251383,0.0,-0.010351352142637604
28,0.017532,525.181,563.091,1.55318e-07,9.53442e-34,7.5412e-16,-3.25124e-17,0.00721833,0.00721833,-0.0123413,0.0,0.0,0.0,0.00958353,0.007244444941601369,0.0,0.0,0.007244444941601369,0.0,-0.012265458472108026
29,0.019952,536.175,575.596,-5.92035e-08,9.01822e-34,3.04659e-15,-1.91644e-17,0.00821065,0.00821065,-0.0142807,0.0,0.0,0.0,0.0112799,0.008244449829572176,0.0,0.0,0.008244449829572176,0.0,-0.01417921447290682
30,0.022372,546.206,586.834,-3.4744e-07,5.20595e-34,-3.38685e-15,2.55105e-15,0.00920198,0.00920198,-0.0162224,0.0,0.0,0.0,0.0129813,0.009244448382409898,0.0,0.0,0.009244448382409898,0.0,-0.016091525524164707
31,0.024792,555.429,597.062,-6.62819e-07,4.86132e-35,3.19982e-15,-3.64058e-15,0.0101923,0.0101923,-0.0181656,0.0,0.0,0.0,0.0146865,0.010244418407964417,0.0,0.0,0.010244418407964417,0.0,-0.018001600042323318
32,0.027212,563.966,606.463,-9.70667e-07,-1.28658e-33,7.22741e-15,-7.36176e-15,0.0111817,0.0111817,-0.0201098,0.0,0.0,0.0,0.0163945,0.011244448869027979,0.0,0.0,0.011244448869027979,0.0,-0.019908946599132782
33,0.029632,571.914,615.172,-1.25422e-06,-7.74653e-34,-8.8966e-16,7.92706e-16,0.0121701,0.0121701,-0.0220545,0.0,0.0,0.0,0.0181046,0.012244457004898734,0.0,0.0,0.012244457004898734,0.0,-0.021813077588817675
34,0.032052,579.35,623.295,-1.50762e-06,-2.06964e-33,4.77369e-15,-4.74776e-15,0.0131575,0.0131575,-0.0239994,0.0,0.0,0.0,0.0198162,0.013244440792496093,0.0,0.0,0.013244440792496093,0.0,-0.02371370447048904
35,0.034472,586.339,630.911,-1.73047e-06,-1.51925e-33,-2.41858e-15,2.39175e-15,0.0141439,0.0141439,-0.0259442,0.0,0.0,0.0,0.021529,0.014244398206812336,0.0,0.0,0.014244398206812336,0.0,-0.025610540976357843
36,0.036892,592.934,638.086,-1.92486e-06,-1.55455e-33,1.17475e-15,1.47024e-15,0.0151294,0.0151294,-0.0278886,0.0,0.0,0.0,0.0232426,0.015244428745356142,0.0,0.0,0.015244428745356142,0.0,-0.027503303100817056
37,0.039312,599.179,644.871,-2.0938e-06,-2.03406e-33,3.41636e-15,-1.74096e-15,0.0161139,0.0161139,-0.0298325,0.0,0.0,0.0,0.0249567,0.016244429054838472,0.0,0.0,0.016244429054838472,0.0,-0.029391903210331027
38,0.041732,605.111,651.311,-2.24041e-06,-1.59937e-33,-3.29787e-15,1.60413e-15,0.0170975,0.0170975,-0.0317758,0.0,0.0,0.0,0.0266711,0.017244498828943522,0.0,0.0,0.017244498828943522,0.0,-0.03127625440197945
39,0.044152,610.762,657.442,-2.36767e-06,-1.41022e-33,-2.08306e-15,3.67062e-15,0.01808,0.01808,-0.0337182,0.0,0.0,0.0,0.0283855,0.01824443268611331,0.0,0.0,0.01824443268611331,0.0,-0.033156077130560235
40,0.046572,616.158,663.293,-2.47824e-06,-1.34251e-33,1.40345e-15,2.27762e-15,0.0190616,0.0190616,-0.0356597,0.0,0.0,0.0,0.0300998,0.019244432140675505,0.0,0.0,0.019244432140675505,0.0,-0.03503138356402269
41,0.048992,621.324,668.891,-2.57443e-06,-1.72485e-33,3.60778e-15,-1.27068e-15,0.0200423,0.0200423,-0.0376003,0.0,0.0,0.0,0.0318138,0.02024449545617002,0.0,0.0,0.02024449545617002,0.0,-0.03690218583452631
42,0.051412,626.279,674.259,-2.65823e-06,-2.31155e-33,2.26749e-15,-6.17921e-15,0.0210219,0.0210219,-0.0395398,0.0,0.0,0.0,0.0335275,0.02124441664535559,0.0,0.0,0.02124441664535559,0.0,-0.038768303792235614
43,0.053832,631.04,679.416,-2.73133e-06,-1.75422e-33,-1.33089e-15,-1.14135e-15,0.0220006,0.0220006,-0.0414781,0.0,0.0,0.0,0.0352406,0.022244397816892914,0.0,0.0,0.022244397816892914,0.0,-0.04062965467802515
44,0.056252,635.624,684.38,-2.79518e-06,-2.78799e-33,4.65121e-15,-3.41346e-15,0.0229784,0.0229784,-0.0434153,0.0,0.0,0.0,0.0369532,0.02324443722866909,0.0,0.0,0.02324443722866909,0.0,-0.04248634793725092
45,0.058672,640.043,689.164,-2.851e-06,-2.32019e-33,1.8051e-16,-2.12585e-15,0.0239552,0.0239552,-0.0453512,0.0,0.0,0.0,0.0386651,0.024244430712260456,0.0,0.0,0.024244430712260456,0.0,-0.044338205532368224
46,0.061092,644.311,693.783,-2.89983e-06,-2.54573e-33,2.86472e-15,-1.31842e-15,0.0249311,0.0249311,-0.0472857,0.0,0.0,0.0,0.0403763,0.02524447874626201,0.0,0.0,0.02524447874626201,0.0,-0.04618514624437964
47,0.063512,648.437,698.248,-2.94257e-06,-1.97875e-33,1.81147e-15,1.92329e-15,0.025906,0.025906,-0.049219,0.0,0.0,0.0,0.0420867,0.026244476958517948,0.0,0.0,0.026244476958517948,0.0,-0.04802737513678612
48,0.065932,652.432,702.571,-2.97996e-06,-2.33343e-33,1.13626e-15,-1.50421e-15,0.0268799,0.0268799,-0.0511509,0.0,0.0,0.0,0.0437962,0.02724442329946286,0.0,0.0,0.02724442329946286,0.0,-0.04986471570019313
49,0.068352,656.304,706.759,-3.01265e-06,-2.22435e-33,7.02249e-16,-9.32775e-16,0.0278529,0.0278529,-0.0530814,0.0,0.0,0.0,0.0455047,0.028244418542125116,0.0,0.0,0.028244418542125116,0.0,-0.051697182508839146
50,0.070772,660.061,710.823,-3.04121e-06,-1.6735e-33,4.22551e-16,2.18277e-15,0.028825,0.028825,-0.0550104,0.0,0.0,0.0,0.0472123,0.02924446093324229,0.0,0.0,0.02924446093324229,0.0,-0.05352469544086902
51,0.073192,663.709,714.769,-3.06611e-06,-1.59636e-33,2.41825e-16,1.41068e-15,0.0297961,0.0297961,-0.0569381,0.0,0.0,0.0,0.048919,0.030244445693269784,0.0,0.0,0.030244445693269784,0.0,-0.0553474584508874
52,0.075612,667.256,718.605,-3.08776e-06,-1.29929e-33,-2.68626e-15,9.19321e-16,0.0307663,0.0307663,-0.0588642,0.0,0.0,0.0,0.0506245,0.03124447388971663,0.0,0.0,0.03124447388971663,0.0,-0.05716520257072577
53,0.078032,670.708,722.337,-3.10652e-06,-1.24011e-33,-1.77641e-15,6.05953e-16,0.0317355,0.0317355,-0.0607888,0.0,0.0,0.0,0.052329,0.032244440539372476,0.0,0.0,0.032244440539372476,0.0,-0.058978037371354985
54,0.080452,674.069,725.971,-3.12271e-06,-1.18382e-33,-1.18534e-15,4.05692e-16,0.0327038,0.0327038,-0.0627119,0.0,0.0,0.0,0.0540324,0.03324444690609507,0.0,0.0,0.03324444690609507,0.0,-0.06078597772544447
55,0.082872,677.345,729.513,-3.13661e-06,-1.13028e-33,-8.00615e-16,2.77469e-16,0.0336712,0.0336712,-0.0646335,0.0,0.0,0.0,0.0557347,0.03424449122747819,0.0,0.0,0.03424449122747819,0.0,-0.06258903845507457
56,0.085292,680.539,732.966,-3.14843e-06,-7.43031e-34,2.28317e-15,2.98287e-15,0.0346376,0.0346376,-0.0665536,0.0,0.0,0.0,0.0574358,0.03524446821485494,0.0,0.0,0.03524446821485494,0.0,-0.06438723433192195
57,0.087712,683.657,736.336,-3.15841e-06,-1.26879e-33,-1.3706e-15,-6.44165e-15,0.0356031,0.0356031,-0.0684721,0.0,0.0,0.0,0.0591357,0.03624447942664566,0.0,0.0,0.03624447942664566,0.0,-0.06618048669549981
58,0.090132,686.702,739.627,-3.16672e-06,-1.32183e-33,4.75927e-15,-1.34273e-15,0.0365676,0.0365676,-0.070389,0.0,0.0,0.0,0.0608344,0.037244419370573656,0.0,0.0,0.037244419370573656,0.0,-0.06796881075375916
59,0.092552,689.678,742.843,-3.17352e-06,-1.2605e-33,3.09715e-15,-8.47116e-16,0.0375313,0.0375313,-0.0723043,0.0,0.0,0.0,0.0625319,0.038244493625901876,0.0,0.0,0.038244493625901876,0.0,-0.06975222166188122
60,0.094972,692.588,745.988,-3.17897e-06,-6.41599e-34,2.00455e-15,2.2814e-15,0.038494,0.038494,-0.0742181,0.0,0.0,0.0,0.0642282,0.03924449287232035,0.0,0.0,0.03924449287232035,0.0,-0.07153082736939875
61,0.097392,695.434,749.063,-3.18318e-06,-1.17178e-33,1.28503e-15,-1.31071e-15,0.0394557,0.0394557,-0.0761302,0.0,0.0,0.0,0.0659232,0.04024441503662213,0.0,0.0,0.04024441503662213,0.0,-0.07330445705534017
62,0.099812,698.22,752.074,-3.18627e-06,-4.45066e-34,-2.05175e-15,1.98662e-15,0.0404166,0.0404166,-0.0780407,0.0,0.0,0.0,0.067617,0.041244466292708726,0.0,0.0,0.041244466292708726,0.0,-0.07507321874253425
63,0.1022,700.949,755.022,-3.18835e-06,-1.3214e-33,1.47184e-15,-1.50764e-15,0.0413765,0.0413765,-0.0799497,0.0,0.0,0.0,0.0693094,0.042244436714925504,0.0,0.0,0.042244436714925504,0.0,-0.07683721969333757
64,0.1047,703.622,757.911,-3.1895e-06,-1.59792e-33,3.80811e-15,-9.62183e-16,0.0423355,0.0423355,-0.081857,0.0,0.0,0.0,0.0710006,0.043244428549180425,0.0,0.0,0.043244428549180425,0.0,-0.0785962899935636
65,0.1071,706.243,760.742,-3.1898e-06,-1.18906e-33,-3.89734e-16,-6.06213e-16,0.0432936,0.0432936,-0.0837627,0.0,0.0,0.0,0.0726905,0.044244440015168696,0.0,0.0,0.044244440015168696,0.0,-0.08035053697857619
66,0.1095,708.813,763.519,-3.18934e-06,-2.25753e-33,2.57843e-15,-3.2085e-15,0.0442508,0.0442508,-0.0856667,0.0,0.0,0.0,0.074379,0.04524446933082715,0.0,0.0,0.04524446933082715,0.0,-0.08209988364965815
67,0.1119,711.335,766.243,-3.18817e-06,-1.48326e-33,1.67194e-15,7.62643e-16,0.045207,0.045207,-0.0875691,0.0,0.0,0.0,0.0760662,0.046244410087888266,0.0,0.0,0.046244410087888266,0.0,-0.08384443688581833
68,0.1143,713.809,768.916,-3.18635e-06,-2.09012e-33,1.06826e-15,-2.31689e-15,0.0461624,0.0461624,-0.0894699,0.0,0.0,0.0,0.0777521,0.04724446964966855,0.0,0.0,0.04724446964966855,0.0,-0.08558421137468852
69,0.1168,716.239,771.541,-3.18395e-06,-1.5465e-33,-5.11816e-15,-7.18981e-15,0.0471168,0.0471168,-0.091369,0.0,0.0,0.0,0.0794367,0.048244436879960606,0.0,0.0,0.048244436879960606,0.0,-0.08731913048499873
70,0.1192,718.626,774.119,-3.181e-06,-8.01328e-34,-5.68812e-16,1.00522e-15,0.0480703,0.0480703,-0.0932665,0.0,0.0,0.0,0.0811199,0.04924441461414841,0.0,0.0,0.04924441461414841,0.0,-0.08904930041705617
71,0.1216,720.971,776.652,-3.17755e-06,3.60811e-34,-4.23293e-16,6.40806e-15,0.0490229,0.0490229,-0.0951623,0.0,0.0,0.0,0.0828017,0.05024440106143513,0.0,0.0,0.05024440106143513,0.0,-0.09077464478265251
72,0.124,723.276,779.141,-3.17365e-06,5.74106e-34,-3.22953e-15,4.25849e-15,0.0499747,0.0499747,-0.0970565,0.0,0.0,0.0,0.0844822,0.05124449955373711,0.0,0.0,0.05124449955373711,0.0,-0.09249526933252827
73,0.1264,725.543,781.589,-3.16932e-06,-2.36901e-33,7.00308e-16,-8.61334e-15,0.0509255,0.0509255,-0.0989491,0.0,0.0,0.0,0.0861613,0.052244498147909324,0.0,0.0,0.052244498147909324,0.0,-0.09421118849928944
74,0.1289,727.772,783.996,-3.16461e-06,-1.70246e-33,4.30519e-16,-2.80125e-15,0.0518753,0.0518753,-0.10084,0.0,0.0,0.0,0.087839,0.05324439474797682,0.0,0.0,0.05324439474797682,0.0,-0.0959223262579143
75,0.1313,729.965,786.364,-3.15953e-06,-1.6264e-33,2.49039e-16,-1.82089e-15,0.0528243,0.0528243,-0.102729,0.0,0.0,0.0,0.0895154,0.05424439810513504,0.0,0.0,0.05424439810513504,0.0,-0.09762851697912378
76,0.1337,732.123,788.695,-3.15413e-06,-1.32847e-33,3.04501e-15,1.7034e-15,0.0537724,0.0537724,-0.104617,0.0,0.0,0.0,0.0911903,0.05524440119553553,0.0,0.0,0.05524440119553553,0.0,-0.09933058707930087
77,0.1361,734.247,790.989,-3.14842e-06,-1.26775e-33,-9.1177e-16,-1.71019e-15,0.0547196,0.0547196,-0.106503,0.0,0.0,0.0,0.0928639,0.05624440221806659,0.0,0.0,0.05624440221806659,0.0,-0.1010276487598677
78,0.1385,736.339,793.248,-3.14243e-06,-1.20963e-33,-6.59024e-16,-1.09998e-15,0.0556659,0.0556659,-0.108387,0.0,0.0,0.0,0.0945361,0.057244399369914545,0.0,0.0,0.057244399369914545,0.0,-0.10271971823966031
79,0.141,738.399,795.473,-3.13619e-06,-5.91676e-34,-4.88383e-16,2.1911e-15,0.0566114,0.0566114,-0.110269,0.0,0.0,0.0,0.0962069,0.05824449667101317,0.0,0.0,0.05824449667101317,0.0,-0.10440681167704569
80,0.1434,740.429,797.664,-3.1297e-06,3.16186e-37,-3.73071e-16,4.38624e-15,0.0575559,0.0575559,-0.11215,0.0,0.0,0.0,0.0978763,0.05924448076626909,0.0,0.0,0.05924448076626909,0.0,-0.10608983908077285
81,0.1458,742.429,799.824,-3.12299e-06,-5.57374e-34,-2.95091e-16,6.93838e-17,0.0584995,0.0584995,-0.11403,0.0,0.0,0.0,0.0995443,0.06024445557223701,0.0,0.0,0.06024445557223701,0.0,-0.10776881145475614
82,0.1482,744.401,801.952,-3.11608e-06,-5.29262e-34,-2.42328e-16,7.92574e-17,0.0594422,0.0594422,-0.115907,0.0,0.0,0.0,0.101211,0.06124441927934421,0.0,0.0,0.06124441927934421,0.0,-0.10944195865578121
83,0.1506,746.344,804.05,-3.10898e-06,-5.0232e-34,-2.06621e-16,8.59433e-17,0.0603841,0.0603841,-0.117783,0.0,0.0,0.0,0.102876,0.062244476300782114,0.0,0.0,0.062244476300782114,0.0,-0.11111107941654741
84,0.1531,748.261,806.12,-3.1017e-06,-4.76494e-34,-1.8246e-16,9.05016e-17,0.061325,0.061325,-0.119657,0.0,0.0,0.0,0.10454,0.06324441247473667,0.0,0.0,0.06324441247473667,0.0,-0.1127752973944316
85,0.1555,750.151,808.16,-3.09426e-06,-4.51734e-34,-1.66126e-16,9.36376e-17,0.0622651,0.0622651,-0.12153,0.0,0.0,0.0,0.106202,0.06424443853550321,0.0,0.0,0.06424443853550321,0.0,-0.11443551398422114
86,0.1579,752.015,810.173,-3.08667e-06,-1.66654e-33,2.79637e-15,-2.81219e-15,0.0632043,0.0632043,-0.123401,0.0,0.0,0.0,0.107863,0.06524444644238003,0.0,0.0,0.06524444644238003,0.0,-0.11609085608212744
87,0.1603,753.855,812.159,-3.07895e-06,-2.26854e-33,1.86288e-15,-4.76553e-15,0.0641426,0.0641426,-0.12527,0.0,0.0,0.0,0.109523,0.06624443437745042,0.0,0.0,0.06624443437745042,0.0,-0.1177413394149851
88,0.1627,755.671,814.119,-3.0711e-06,-1.49474e-33,-1.73195e-15,-3.1661e-15,0.06508,0.06508,-0.127138,0.0,0.0,0.0,0.111181,0.06724440052114344,0.0,0.0,0.06724440052114344,0.0,-0.11938786026370118
89,0.1652,757.463,816.054,-3.06313e-06,-1.31529e-33,1.73189e-15,8.28118e-16,0.0660166,0.0660166,-0.129004,0.0,0.0,0.0,0.112837,0.06824444987667944,0.0,0.0,0.06824444987667944,0.0,-0.12102955034324725
90,0.1676,759.232,817.964,-3.05505e-06,-5.80029e-34,1.13835e-15,3.52124e-15,0.0669523,0.0669523,-0.130868,0.0,0.0,0.0,0.114493,0.0692444739967506,0.0,0.0,0.0692444739967506,0.0,-0.1226664252200792
91,0.17,760.979,819.85,-3.04687e-06,-1.9021e-33,7.31882e-16,-3.43073e-15,0.0678871,0.0678871,-0.13273,0.0,0.0,0.0,0.116147,0.07024447105684795,0.0,0.0,0.07024447105684795,0.0,-0.12429850040278467
92,0.1724,762.705,821.712,-3.0386e-06,-1.14291e-33,-2.51624e-15,-2.27503e-15,0.068821,0.068821,-0.134591,0.0,0.0,0.0,0.117799,0.07124443923082846,0.0,0.0,0.07124443923082846,0.0,-0.12592666541608533
93,0.1748,764.409,823.552,-3.03025e-06,-1.09036e-33,-1.77312e-15,-1.4936e-15,0.0697541,0.0697541,-0.136451,0.0,0.0,0.0,0.11945,0.07224448391536265,0.0,0.0,0.07224448391536265,0.0,-0.12755093078334434
94,0.1773,766.092,825.369,-3.02181e-06,-1.03992e-33,-1.26292e-15,-9.6467e-16,0.0706863,0.0706863,-0.138308,0.0,0.0,0.0,0.1211,0.07324449625660368,0.0,0.0,0.07324449625660368,0.0,-0.12916956533754786
95,0.1797,767.756,827.165,-3.01331e-06,-8.78496e-34,2.06566e-15,2.32873e-15,0.0716176,0.0716176,-0.140164,0.0,0.0,0.0,0.122748,0.07424447442352577,0.0,0.0,0.07424447442352577,0.0,-0.1307843276613091
96,0.1821,769.4,828.939,-3.00474e-06,1.77795e-34,-1.60524e-15,4.56268e-15,0.072548,0.072548,-0.142019,0.0,0.0,0.0,0.124395,0.07524441658348935,0.0,0.0,0.07524441658348935,0.0,-0.13239522816135452
97,0.1845,771.025,830.693,-2.99611e-06,-1.06274e-33,1.83314e-15,1.98396e-16,0.0734776,0.0734776,-0.143871,0.0,0.0,0.0,0.12604,0.07624442852668256,0.0,0.0,0.07624442852668256,0.0,-0.1340005452163665
98,0.1869,772.631,832.427,-2.98743e-06,-1.6902e-33,1.21739e-15,-2.76717e-15,0.0744063,0.0744063,-0.145722,0.0,0.0,0.0,0.127684,0.07724440099279839,0.0,0.0,0.07724440099279839,0.0,-0.13560202757799522
99,0.1894,774.219,834.141,-2.9787e-06,-1.61627e-33,7.92449e-16,-1.83813e-15,0.0753342,0.0753342,-0.147572,0.0,0.0,0.0,0.129326,0.07824443996881003,0.0,0.0,0.07824443996881003,0.0,-0.137199685537698
100,0.1918,775.789,835.836,-2.96992e-06,-2.22178e-33,4.98895e-16,-4.15448e-15,0.0762612,0.0762612,-0.149419,0.0,0.0,0.0,0.130968,0.07924443599120679,0.0,0.0,0.07924443599120679,0.0,-0.1387918069417784
101,0.1942,777.342,837.512,-2.9611e-06,-2.12675e-33,2.95888e-16,-2.78133e-15,0.0771874,0.0771874,-0.151265,0.0,0.0,0.0,0.132607,0.08024449524377042,0.0,0.0,0.08024449524377042,0.0,-0.14038013079220368
102,0.1966,778.878,839.169,-2.95225e-06,-2.03544e-33,1.55346e-16,-1.84477e-15,0.0781126,0.0781126,-0.15311,0.0,0.0,0.0,0.134245,0.08124439993535426,0.0,0.0,0.08124439993535426,0.0,-0.14196466726651102
103,0.199,780.398,840.809,-2.94336e-06,-5.94218e-34,5.79326e-17,4.7083e-15,0.0790371,0.0790371,-0.154953,0.0,0.0,0.0,0.135882,0.0822444725954512,0.0,0.0,0.0822444725954512,0.0,-0.1435445700571193
104,0.2015,781.901,842.431,-2.93445e-06,1.14946e-34,-6.01375e-15,-2.65206e-15,0.0799607,0.0799607,-0.156794,0.0,0.0,0.0,0.137518,0.08324449532975087,0.0,0.0,0.08324449532975087,0.0,-0.1451198540098424
105,0.2039,783.388,844.036,-2.9255e-06,-2.36302e-33,1.79284e-15,-4.72319e-15,0.0808834,0.0808834,-0.158633,0.0,0.0,0.0,0.139152,0.08424446629124893,0.0,0.0,0.08424446629124893,0.0,-0.14669053391548537
106,0.2063,784.86,845.625,-2.91654e-06,-2.93908e-33,1.19817e-15,-6.14058e-15,0.0818053,0.0818053,-0.160471,0.0,0.0,0.0,0.140784,0.0852444921558182,0.0,0.0,0.0852444921558182,0.0,-0.14825747625301455
107,0.2087,786.316,847.197,-2.90756e-06,-1.46162e-33,7.84881e-16,1.79011e-15,0.0827263,0.0827263,-0.162307,0.0,0.0,0.0,0.142415,0.08624446274886743,0.0,0.0,0.08624446274886743,0.0,-0.14981984083704503
108,0.2111,787.758,848.753,-2.89856e-06,-3.99179e-33,3.50944e-15,-4.6512e-15,0.0836465,0.0836465,-0.164142,0.0,0.0,0.0,0.144045,0.08724448494313486,0.0,0.0,0.08724448494313486,0.0,-0.15137849093028832
109,0.2136,789.185,850.293,-2.88954e-06,-2.24845e-33,-6.23617e-16,-1.54344e-16,0.0845658,0.0845658,-0.165975,0.0,0.0,0.0,0.145673,0.08824444836090461,0.0,0.0,0.08824444836090461,0.0,-0.1529325893900414
110,0.216,790.598,851.817,-2.88051e-06,-2.15261e-33,-4.85467e-16,-4.06685e-17,0.0854843,0.0854843,-0.167806,0.0,0.0,0.0,0.1473,0.08924446007179787,0.0,0.0,0.08924446007179787,0.0,-0.15448215076251526
111,0.2184,791.997,853.327,-2.87148e-06,-1.15676e-33,2.63011e-15,5.99171e-15,0.0864019,0.0864019,-0.169636,0.0,0.0,0.0,0.148926,0.09024440949499302,0.0,0.0,0.09024440949499302,0.0,-0.1560280335124864
112,0.2208,793.382,854.822,-2.86243e-06,-2.79599e-33,4.80337e-15,1.20254e-15,0.0873187,0.0873187,-0.171464,0.0,0.0,0.0,0.15055,0.09124440389700861,0.0,0.0,0.09124440389700861,0.0,-0.15756940502444505
113,0.2232,794.754,856.302,-2.85339e-06,-2.56555e-33,2.72126e-16,-2.09437e-15,0.0882347,0.0882347,-0.17329,0.0,0.0,0.0,0.152173,0.09224444171837654,0.0,0.0,0.09224444171837654,0.0,-0.15910627969726399
114,0.2257,796.112,857.768,-2.84433e-06,-4.24962e-34,-2.89399e-15,4.58725e-15,0.0891498,0.0891498,-0.175115,0.0,0.0,0.0,0.153794,0.09324441207364731,0.0,0.0,0.09324441207364731,0.0,-0.1606395112374841
115,0.2281,797.458,859.22,-2.83528e-06,-1.07625e-33,-2.07904e-15,2.34206e-16,0.0900641,0.0900641,-0.176938,0.0,0.0,0.0,0.155414,0.09424442252472098,0.0,0.0,0.09424442252472098,0.0,-0.1621682715201196
116,0.2305,798.791,860.659,-2.82623e-06,-3.73614e-33,4.55343e-15,-2.76956e-15,0.0909776,0.0909776,-0.17876,0.0,0.0,0.0,0.157032,0.0952444715075269,0.0,0.0,0.0952444715075269,0.0,-0.16369341110533275
117,0.2329,800.112,862.084,-2.81718e-06,-2.0033e-33,9.76559e-17,1.13901e-15,0.0918902,0.0918902,-0.18058,0.0,0.0,0.0,0.158649,0.09624444783201991,0.0,0.0,0.09624444783201991,0.0,-0.1652141048460548
118,0.2353,801.421,863.496,-2.80813e-06,-1.91748e-33,1.04545e-17,8.46729e-16,0.092802,0.092802,-0.182398,0.0,0.0,0.0,0.160265,0.09724445935552417,0.0,0.0,0.09724445935552417,0.0,-0.16673036690361498
119,0.2378,802.717,864.895,-2.79909e-06,-1.83486e-33,-5.08111e-17,6.44612e-16,0.0937129,0.0937129,-0.184215,0.0,0.0,0.0,0.161879,0.09824439468495627,0.0,0.0,0.09824439468495627,0.0,-0.16824304314441274
120,0.2402,804.003,866.282,-2.79005e-06,-2.54615e-33,2.94621e-15,5.04763e-16,0.0946231,0.0946231,-0.18603,0.0,0.0,0.0,0.163492,0.09924447179904927,0.0,0.0,0.09924447179904927,0.0,-0.1697513128522974
121,0.242,804.966,867.321,-1.17995e-06,-2.35072e-33,-1.09891e-15,-2.81864e-15,0.0953102,0.0953102,-0.187401,0.0,0.0,0.0,0.164709,0.10000002221524285,0.0,0.0,0.10000002221524285,0.0,-0.17088880387410854
