,Time,S11,S22,S33,S12,S13,S23,LE11,LE22,LE33,LE12,LE13,LE23,SDV_EPBAR,E11,E12,E13,E22,E23,E33
0,2.42e-07,0.029678,0.029678,1.04083e-17,0.0,0.0,0.0,1e-07,1e-07,-8.57143e-08,0.0,0.0,0.0,0.0,1.0000000494336803e-07,0.0,0.0,1.0000000494336803e-07,0.0,-8.571429632731054e-08
1,4.84e-07,0.059356,0.059356,3.46945e-18,0.0,0.0,0.0,2e-07,2e-07,-1.71429e-07,0.0,0.0,0.0,0.0,2.0000002010078788e-07,0.0,0.0,2.0000002010078788e-07,0.0,-1.7142898534050488e-07
2,8.47e-07,0.103873,0.103873,3.46945e-18,0.0,0.0,0.0,3.5e-07,3.5e-07,-3e-07,0.0,0.0,0.0,0.0,3.5000006115559756e-07,0.0,0.0,3.5000006115559756e-07,0.0,-2.9999995498908305e-07
3,1.3915e-06,0.170648,0.170648,-1.73472e-17,0.0,0.0,0.0,5.75e-07,5.75e-07,-4.92857e-07,0.0,0.0,0.0,0.0,5.750001652593539e-07,0.0,0.0,5.750001652593539e-07,0.0,-4.928568785311782e-07
4,2.2083e-06,0.270812,0.270812,-3.46945e-18,0.0,0.0,0.0,9.125e-07,9.125e-07,-7.82142e-07,0.0,0.0,0.0,0.0,9.125004163390571e-07,0.0,0.0,9.125004163390571e-07,0.0,-7.821416940778647e-07
5,3.4334e-06,0.421056,0.421056,5.20417e-17,0.0,0.0,0.0,1.41875e-06,1.41875e-06,-1.21607e-06,0.0,0.0,0.0,0.0,1.4187510064544995e-06,0.0,0.0,1.4187510064544995e-06,0.0,-1.2160692606233425e-06
6,5.2711e-06,0.646423,0.646423,2.42861e-17,0.0,0.0,0.0,2.17812e-06,2.17812e-06,-1.86696e-06,0.0,0.0,0.0,0.0,2.178122372020752e-06,0.0,0.0,2.178122372020752e-06,0.0,-1.8669582572128363e-06
7,8.0276e-06,0.984473,0.984473,1.35308e-16,0.0,0.0,0.0,3.31718e-06,3.31718e-06,-2.8433e-06,0.0,0.0,0.0,0.0,3.317185501838793e-06,0.0,0.0,3.317185501838793e-06,0.0,-2.8432959577884276e-06
8,1.2162e-05,1.49155,1.49155,4.68375e-16,0.0,0.0,0.0,5.02577e-06,5.02577e-06,-4.3078e-06,0.0,0.0,0.0,0.0,5.025782629175524e-06,0.0,0.0,5.025782629175524e-06,0.0,-4.307790721469473e-06
9,1.8365e-05,2.25216,2.25216,3.57353e-16,0.0,0.0,0.0,7.58864e-06,7.58864e-06,-6.50455e-06,0.0,0.0,0.0,0.0,7.5886687938009345e-06,0.0,0.0,7.5886687938009345e-06,0.0,-6.50452884543018e-06
10,2.7668e-05,3.39307,3.39307,-3.08781e-16,0.0,0.0,0.0,1.14329e-05,1.14329e-05,-9.79967e-06,0.0,0.0,0.0,0.0,1.1432965355773206e-05,0.0,0.0,1.1432965355773206e-05,0.0,-9.799621983441753e-06
11,4.1623e-05,5.10443,5.10443,-7.5287e-16,0.0,0.0,-1.23207e-38,1.71994e-05,1.71994e-05,-1.47423e-05,0.0,0.0,0.0,0.0,1.7199547910573543e-05,0.0,0.0,1.7199547910573543e-05,0.0,-1.4742191332794974e-05
12,6.2555e-05,7.67145,7.67145,-1.64105e-15,0.0,0.0,-2.77213e-38,2.58489e-05,2.58489e-05,-2.21562e-05,0.0,0.0,0.0,0.0,2.5849234085661976e-05,0.0,0.0,2.5849234085661976e-05,0.0,-2.2155954553237933e-05
13,9.3954e-05,11.5219,11.5219,-8.30239e-15,0.0,0.0,-6.23724e-38,3.88231e-05,3.88231e-05,-3.3277e-05,0.0,0.0,0.0,0.0,3.882385362641294e-05,0.0,0.0,3.882385362641294e-05,0.0,-3.327644632677984e-05
14,0.00014105,17.2976,17.2976,-4.47177e-14,0.0,0.0,-1.40336e-37,5.82842e-05,5.82842e-05,-4.99578e-05,0.0,0.0,0.0,0.0,5.828589855694233e-05,0.0,0.0,5.828589855694233e-05,0.0,-4.995655212991501e-05
15,0.0002117,25.9608,25.9608,-2.25018e-13,0.0,0.0,-3.1575e-37,8.7475e-05,8.7475e-05,-7.49785e-05,0.0,0.0,0.0,0.0,8.747882604942525e-05,0.0,0.0,8.747882604942525e-05,0.0,-7.4975689182466e-05
16,0.00031767,38.9552,38.9552,-1.14339e-12,0.0,0.0,-7.10416e-37,0.00013126,0.00013126,-0.000112508,0.0,0.0,0.0,0.0,0.0001312686149708142,0.0,0.0,0.0001312686149708142,0.0,-0.00011250167121223953
17,0.00047662,58.4457,58.4457,-5.85252e-12,0.0,0.0,-1.59836e-36,0.000196933,0.000196933,-0.0001688,0.0,0.0,0.0,0.0,0.00019695239257622177,0.0,0.0,0.00019695239257622177,0.0,-0.00016878575408152408
18,0.00071506,87.6791,87.6791,-2.95989e-11,0.0,0.0,-3.59607e-36,0.000295435,0.000295435,-0.00025323,0.0,0.0,0.0,0.0,0.00029547864521761724,0.0,0.0,0.00029547864521761724,0.0,-0.00025319793998968
19,0.0010727,131.524,131.524,-1.49709e-10,0.0,0.0,-8.09034e-36,0.000443169,0.000443169,-0.000379859,0.0,0.0,0.0,0.0,0.0004432672138892091,0.0,0.0,0.0004432672138892091,0.0,-0.0003797868627043455
20,0.0016092,197.279,197.279,-7.57628e-10,0.0,0.0,-1.82005e-35,0.00066473,0.00066473,-0.000569769,0.0,0.0,0.0,0.0,0.0006649509819482979,0.0,0.0,0.0006649509819482979,0.0,-0.0005696067124669746
21,0.0024139,295.884,295.884,-3.83263e-09,0.0,0.0,-4.09417e-35,0.00099698,0.00099698,-0.000854554,0.0,0.0,0.0,0.0,0.0009974771497625046,0.0,0.0,0.0009974771497625046,0.0,-0.0008541889727163854
22,0.003621,423.021,423.781,0.00377103,0.0,-2.03713e-15,1.3342e-32,0.00149515,0.00149515,-0.00135983,0.0,0.0,0.0,0.000121291,0.0014962682940309335,0.0,0.0,0.0014962682940309335,0.0,-0.0013589058501285445
23,0.0054316,446.319,451.76,0.136357,-1.45753e-33,-9.58593e-15,5.43215e-15,0.00224193,0.00224193,-0.00275442,0.0,0.0,0.0,0.00129098,0.0022444450041991804,0.0,0.0,0.0022444450041991804,0.0,-0.0027506300657206273
24,0.0078516,470.439,479.715,9.54252e-05,-1.0988e-33,-5.21216e-16,-4.26718e-15,0.0032392,0.0032392,-0.00464894,0.0,0.0,0.0,0.00290122,0.003244451877416177,0.0,0.0,0.003244451877416177,0.0,-0.004638150404973729
25,0.010272,489.956,501.67,1.24981e-05,-1.81412e-33,4.73776e-15,-7.36287e-15,0.00423547,0.00423547,-0.00656163,0.0,0.0,0.0,0.00454177,0.004244452279975608,0.0,0.0,0.004244452279975608,0.0,-0.006540149513884264
26,0.012692,506.407,519.734,1.6489e-06,-1.71556e-33,2.7814e-15,-4.22386e-15,0.00523074,0.00523074,-0.00848573,0.0,0.0,0.0,0.00620138,0.0052444442044314865,0.0,0.0,0.0052444442044314865,0.0,-0.008449827817031963
27,0.015112,520.677,535.123,3.55404e-07,-1.6241e-33,1.64531e-15,-2.43497e-15,0.00622503,0.00622503,-0.0104172,0.0,0.0,0.0,0.00787376,0.006244445766251383,0.0,0.0,0.006244445766251383,0.0,-0.010363128891475282
28,0.017532,533.304,548.563,1.48532e-07,-1.53901e-33,9.79236e-16,-1.40539e-15,0.00721833,0.00721833,-0.0123536,0.0,0.0,0.0,0.00955514,0.007244444941601369,0.0,0.0,0.007244444941601369,0.0,-0.012277607532251933
29,0.019952,544.641,560.522,-7.23064e-08,-2.3488e-33,3.18379e-15,-5.90849e-15,0.00821065,0.00821065,-0.0142934,0.0,0.0,0.0,0.011243,0.008244449829572176,0.0,0.0,0.008244449829572176,0.0,-0.014191734317381965
30,0.022372,554.939,571.316,-3.6465e-07,-2.39419e-33,4.53125e-15,-9.0719e-16,0.00920198,0.00920198,-0.0162354,0.0,0.0,0.0,0.0129358,0.009244448382409898,0.0,0.0,0.009244448382409898,0.0,-0.016104316251192907
31,0.024792,564.379,581.169,-6.81747e-07,-2.82793e-33,2.74033e-15,-5.67742e-15,0.0101923,0.0101923,-0.018179,0.0,0.0,0.0,0.0146322,0.010244418407964417,0.0,0.0,0.010244418407964417,0.0,-0.018014758732719516
32,0.027212,573.099,590.242,-9.89826e-07,-2.68409e-33,1.65849e-15,-3.36807e-15,0.0111817,0.0111817,-0.0201235,0.0,0.0,0.0,0.0163313,0.011244448869027979,0.0,0.0,0.011244448869027979,0.0,-0.019922373754588274
33,0.029632,581.207,598.661,-1.27281e-06,-2.54891e-33,1.00104e-15,-1.98959e-15,0.0121701,0.0121701,-0.0220684,0.0,0.0,0.0,0.0180325,0.012244457004898734,0.0,0.0,0.012244457004898734,0.0,-0.021826674292541814
34,0.032052,588.785,606.52,-1.52523e-06,-2.97894e-33,5.99245e-16,-6.40756e-15,0.0131575,0.0131575,-0.0240135,0.0,0.0,0.0,0.0197352,0.013244440792496093,0.0,0.0,0.013244440792496093,0.0,-0.023727470010208807
35,0.034472,595.904,613.894,-1.74694e-06,-2.27348e-33,3.52374e-16,1.42234e-15,0.0141439,0.0141439,-0.0259585,0.0,0.0,0.0,0.021439,0.014244398206812336,0.0,0.0,0.014244398206812336,0.0,-0.02562447464599593
36,0.036892,602.619,620.844,-1.94017e-06,-3.2774e-33,1.99909e-16,-9.66447e-15,0.0151294,0.0151294,-0.0279032,0.0,0.0,0.0,0.0231436,0.015244428745356142,0.0,0.0,0.015244428745356142,0.0,-0.027517501448943493
37,0.039312,608.975,627.42,-2.10797e-06,-3.11675e-33,1.05267e-16,-5.86566e-15,0.0161139,0.0161139,-0.0298473,0.0,0.0,0.0,0.0248486,0.016244429054838472,0.0,0.0,0.016244429054838472,0.0,-0.029406268103863042
38,0.041732,615.012,633.662,-2.25352e-06,-2.96491e-33,4.62131e-17,-3.54265e-15,0.0170975,0.0170975,-0.0317907,0.0,0.0,0.0,0.0265539,0.017244498828943522,0.0,0.0,0.017244498828943522,0.0,-0.03129068827825621
39,0.044152,620.761,639.606,-2.3798e-06,-4.44147e-33,2.73136e-15,-4.79171e-15,0.01808,0.01808,-0.0337333,0.0,0.0,0.0,0.0282592,0.01824443268611331,0.0,0.0,0.01824443268611331,0.0,-0.03317067636357118
40,0.046572,626.252,645.28,-2.48947e-06,-2.99831e-33,-1.03192e-15,-2.89193e-15,0.0190616,0.0190616,-0.035675,0.0,0.0,0.0,0.0299644,0.019244432140675505,0.0,0.0,0.019244432140675505,0.0,-0.03504614747090984
41,0.048992,631.506,650.71,-2.58484e-06,-4.58788e-33,2.06503e-15,-4.40985e-15,0.0200423,0.0200423,-0.0376157,0.0,0.0,0.0,0.0316693,0.02024449545617002,0.0,0.0,0.02024449545617002,0.0,-0.03691701742666098
42,0.051412,636.546,655.917,-2.6679e-06,-3.97815e-33,1.28573e-15,3.80069e-17,0.0210219,0.0210219,-0.0395553,0.0,0.0,0.0,0.0333738,0.02124441664535559,0.0,0.0,0.02124441664535559,0.0,-0.03878320276805958
43,0.053832,641.389,660.921,-2.74033e-06,-3.39794e-33,7.92178e-16,2.82056e-15,0.0220006,0.0220006,-0.0414938,0.0,0.0,0.0,0.0350778,0.022244397816892914,0.0,0.0,0.022244397816892914,0.0,-0.04064471667420966
44,0.056252,646.051,665.736,-2.80357e-06,-7.15581e-33,6.00531e-15,-3.58041e-15,0.0229784,0.0229784,-0.0434311,0.0,0.0,0.0,0.0367812,0.02324443722866909,0.0,0.0,0.02324443722866909,0.0,-0.04250147653343728
45,0.058672,650.546,670.379,-2.85883e-06,-7.43788e-33,3.80802e-15,-4.88777e-15,0.0239552,0.0239552,-0.0453671,0.0,0.0,0.0,0.0384839,0.024244430712260456,0.0,0.0,0.024244430712260456,0.0,-0.04435340043410041
46,0.061092,654.887,674.861,-2.90717e-06,-1.02287e-32,5.18225e-15,-8.4513e-15,0.0249311,0.0249311,-0.0473018,0.0,0.0,0.0,0.0401859,0.02524447874626201,0.0,0.0,0.02524447874626201,0.0,-0.046200502539906596
47,0.063512,659.083,679.195,-2.94944e-06,-7.06866e-33,5.03824e-16,2.38099e-16,0.025906,0.025906,-0.0492352,0.0,0.0,0.0,0.0418871,0.026244476958517948,0.0,0.0,0.026244476958517948,0.0,-0.048042796968391976
48,0.065932,663.146,683.39,-2.98642e-06,-9.20831e-33,2.80858e-16,-1.07258e-14,0.0268799,0.0268799,-0.0511672,0.0,0.0,0.0,0.0435874,0.02724442329946286,0.0,0.0,0.02724442329946286,0.0,-0.04988020277910721
49,0.068352,667.083,687.455,-3.01874e-06,-9.40291e-33,1.37114e-16,-9.44936e-15,0.0278529,0.0278529,-0.0530978,0.0,0.0,0.0,0.0452867,0.028244418542125116,0.0,0.0,0.028244418542125116,0.0,-0.0517127345475189
50,0.070772,670.904,691.4,-3.04695e-06,-7.74006e-33,4.41411e-17,-3.73745e-16,0.028825,0.028825,-0.055027,0.0,0.0,0.0,0.0469852,0.02924446093324229,0.0,0.0,0.02924446093324229,0.0,-0.05354040680052008
51,0.073192,674.614,695.231,-3.07153e-06,-8.00311e-33,-1.62108e-17,-2.87475e-15,0.0297961,0.0297961,-0.0569547,0.0,0.0,0.0,0.0486826,0.030244445693269784,0.0,0.0,0.030244445693269784,0.0,-0.0553631395529236
52,0.075612,678.221,698.955,-3.09288e-06,-7.63842e-33,-5.55505e-17,-1.70699e-15,0.0307663,0.0307663,-0.0588809,0.0,0.0,0.0,0.050379,0.03124447388971663,0.0,0.0,0.03124447388971663,0.0,-0.05718094778036997
53,0.078032,681.731,702.578,-3.11138e-06,-1.00401e-32,2.73991e-15,-3.73594e-15,0.0317355,0.0317355,-0.0608056,0.0,0.0,0.0,0.0520743,0.032244440539372476,0.0,0.0,0.032244440539372476,0.0,-0.058993846407530914
54,0.080452,685.149,706.106,-3.12733e-06,-6.55771e-33,-1.08678e-15,3.3021e-15,0.0327038,0.0327038,-0.0627289,0.0,0.0,0.0,0.0537685,0.03324444690609507,0.0,0.0,0.03324444690609507,0.0,-0.060801944228107474
55,0.082872,688.48,709.544,-3.14099e-06,-1.55238e-32,7.73871e-15,-6.10077e-15,0.0336712,0.0336712,-0.0646505,0.0,0.0,0.0,0.0554615,0.03424449122747819,0.0,0.0,0.03424449122747819,0.0,-0.06260497430596579
56,0.085292,691.728,712.897,-3.15261e-06,-1.27034e-32,2.1768e-15,-3.79056e-15,0.0346376,0.0346376,-0.0665707,0.0,0.0,0.0,0.0571534,0.03524446821485494,0.0,0.0,0.03524446821485494,0.0,-0.06440323317342445
57,0.087712,694.899,716.17,-3.16239e-06,-9.38925e-33,-1.47157e-15,4.96021e-16,0.0356031,0.0356031,-0.0684892,0.0,0.0,0.0,0.0588442,0.03624447942664566,0.0,0.0,0.03624447942664566,0.0,-0.06619645487264902
58,0.090132,697.995,719.366,-3.17051e-06,-9.70145e-33,-1.02371e-15,-2.33489e-15,0.0365676,0.0365676,-0.0704062,0.0,0.0,0.0,0.0605337,0.037244419370573656,0.0,0.0,0.037244419370573656,0.0,-0.06798484155234885
59,0.092552,701.021,722.488,-3.17715e-06,-9.27067e-33,-7.29636e-16,-1.36373e-15,0.0375313,0.0375313,-0.0723217,0.0,0.0,0.0,0.062222,0.038244493625901876,0.0,0.0,0.038244493625901876,0.0,-0.06976840783240434
60,0.094972,703.979,725.542,-3.18243e-06,-8.1286e-33,-5.3627e-16,2.07852e-15,0.038494,0.038494,-0.0742355,0.0,0.0,0.0,0.0639091,0.03924449287232035,0.0,0.0,0.03924449287232035,0.0,-0.07154698259245162
61,0.097392,706.873,728.529,-3.18649e-06,-1.06887e-32,-4.0897e-16,-9.76662e-15,0.0394557,0.0394557,-0.0761477,0.0,0.0,0.0,0.0655949,0.04024441503662213,0.0,0.0,0.04024441503662213,0.0,-0.0733206740854423
62,0.099812,709.706,731.452,-3.18945e-06,-1.02179e-32,-3.25089e-16,-6.20206e-15,0.0404166,0.0404166,-0.0780583,0.0,0.0,0.0,0.0672795,0.041244466292708726,0.0,0.0,0.041244466292708726,0.0,-0.07508949731063252
63,0.1022,712.481,734.315,-3.19139e-06,-1.23525e-32,5.47232e-15,1.77306e-15,0.0413765,0.0413765,-0.0799673,0.0,0.0,0.0,0.0689628,0.042244436714925504,0.0,0.0,0.042244436714925504,0.0,-0.0768534672152924
64,0.1047,715.199,737.121,-3.19242e-06,-1.10234e-32,6.97509e-16,-4.3368e-15,0.0423355,0.0423355,-0.0818747,0.0,0.0,0.0,0.0706448,0.043244428549180425,0.0,0.0,0.043244428549180425,0.0,-0.07861259869489823
65,0.1071,717.864,739.871,-3.19261e-06,-1.05381e-32,4.03036e-16,-2.66768e-15,0.0432936,0.0432936,-0.0837805,0.0,0.0,0.0,0.0723255,0.044244440015168696,0.0,0.0,0.044244440015168696,0.0,-0.0803669065933279
66,0.1095,720.477,742.567,-3.19204e-06,-1.00735e-32,2.07054e-16,-1.57456e-15,0.0442508,0.0442508,-0.0856846,0.0,0.0,0.0,0.0740048,0.04524446933082715,0.0,0.0,0.04524446933082715,0.0,-0.08211631391468943
67,0.1119,723.041,745.213,-3.19077e-06,-1.04727e-32,7.6355e-17,-3.70109e-15,0.045207,0.045207,-0.0875871,0.0,0.0,0.0,0.0756829,0.046244410087888266,0.0,0.0,0.046244410087888266,0.0,-0.08386092753753793
68,0.1143,725.557,747.809,-3.18886e-06,-1.25438e-32,-1.10036e-17,-1.07964e-14,0.0461624,0.0461624,-0.0894879,0.0,0.0,0.0,0.0773596,0.04724446964966855,0.0,0.0,0.04724446964966855,0.0,-0.08560067071074928
69,0.1168,728.028,750.359,-3.18637e-06,-1.03091e-32,-6.95435e-17,-1.21284e-15,0.0471168,0.0471168,-0.0913871,0.0,0.0,0.0,0.079035,0.048244436879960606,0.0,0.0,0.048244436879960606,0.0,-0.08733564985923603
70,0.1192,730.454,752.863,-3.18333e-06,-1.46967e-32,2.79136e-15,-6.31796e-15,0.0480703,0.0480703,-0.0932847,0.0,0.0,0.0,0.0807091,0.04924441461414841,0.0,0.0,0.04924441461414841,0.0,-0.08906587956891787
71,0.1216,732.839,755.323,-3.1798e-06,-1.21494e-32,1.80635e-15,1.74885e-15,0.0490229,0.0490229,-0.0951806,0.0,0.0,0.0,0.0823818,0.05024440106143513,0.0,0.0,0.05024440106143513,0.0,-0.09079128345440868
72,0.124,735.182,757.741,-3.17582e-06,-1.03816e-32,-1.76235e-15,-4.37188e-15,0.0499747,0.0499747,-0.0970748,0.0,0.0,0.0,0.0840531,0.05124449955373711,0.0,0.0,0.05124449955373711,0.0,-0.09251187651714332
73,0.1264,737.487,760.119,-3.17142e-06,-3.28109e-33,-7.07375e-15,3.04524e-15,0.0509255,0.0509255,-0.0989674,0.0,0.0,0.0,0.0857231,0.052244498147909324,0.0,0.0,0.052244498147909324,0.0,-0.09422776428287105
74,0.1289,739.753,762.457,-3.16664e-06,-7.50846e-33,-1.90496e-15,-3.52197e-15,0.0518753,0.0518753,-0.100858,0.0,0.0,0.0,0.0873917,0.05324439474797682,0.0,0.0,0.05324439474797682,0.0,-0.09593859950958183
75,0.1313,741.983,764.758,-3.1615e-06,-1.73682e-32,7.41571e-15,-5.00668e-15,0.0528243,0.0528243,-0.102748,0.0,0.0,0.0,0.0890589,0.05424439810513504,0.0,0.0,0.05424439810513504,0.0,-0.09764566187442425
76,0.1337,744.177,767.021,-3.15604e-06,-1.05494e-32,-9.0634e-16,-3.11585e-15,0.0537724,0.0537724,-0.104635,0.0,0.0,0.0,0.0907248,0.05524440119553553,0.0,0.0,0.05524440119553553,0.0,-0.09934679898282583
77,0.1361,746.337,769.25,-3.15027e-06,-9.2448e-33,-6.76372e-16,1.02415e-15,0.0547196,0.0547196,-0.106521,0.0,0.0,0.0,0.0923893,0.05624440221806659,0.0,0.0,0.05624440221806659,0.0,-0.10104383011655726
78,0.1385,748.464,771.444,-3.14423e-06,-1.28394e-32,2.4085e-15,-1.98858e-15,0.0556659,0.0556659,-0.108405,0.0,0.0,0.0,0.0940523,0.057244399369914545,0.0,0.0,0.057244399369914545,0.0,-0.10273586913937338
79,0.141,750.559,773.606,-3.13793e-06,-1.51636e-32,1.56483e-15,-9.77693e-15,0.0566114,0.0566114,-0.110288,0.0,0.0,0.0,0.095714,0.05824449667101317,0.0,0.0,0.05824449667101317,0.0,-0.10442382778597015
80,0.1434,752.622,775.735,-3.13139e-06,-1.35626e-32,9.93119e-16,-3.40926e-15,0.0575559,0.0575559,-0.112169,0.0,0.0,0.0,0.0973743,0.05924448076626909,0.0,0.0,0.05924448076626909,0.0,-0.10610682321248044
81,0.1458,754.656,777.833,-3.12463e-06,-1.29836e-32,6.05195e-16,-2.04819e-15,0.0584995,0.0584995,-0.114048,0.0,0.0,0.0,0.0990332,0.06024445557223701,0.0,0.0,0.06024445557223701,0.0,-0.10778487147160942
82,0.1482,756.66,779.9,-3.11767e-06,-1.24276e-32,3.41612e-16,-1.1371e-15,0.0594422,0.0594422,-0.115926,0.0,0.0,0.0,0.100691,0.06124441927934421,0.0,0.0,0.06124441927934421,0.0,-0.10945887909782204
83,0.1506,758.636,781.939,-3.11053e-06,-9.35572e-33,-2.78406e-15,-3.42908e-15,0.0603841,0.0603841,-0.117802,0.0,0.0,0.0,0.102347,0.062244476300782114,0.0,0.0,0.062244476300782114,0.0,-0.11112796814559511
84,0.1531,760.584,783.949,-3.10321e-06,-1.33983e-32,9.85924e-16,-4.96699e-15,0.061325,0.061325,-0.119676,0.0,0.0,0.0,0.104002,0.06324441247473667,0.0,0.0,0.06324441247473667,0.0,-0.11279215450363811
85,0.1555,762.506,785.931,-3.09573e-06,-4.81818e-33,-5.30217e-15,2.72741e-15,0.0622651,0.0622651,-0.121549,0.0,0.0,0.0,0.105655,0.06424443853550321,0.0,0.0,0.06424443853550321,0.0,-0.11445233954961209
86,0.1579,764.402,787.887,-3.0881e-06,-1.23127e-32,2.22909e-15,-8.35384e-16,0.0632043,0.0632043,-0.12342,0.0,0.0,0.0,0.107307,0.06524444644238003,0.0,0.0,0.06524444644238003,0.0,-0.11610765019631719
87,0.1603,766.272,789.817,-3.08034e-06,-1.08272e-32,1.45618e-15,2.59793e-15,0.0641426,0.0641426,-0.125289,0.0,0.0,0.0,0.108957,0.06624443437745042,0.0,0.0,0.06624443437745042,0.0,-0.11775810217028959
88,0.1627,768.118,791.721,-3.07245e-06,-1.03585e-32,9.27728e-16,1.99355e-15,0.06508,0.06508,-0.127157,0.0,0.0,0.0,0.110606,0.06724440052114344,0.0,0.0,0.06724440052114344,0.0,-0.11940459173540663
89,0.1652,769.94,793.601,-3.06444e-06,-7.36815e-33,-2.39895e-15,-1.33511e-15,0.0660166,0.0660166,-0.129023,0.0,0.0,0.0,0.112254,0.06824444987667944,0.0,0.0,0.06824444987667944,0.0,-0.12104625062313745
90,0.1676,771.739,795.456,-3.05633e-06,-9.34655e-33,1.25706e-15,2.26707e-15,0.0669523,0.0669523,-0.130887,0.0,0.0,0.0,0.1139,0.0692444739967506,0.0,0.0,0.0692444739967506,0.0,-0.12268309439964231
91,0.17,773.515,797.289,-3.04812e-06,-5.66061e-33,-2.17709e-15,1.77482e-15,0.0678871,0.0678871,-0.13275,0.0,0.0,0.0,0.115545,0.07024447105684795,0.0,0.0,0.07024447105684795,0.0,-0.1243160142576375
92,0.1724,775.269,799.098,-3.03982e-06,-4.54335e-33,-1.56136e-15,4.37307e-15,0.068821,0.068821,-0.134611,0.0,0.0,0.0,0.117189,0.07124443923082846,0.0,0.0,0.07124443923082846,0.0,-0.1259441467079636
93,0.1748,777.002,800.885,-3.03144e-06,-4.3156e-33,-1.13848e-15,3.20004e-15,0.0697541,0.0697541,-0.13647,0.0,0.0,0.0,0.118831,0.07224448391536265,0.0,0.0,0.07224448391536265,0.0,-0.1275675071581832
94,0.1773,778.714,802.651,-3.02298e-06,-8.33174e-33,2.13164e-15,-5.30964e-16,0.0706863,0.0706863,-0.138328,0.0,0.0,0.0,0.120471,0.07324449625660368,0.0,0.0,0.07324449625660368,0.0,-0.12918698177207621
95,0.1797,780.405,804.396,-3.01444e-06,-4.68436e-33,-1.58138e-15,-1.23056e-16,0.0716176,0.0716176,-0.140184,0.0,0.0,0.0,0.12211,0.07424447442352577,0.0,0.0,0.07424447442352577,0.0,-0.13080171180091382
96,0.1821,782.077,806.12,-3.00585e-06,-6.1452e-33,-1.15537e-15,-5.72987e-15,0.072548,0.072548,-0.142038,0.0,0.0,0.0,0.123748,0.07524441658348935,0.0,0.0,0.07524441658348935,0.0,-0.13241171249541772
97,0.1845,783.729,807.824,-2.9972e-06,-5.85621e-33,-8.61695e-16,-3.65185e-15,0.0734776,0.0734776,-0.143891,0.0,0.0,0.0,0.125384,0.07624442852668256,0.0,0.0,0.07624442852668256,0.0,-0.13401786503226332
98,0.1869,785.362,809.509,-2.98849e-06,-5.57801e-33,-6.59102e-16,-2.2374e-15,0.0744063,0.0744063,-0.145742,0.0,0.0,0.0,0.127019,0.07724440099279839,0.0,0.0,0.07724440099279839,0.0,-0.13561931536456517
99,0.1894,786.976,811.174,-2.97973e-06,-8.81294e-33,2.47396e-15,-1.27355e-15,0.0753342,0.0753342,-0.147591,0.0,0.0,0.0,0.128653,0.07824443996881003,0.0,0.0,0.07824443996881003,0.0,-0.13721607858793827
100,0.1918,788.573,812.821,-2.97093e-06,-7.4628e-33,1.64501e-15,2.3372e-15,0.0762612,0.0762612,-0.149439,0.0,0.0,0.0,0.130285,0.07924443599120679,0.0,0.0,0.07924443599120679,0.0,-0.13880903093339902
101,0.1942,790.151,814.449,-2.96209e-06,-4.46744e-33,-1.92743e-15,-1.10998e-15,0.0771874,0.0771874,-0.151285,0.0,0.0,0.0,0.131916,0.08024449524377042,0.0,0.0,0.08024449524377042,0.0,-0.14039732301766505
102,0.1966,791.713,816.06,-2.95322e-06,-9.94709e-33,4.60059e-15,2.453e-15,0.0781126,0.0781126,-0.15313,0.0,0.0,0.0,0.133545,0.08124439993535426,0.0,0.0,0.08124439993535426,0.0,-0.14198182780155977
103,0.199,793.257,817.653,-2.94431e-06,-1.16621e-32,3.11998e-15,-3.9942e-15,0.0790371,0.0790371,-0.154972,0.0,0.0,0.0,0.135173,0.0822444725954512,0.0,0.0,0.0822444725954512,0.0,-0.143560842555699
104,0.2015,794.786,819.229,-2.93537e-06,-7.54765e-33,-9.14041e-16,-2.4776e-15,0.0799607,0.0799607,-0.156814,0.0,0.0,0.0,0.136799,0.08324449532975087,0.0,0.0,0.08324449532975087,0.0,-0.14513695144178718
105,0.2039,796.298,820.789,-2.92641e-06,-7.20331e-33,-7.07522e-16,-1.4385e-15,0.0808834,0.0808834,-0.158653,0.0,0.0,0.0,0.138425,0.08424446629124893,0.0,0.0,0.08424446629124893,0.0,-0.14670759993414628
106,0.2063,797.794,822.332,-2.91743e-06,-9.30226e-33,2.44725e-15,2.24312e-15,0.0818053,0.0818053,-0.160491,0.0,0.0,0.0,0.140048,0.0852444921558182,0.0,0.0,0.0852444921558182,0.0,-0.14827451093314215
107,0.2087,799.275,823.86,-2.90843e-06,-1.49996e-32,4.64213e-15,-4.14514e-15,0.0827263,0.0827263,-0.162327,0.0,0.0,0.0,0.14167,0.08624446274886743,0.0,0.0,0.08624446274886743,0.0,-0.1498368442701935
108,0.2111,800.74,825.372,-2.89941e-06,-8.72627e-33,1.37743e-16,3.36515e-15,0.0836465,0.0836465,-0.164162,0.0,0.0,0.0,0.143291,0.08724448494313486,0.0,0.0,0.08724448494313486,0.0,-0.15139546319074637
109,0.2136,802.191,826.868,-2.89038e-06,-1.31451e-32,3.03584e-15,-4.03006e-16,0.0845658,0.0845658,-0.165995,0.0,0.0,0.0,0.144911,0.08824444836090461,0.0,0.0,0.08824444836090461,0.0,-0.1529495305688412
110,0.216,803.628,828.35,-2.88133e-06,-1.37825e-32,2.03581e-15,-2.99397e-15,0.0854843,0.0854843,-0.167826,0.0,0.0,0.0,0.146529,0.08924446007179787,0.0,0.0,0.08924446007179787,0.0,-0.15449906095039756
111,0.2184,805.05,829.817,-2.87228e-06,-1.08329e-32,1.33753e-15,4.16733e-15,0.0864019,0.0864019,-0.169656,0.0,0.0,0.0,0.148145,0.09024440949499302,0.0,0.0,0.09024440949499302,0.0,-0.1560449127830228
112,0.2208,806.458,831.269,-2.86322e-06,-7.82044e-33,-2.17644e-15,1.49401e-16,0.0873187,0.0873187,-0.171484,0.0,0.0,0.0,0.14976,0.09124440389700861,0.0,0.0,0.09124440389700861,0.0,-0.1575862534678596
113,0.2232,807.853,832.708,-2.85416e-06,-1.1648e-32,4.45168e-15,6.33842e-15,0.0882347,0.0882347,-0.173311,0.0,0.0,0.0,0.151374,0.09224444171837654,0.0,0.0,0.09224444171837654,0.0,-0.1591239382799745
114,0.2257,809.234,834.132,-2.84509e-06,-9.90456e-33,-3.1218e-18,-1.34553e-15,0.0891498,0.0891498,-0.175136,0.0,0.0,0.0,0.152987,0.09324441207364731,0.0,0.0,0.09324441207364731,0.0,-0.16065713762267053
115,0.2281,810.602,835.544,-2.83602e-06,-8.28045e-33,-8.96105e-17,2.32201e-15,0.0900641,0.0900641,-0.176959,0.0,0.0,0.0,0.154598,0.09424442252472098,0.0,0.0,0.09424442252472098,0.0,-0.16218586580167715
116,0.2305,811.957,836.941,-2.82696e-06,-1.70714e-32,2.88489e-15,-1.01096e-14,0.0909776,0.0909776,-0.17878,0.0,0.0,0.0,0.156207,0.0952444715075269,0.0,0.0,0.0952444715075269,0.0,-0.16371013706985038
117,0.2329,813.3,838.326,-2.81789e-06,-1.37748e-32,1.93291e-15,-7.32279e-16,0.0918902,0.0918902,-0.1806,0.0,0.0,0.0,0.157815,0.09624444783201991,0.0,0.0,0.09624444783201991,0.0,-0.165230800397002
118,0.2353,814.631,839.699,-2.80883e-06,-1.31995e-32,1.2645e-15,-2.37372e-16,0.092802,0.092802,-0.182419,0.0,0.0,0.0,0.159422,0.09724445935552417,0.0,0.0,0.09724445935552417,0.0,-0.16674786538217545
119,0.2378,815.949,841.058,-2.79978e-06,-1.13427e-32,7.94815e-16,3.10613e-15,0.0937129,0.0937129,-0.184235,0.0,0.0,0.0,0.161028,0.09824439468495627,0.0,0.0,0.09824439468495627,0.0,-0.16825967811719944
120,0.2402,817.255,842.406,-2.79073e-06,-1.90627e-32,3.50876e-15,-6.58588e-15,0.0946231,0.0946231,-0.186051,0.0,0.0,0.0,0.162632,0.09924447179904927,0.0,0.0,0.09924447179904927,0.0,-0.16976874789165874
121,0.242,818.234,843.416,-1.1802e-06,-1.70528e-32,2.58173e-15,-1.46627e-15,0.0953102,0.0953102,-0.187421,0.0,0.0,0.0,0.163843,0.10000002221524285,0.0,0.0,0.10000002221524285,0.0,-0.17090538593220994
