,Time,S11,S22,S33,S12,S13,S23,LE11,LE22,LE33,LE12,LE13,LE23,SDV_EPBAR,E11,E12,E13,E22,E23,E33
0,2.42e-07,0.029678,0.029678,1.04083e-17,0.0,0.0,0.0,1e-07,1e-07,-8.57143e-08,0.0,0.0,0.0,0.0,1.0000000494336803e-07,0.0,0.0,1.0000000494336803e-07,0.0,-8.571429632731054e-08
1,4.84e-07,0.059356,0.059356,3.46945e-18,0.0,0.0,0.0,2e-07,2e-07,-1.71429e-07,0.0,0.0,0.0,0.0,2.0000002010078788e-07,0.0,0.0,2.0000002010078788e-07,0.0,-1.7142898534050488e-07
2,8.47e-07,0.103873,0.103873,3.46945e-18,0.0,0.0,0.0,3.5e-07,3.5e-07,-3e-07,0.0,0.0,0.0,0.0,3.5000006115559756e-07,0.0,0.0,3.5000006115559756e-07,0.0,-2.9999995498908305e-07
3,1.3915e-06,0.170648,0.170648,-1.73472e-17,0.0,0.0,0.0,5.75e-07,5.75e-07,-4.92857e-07,0.0,0.0,0.0,0.0,5.750001652593539e-07,0.0,0.0,5.750001652593539e-07,0.0,-4.928568785311782e-07
4,2.2083e-06,0.270812,0.270812,-3.46945e-18,0.0,0.0,0.0,9.125e-07,9.125e-07,-7.82142e-07,0.0,0.0,0.0,0.0,9.125004163390571e-07,0.0,0.0,9.125004163390571e-07,0.0,-7.821416940778647e-07
5,3.4334e-06,0.421056,0.421056,5.20417e-17,0.0,0.0,0.0,1.41875e-06,1.41875e-06,-1.21607e-06,0.0,0.0,0.0,0.0,1.4187510064544995e-06,0.0,0.0,1.4187510064544995e-06,0.0,-1.2160692606233425e-06
6,5.2711e-06,0.646423,0.646423,2.42861e-17,0.0,0.0,0.0,2.17812e-06,2.17812e-06,-1.86696e-06,0.0,0.0,0.0,0.0,2.178122372020752e-06,0.0,0.0,2.178122372020752e-06,0.0,-1.8669582572128363e-06
7,8.0276e-06,0.984473,0.984473,1.35308e-16,0.0,0.0,0.0,3.31718e-06,3.31718e-06,-2.8433e-06,0.0,0.0,0.0,0.0,3.317185501838793e-06,0.0,0.0,3.317185501838793e-06,0.0,-2.8432959577884276e-06
8,1.2162e-05,1.49155,1.49155,4.68375e-16,0.0,0.0,0.0,5.02577e-06,5.02577e-06,-4.3078e-06,0.0,0.0,0.0,0.0,5.025782629175524e-06,0.0,0.0,5.025782629175524e-06,0.0,-4.307790721469473e-06
9,1.8365e-05,2.25216,2.25216,3.57353e-16,0.0,0.0,0.0,7.58864e-06,7.58864e-06,-6.50455e-06,0.0,0.0,0.0,0.0,7.5886687938009345e-06,0.0,0.0,7.5886687938009345e-06,0.0,-6.50452884543018e-06
10,2.7668e-05,3.39307,3.39307,-3.08781e-16,0.0,0.0,0.0,1.14329e-05,1.14329e-05,-9.79967e-06,0.0,0.0,0.0,0.0,1.1432965355773206e-05,0.0,0.0,1.1432965355773206e-05,0.0,-9.799621983441753e-06
11,4.1623e-05,5.10443,5.10443,-7.5287e-16,0.0,0.0,-1.23207e-38,1.71994e-05,1.71994e-05,-1.47423e-05,0.0,0.0,0.0,0.0,1.7199547910573543e-05,0.0,0.0,1.7199547910573543e-05,0.0,-1.4742191332794974e-05
12,6.2555e-05,7.67145,7.67145,-1.64105e-15,0.0,0.0,-2.77213e-38,2.58489e-05,2.58489e-05,-2.21562e-05,0.0,0.0,0.0,0.0,2.5849234085661976e-05,0.0,0.0,2.5849234085661976e-05,0.0,-2.2155954553237933e-05
13,9.3954e-05,11.5219,11.5219,-8.30239e-15,0.0,0.0,-6.23724e-38,3.88231e-05,3.88231e-05,-3.3277e-05,0.0,0.0,0.0,0.0,3.882385362641294e-05,0.0,0.0,3.882385362641294e-05,0.0,-3.327644632677984e-05
14,0.00014105,17.2976,17.2976,-4.47177e-14,0.0,0.0,-1.40336e-37,5.82842e-05,5.82842e-05,-4.99578e-05,0.0,0.0,0.0,0.0,5.828589855694233e-05,0.0,0.0,5.828589855694233e-05,0.0,-4.995655212991501e-05
15,0.0002117,25.9608,25.9608,-2.25018e-13,0.0,0.0,-3.1575e-37,8.7475e-05,8.7475e-05,-7.49785e-05,0.0,0.0,0.0,0.0,8.747882604942525e-05,0.0,0.0,8.747882604942525e-05,0.0,-7.4975689182466e-05
16,0.00031767,38.9552,38.9552,-1.14339e-12,0.0,0.0,-7.10416e-37,0.00013126,0.00013126,-0.000112508,0.0,0.0,0.0,0.0,0.0001312686149708142,0.0,0.0,0.0001312686149708142,0.0,-0.00011250167121223953
17,0.00047662,58.4457,58.4457,-5.85252e-12,0.0,0.0,-1.59836e-36,0.000196933,0.000196933,-0.0001688,0.0,0.0,0.0,0.0,0.00019695239257622177,0.0,0.0,0.00019695239257622177,0.0,-0.00016878575408152408
18,0.00071506,87.6791,87.6791,-2.95989e-11,0.0,0.0,-3.59607e-36,0.000295435,0.000295435,-0.00025323,0.0,0.0,0.0,0.0,0.00029547864521761724,0.0,0.0,0.00029547864521761724,0.0,-0.00025319793998968
19,0.0010727,131.524,131.524,-1.49709e-10,0.0,0.0,-8.09034e-36,0.000443169,0.000443169,-0.000379859,0.0,0.0,0.0,0.0,0.0004432672138892091,0.0,0.0,0.0004432672138892091,0.0,-0.0003797868627043455
20,0.0016092,197.279,197.279,-7.57628e-10,0.0,0.0,-1.82005e-35,0.00066473,0.00066473,-0.000569769,0.0,0.0,0.0,0.0,0.0006649509819482979,0.0,0.0,0.0006649509819482979,0.0,-0.0005696067124669746
21,0.0024139,295.884,295.884,-3.83263e-09,0.0,0.0,-4.09417e-35,0.00099698,0.00099698,-0.000854554,0.0,0.0,0.0,0.0,0.0009974771497625046,0.0,0.0,0.0009974771497625046,0.0,-0.0008541889727163854
22,0.003621,428.772,429.879,0.00214973,-5.84469e-35,2.0709e-15,-2.06672e-15,0.00149515,0.00149515,-0.00133702,0.0,0.0,0.0,8.73158e-05,0.0014962682940309335,0.0,0.0,0.0014962682940309335,0.0,-0.001336126586974573
23,0.0054316,450.875,461.26,0.164586,1.67841e-34,4.06612e-15,1.41428e-15,0.00224193,0.00224193,-0.0027273,0.0,0.0,0.0,0.00126928,0.0022444450041991804,0.0,0.0,0.0022444450041991804,0.0,-0.0027235842960690038
24,0.0078516,474.132,491.866,0.000121719,4.71156e-35,-1.55746e-16,3.21876e-15,0.0032392,0.0032392,-0.00461843,0.0,0.0,0.0,0.00290036,0.003244451877416177,0.0,0.0,0.003244451877416177,0.0,-0.004607781451666515
25,0.010272,493.246,515.51,1.54043e-05,9.971e-35,-5.09569e-15,-6.35382e-16,0.00423547,0.00423547,-0.00652864,0.0,0.0,0.0,0.0045641,0.004244452279975608,0.0,0.0,0.004244452279975608,0.0,-0.006507374732799831
26,0.012692,509.536,534.724,2.0568e-06,1.49162e-34,-4.4297e-16,-3.67864e-16,0.00523074,0.00523074,-0.00845084,0.0,0.0,0.0,0.00624826,0.0052444442044314865,0.0,0.0,0.0052444442044314865,0.0,-0.008415232028004538
27,0.015112,523.772,550.954,3.98949e-07,1.40611e-34,-2.57405e-16,-2.16404e-16,0.00622503,0.00622503,-0.0103808,0.0,0.0,0.0,0.00794606,0.006244445766251383,0.0,0.0,0.006244445766251383,0.0,-0.010327105453744378
28,0.017532,536.428,565.047,1.69147e-07,1.32691e-34,-1.49155e-16,-1.29846e-16,0.00721833,0.00721833,-0.0123159,0.0,0.0,0.0,0.00965344,0.007244444941601369,0.0,0.0,0.007244444941601369,0.0,-0.012240369696127185
29,0.019952,547.825,577.539,-3.76823e-08,1.25339e-34,-8.54395e-17,-7.99667e-17,0.00821065,0.00821065,-0.0142545,0.0,0.0,0.0,0.0113678,0.008244449829572176,0.0,0.0,0.008244449829572176,0.0,-0.014153385629969706
30,0.022372,558.195,588.786,-3.18936e-07,-9.88803e-34,-5.24857e-15,5.0541e-15,0.00920198,0.00920198,-0.0161955,0.0,0.0,0.0,0.0130873,0.009244448382409898,0.0,0.0,0.009244448382409898,0.0,-0.016065058030215074
31,0.024792,567.709,599.034,-6.30939e-07,-6.56215e-34,-3.15969e-15,4.18325e-16,0.0101923,0.0101923,-0.0181382,0.0,0.0,0.0,0.0148106,0.010244418407964417,0.0,0.0,0.010244418407964417,0.0,-0.017974692917538615
32,0.027212,576.503,608.461,-9.38057e-07,-6.19725e-34,-1.9048e-15,2.38736e-16,0.0111817,0.0111817,-0.0200818,0.0,0.0,0.0,0.0165369,0.011244448869027979,0.0,0.0,0.011244448869027979,0.0,-0.019881503665438283
33,0.029632,584.68,617.2,-1.22242e-06,-3.64229e-34,1.49689e-15,-2.4637e-15,0.0121701,0.0121701,-0.0220261,0.0,0.0,0.0,0.0182654,0.012244457004898734,0.0,0.0,0.012244457004898734,0.0,-0.021785296685734257
34,0.032052,592.326,625.353,-1.4774e-06,-3.44862e-34,9.32155e-16,-1.49174e-15,0.0131575,0.0131575,-0.0239705,0.0,0.0,0.0,0.0199956,0.013244440792496093,0.0,0.0,0.013244440792496093,0.0,-0.023685489388842296
35,0.034472,599.507,633.0,-1.70218e-06,-5.48669e-34,-1.00818e-14,-9.08824e-16,0.0141439,0.0141439,-0.0259148,0.0,0.0,0.0,0.0217269,0.014244398206812336,0.0,0.0,0.014244398206812336,0.0,-0.025581893505146724
36,0.036892,606.281,640.204,-1.89859e-06,-2.42607e-34,-8.52305e-16,-3.1887e-15,0.0151294,0.0151294,-0.0278588,0.0,0.0,0.0,0.0234591,0.015244428745356142,0.0,0.0,0.015244428745356142,0.0,-0.027474322267437068
37,0.039312,612.692,647.019,-2.0695e-06,-9.53635e-34,-5.88043e-15,6.95138e-16,0.0161139,0.0161139,-0.0298024,0.0,0.0,0.0,0.0251918,0.016244429054838472,0.0,0.0,0.016244429054838472,0.0,-0.029362687466922943
38,0.041732,618.781,653.486,-2.21798e-06,-1.62649e-33,-9.32194e-16,5.72626e-15,0.0170975,0.0170975,-0.0317452,0.0,0.0,0.0,0.0269248,0.017244498828943522,0.0,0.0,0.017244498828943522,0.0,-0.031246611001822466
39,0.044152,624.579,659.643,-2.34698e-06,-1.09632e-33,-3.25679e-15,8.4771e-16,0.01808,0.01808,-0.0336874,0.0,0.0,0.0,0.0286579,0.01824443268611331,0.0,0.0,0.01824443268611331,0.0,-0.03312629787913779
40,0.046572,630.116,665.52,-2.45913e-06,-1.65052e-33,7.11953e-16,5.85294e-15,0.0190616,0.0190616,-0.0356286,0.0,0.0,0.0,0.0303909,0.019244432140675505,0.0,0.0,0.019244432140675505,0.0,-0.03500137257338298
41,0.048992,635.415,671.142,-2.55676e-06,-8.96692e-34,3.21084e-15,9.24118e-16,0.0200423,0.0200423,-0.0375688,0.0,0.0,0.0,0.0321236,0.02024449545617002,0.0,0.0,0.02024449545617002,0.0,-0.03687184777555841
42,0.051412,640.497,676.533,-2.64187e-06,-1.74119e-33,-6.7337e-16,3.24265e-15,0.0210219,0.0210219,-0.039508,0.0,0.0,0.0,0.033856,0.02124441664535559,0.0,0.0,0.02124441664535559,0.0,-0.03873773613827314
43,0.053832,645.38,681.713,-2.71615e-06,-9.83673e-34,2.35037e-15,-6.99247e-16,0.0220006,0.0220006,-0.0414461,0.0,0.0,0.0,0.0355879,0.022244397816892914,0.0,0.0,0.022244397816892914,0.0,-0.040598954335771986
44,0.056252,650.08,686.697,-2.78107e-06,-1.21209e-33,-1.22501e-15,-4.57383e-16,0.0229784,0.0229784,-0.043383,0.0,0.0,0.0,0.0373193,0.02324443722866909,0.0,0.0,0.02324443722866909,0.0,-0.04245541974680167
45,0.058672,654.612,691.502,-2.83787e-06,-7.04315e-34,-3.50237e-15,-3.01727e-15,0.0239552,0.0239552,-0.0453186,0.0,0.0,0.0,0.03905,0.024244430712260456,0.0,0.0,0.024244430712260456,0.0,-0.04430705045004335
46,0.061092,658.987,696.141,-2.88758e-06,-8.90908e-34,5.66887e-16,8.07134e-16,0.0249311,0.0249311,-0.0472529,0.0,0.0,0.0,0.0407799,0.02524447874626201,0.0,0.0,0.02524447874626201,0.0,-0.046153860604094765
47,0.063512,663.218,700.625,-2.93112e-06,3.26634e-34,-2.37059e-15,-4.95976e-15,0.025906,0.025906,-0.049186,0.0,0.0,0.0,0.042509,0.026244476958517948,0.0,0.0,0.026244476958517948,0.0,-0.047995959521810905
48,0.065932,667.313,704.965,-2.96924e-06,-1.9207e-33,-7.03435e-15,2.322e-15,0.0268799,0.0268799,-0.0511176,0.0,0.0,0.0,0.0442373,0.02724442329946286,0.0,0.0,0.02724442329946286,0.0,-0.04983307566842243
49,0.068352,671.282,709.172,-3.00259e-06,-9.32599e-34,-1.68935e-15,-1.28577e-15,0.0278529,0.0278529,-0.0530479,0.0,0.0,0.0,0.0459647,0.028244418542125116,0.0,0.0,0.028244418542125116,0.0,-0.0516654138323307
50,0.070772,675.132,713.252,-3.03176e-06,-1.2209e-33,1.75137e-15,1.91515e-15,0.028825,0.028825,-0.0549768,0.0,0.0,0.0,0.0476911,0.02924446093324229,0.0,0.0,0.02924446093324229,0.0,-0.053492893336363534
51,0.073192,678.872,717.215,-3.05721e-06,-1.43947e-33,-1.61745e-15,1.19951e-15,0.0297961,0.0297961,-0.0569042,0.0,0.0,0.0,0.0494165,0.030244445693269784,0.0,0.0,0.030244445693269784,0.0,-0.05531543418692075
52,0.075612,682.508,721.067,-3.07937e-06,-1.36834e-33,-9.96367e-16,7.45442e-16,0.0307663,0.0307663,-0.0588301,0.0,0.0,0.0,0.0511408,0.03124447388971663,0.0,0.0,0.03124447388971663,0.0,-0.057133051355958475
53,0.078032,686.045,724.814,-3.0986e-06,-1.30082e-33,-5.94717e-16,4.56656e-16,0.0317355,0.0317355,-0.0607545,0.0,0.0,0.0,0.0528641,0.032244440539372476,0.0,0.0,0.032244440539372476,0.0,-0.05894575976447902
54,0.080452,689.489,728.463,-3.11523e-06,-1.9632e-33,-3.34334e-16,3.04008e-15,0.0327038,0.0327038,-0.0626775,0.0,0.0,0.0,0.0545863,0.03324444690609507,0.0,0.0,0.03324444690609507,0.0,-0.060753668207357725
55,0.082872,692.846,732.019,-3.12951e-06,-1.86746e-33,-1.65103e-16,1.92377e-15,0.0336712,0.0336712,-0.0645989,0.0,0.0,0.0,0.0563073,0.03424449122747819,0.0,0.0,0.03424449122747819,0.0,-0.06255660347468306
56,0.085292,696.12,735.487,-3.14171e-06,-8.82199e-34,2.76895e-15,-1.56898e-15,0.0346376,0.0346376,-0.0665187,0.0,0.0,0.0,0.0580271,0.03524446821485494,0.0,0.0,0.03524446821485494,0.0,-0.06435458087660073
57,0.087712,699.315,738.871,-3.15202e-06,-2.78864e-34,-9.70285e-16,-3.81495e-15,0.0356031,0.0356031,-0.068437,0.0,0.0,0.0,0.0597458,0.03624447942664566,0.0,0.0,0.03624447942664566,0.0,-0.06614770905533873
58,0.090132,702.435,742.175,-3.16065e-06,-4.31164e-34,-3.4174e-15,-2.47533e-15,0.0365676,0.0365676,-0.0703538,0.0,0.0,0.0,0.0614633,0.037244419370573656,0.0,0.0,0.037244419370573656,0.0,-0.06793600267847899
59,0.092552,705.483,745.404,-3.16774e-06,-8.54823e-34,3.49301e-15,3.9742e-15,0.0375313,0.0375313,-0.0722689,0.0,0.0,0.0,0.0631795,0.038244493625901876,0.0,0.0,0.038244493625901876,0.0,-0.06971929030764668
60,0.094972,708.464,748.561,-3.17346e-06,-1.20281e-33,-4.98758e-16,2.54689e-15,0.038494,0.038494,-0.0741825,0.0,0.0,0.0,0.0648945,0.03924449287232035,0.0,0.0,0.03924449287232035,0.0,-0.07149777327849371
61,0.097392,711.381,751.65,-3.17792e-06,-3.43854e-33,-3.12399e-15,7.2316e-15,0.0394557,0.0394557,-0.0760945,0.0,0.0,0.0,0.0666083,0.04024441503662213,0.0,0.0,0.04024441503662213,0.0,-0.07327137343391776
62,0.099812,714.235,754.672,-3.18125e-06,-1.26136e-33,3.70408e-15,-9.58946e-16,0.0404166,0.0404166,-0.0780049,0.0,0.0,0.0,0.0683207,0.041244466292708726,0.0,0.0,0.041244466292708726,0.0,-0.07504010577104658
63,0.1022,717.031,757.633,-3.18355e-06,-2.76847e-33,-8.93435e-15,-6.52801e-16,0.0413765,0.0413765,-0.0799137,0.0,0.0,0.0,0.0700319,0.042244436714925504,0.0,0.0,0.042244436714925504,0.0,-0.07680398523502996
64,0.1047,719.769,760.533,-3.1849e-06,-1.40356e-33,5.60589e-15,5.18016e-15,0.0423355,0.0423355,-0.0818208,0.0,0.0,0.0,0.0717417,0.043244428549180425,0.0,0.0,0.043244428549180425,0.0,-0.07856293457553187
65,0.1071,722.454,763.375,-3.1854e-06,-4.35928e-34,-1.9671e-15,-2.30362e-15,0.0432936,0.0432936,-0.0837264,0.0,0.0,0.0,0.0734503,0.044244440015168696,0.0,0.0,0.044244440015168696,0.0,-0.08031715309715448
66,0.1095,725.087,766.163,-3.18512e-06,-6.32649e-34,1.62499e-15,1.29031e-15,0.0442508,0.0442508,-0.0856303,0.0,0.0,0.0,0.0751575,0.04524446933082715,0.0,0.0,0.04524446933082715,0.0,-0.08206647147732504
67,0.1119,727.67,768.898,-3.18412e-06,-2.05372e-33,-1.73964e-15,3.6391e-15,0.045207,0.045207,-0.0875326,0.0,0.0,0.0,0.0768634,0.046244410087888266,0.0,0.0,0.046244410087888266,0.0,-0.08381099659748303
68,0.1143,730.205,771.582,-3.18247e-06,5.68992e-34,-1.0977e-15,-6.15951e-15,0.0461624,0.0461624,-0.0894332,0.0,0.0,0.0,0.0785679,0.04724446964966855,0.0,0.0,0.04724446964966855,0.0,-0.08555065169942977
69,0.1168,732.694,774.217,-3.18021e-06,5.50971e-34,-6.70816e-16,-4.06812e-15,0.0471168,0.0471168,-0.0913322,0.0,0.0,0.0,0.0802711,0.048244436879960606,0.0,0.0,0.048244436879960606,0.0,-0.08728554321099835
70,0.1192,735.139,776.805,-3.17741e-06,-8.12262e-34,-3.27337e-15,1.44894e-16,0.0480703,0.0480703,-0.0932295,0.0,0.0,0.0,0.0819729,0.04924441461414841,0.0,0.0,0.04924441461414841,0.0,-0.08901559461761821
71,0.1216,737.541,779.348,-3.17409e-06,-7.68684e-34,-2.12066e-15,6.70301e-17,0.0490229,0.0490229,-0.0951253,0.0,0.0,0.0,0.0836734,0.05024440106143513,0.0,0.0,0.05024440106143513,0.0,-0.09074100282213715
72,0.124,739.902,781.847,-3.17031e-06,-1.68062e-33,-1.35101e-15,2.86604e-15,0.0499747,0.0499747,-0.0970193,0.0,0.0,0.0,0.0853725,0.05124449955373711,0.0,0.0,0.05124449955373711,0.0,-0.09246150952861898
73,0.1264,742.223,784.305,-3.16611e-06,3.08961e-34,-8.36351e-16,-3.85097e-15,0.0509255,0.0509255,-0.0989117,0.0,0.0,0.0,0.0870702,0.052244498147909324,0.0,0.0,0.052244498147909324,0.0,-0.0941773113642409
74,0.1289,744.507,786.721,-3.16151e-06,1.25683e-33,-4.91681e-16,-5.42631e-15,0.0518753,0.0518753,-0.100802,0.0,0.0,0.0,0.0887665,0.05324439474797682,0.0,0.0,0.05324439474797682,0.0,-0.0958879706535598
75,0.1313,746.753,789.099,-3.15654e-06,2.16303e-33,-2.60484e-16,-6.46889e-15,0.0528243,0.0528243,-0.102692,0.0,0.0,0.0,0.0904614,0.05424439810513504,0.0,0.0,0.05424439810513504,0.0,-0.09759512861657105
76,0.1337,748.963,791.439,-3.15124e-06,8.40258e-34,-3.01452e-15,-1.4301e-15,0.0537724,0.0537724,-0.104579,0.0,0.0,0.0,0.0921549,0.05524440119553553,0.0,0.0,0.05524440119553553,0.0,-0.09929636099131833
77,0.1361,751.139,793.742,-3.14563e-06,8.10357e-34,-1.9544e-15,-9.62105e-16,0.0547196,0.0547196,-0.106465,0.0,0.0,0.0,0.093847,0.05624440221806659,0.0,0.0,0.05624440221806659,0.0,-0.10099348716145429
78,0.1385,753.281,796.01,-3.13974e-06,-1.15258e-34,4.59186e-15,5.09277e-15,0.0556659,0.0556659,-0.108349,0.0,0.0,0.0,0.0955377,0.057244399369914545,0.0,0.0,0.057244399369914545,0.0,-0.10268562094110889
79,0.141,755.391,798.243,-3.13358e-06,4.03817e-34,-2.6735e-15,4.86483e-16,0.0566114,0.0566114,-0.110231,0.0,0.0,0.0,0.097227,0.05824449667101317,0.0,0.0,0.05824449667101317,0.0,-0.10437277848926285
80,0.1434,757.47,800.443,-3.12717e-06,2.36004e-33,1.19254e-15,-5.45482e-15,0.0575559,0.0575559,-0.112112,0.0,0.0,0.0,0.0989149,0.05924448076626909,0.0,0.0,0.05924448076626909,0.0,-0.10605586984924642
81,0.1458,759.519,802.611,-3.12054e-06,-1.49998e-34,-2.04817e-15,2.12081e-15,0.0584995,0.0584995,-0.113991,0.0,0.0,0.0,0.100601,0.06024445557223701,0.0,0.0,0.06024445557223701,0.0,-0.10773401375985214
82,0.1482,761.538,804.748,-3.11371e-06,-1.36406e-34,-1.31063e-15,1.39671e-15,0.0594422,0.0594422,-0.115869,0.0,0.0,0.0,0.102286,0.06124441927934421,0.0,0.0,0.06124441927934421,0.0,-0.10940811680721907
83,0.1506,763.528,806.854,-3.10668e-06,1.57546e-34,2.1219e-15,9.13931e-16,0.0603841,0.0603841,-0.117745,0.0,0.0,0.0,0.10397,0.062244476300782114,0.0,0.0,0.062244476300782114,0.0,-0.11107730099577928
84,0.1531,765.49,808.931,-3.09947e-06,-1.30339e-33,-1.42342e-15,3.48437e-15,0.061325,0.061325,-0.119619,0.0,0.0,0.0,0.105652,0.06324441247473667,0.0,0.0,0.06324441247473667,0.0,-0.1127415822151483
85,0.1555,767.426,810.98,-3.0921e-06,-4.71143e-36,2.04963e-15,-5.88394e-16,0.0622651,0.0622651,-0.121491,0.0,0.0,0.0,0.107333,0.06424443853550321,0.0,0.0,0.06424443853550321,0.0,-0.11440097629578605
86,0.1579,769.336,813.001,-3.08457e-06,-9.53357e-34,1.46688e-15,2.48378e-15,0.0632043,0.0632043,-0.123362,0.0,0.0,0.0,0.109013,0.06524444644238003,0.0,0.0,0.06524444644238003,0.0,-0.1160563829532929
87,0.1603,771.22,814.995,-3.07691e-06,-2.48054e-33,-1.87491e-15,4.5426e-15,0.0641426,0.0641426,-0.125231,0.0,0.0,0.0,0.11069,0.06624443437745042,0.0,0.0,0.06624443437745042,0.0,-0.11770693065625593
88,0.1627,773.079,816.962,-3.06911e-06,-1.30071e-33,-1.20123e-15,1.13385e-16,0.06508,0.06508,-0.127099,0.0,0.0,0.0,0.112367,0.06724440052114344,0.0,0.0,0.06724440052114344,0.0,-0.1193535157205371
89,0.1652,774.914,818.904,-3.0612e-06,8.97865e-34,-7.42127e-16,-5.7692e-15,0.0660166,0.0660166,-0.128964,0.0,0.0,0.0,0.114042,0.06824444987667944,0.0,0.0,0.06824444987667944,0.0,-0.12099439082207519
90,0.1676,776.726,820.822,-3.05317e-06,-6.61649e-33,-9.29359e-15,7.74501e-15,0.0669523,0.0669523,-0.130829,0.0,0.0,0.0,0.115716,0.0692444739967506,0.0,0.0,0.0692444739967506,0.0,-0.12263220854344203
91,0.17,778.515,822.715,-3.04504e-06,-5.09826e-33,-3.44678e-16,5.18097e-15,0.0678871,0.0678871,-0.132691,0.0,0.0,0.0,0.117388,0.07024447105684795,0.0,0.0,0.07024447105684795,0.0,-0.12426434737832082
92,0.1724,780.282,824.584,-3.03682e-06,-1.27983e-33,-3.10991e-15,-5.298e-15,0.068821,0.068821,-0.134552,0.0,0.0,0.0,0.119059,0.07124443923082846,0.0,0.0,0.07124443923082846,0.0,-0.1258925758912951
93,0.1748,782.027,826.431,-3.02851e-06,7.30342e-35,-2.03836e-15,-6.52291e-15,0.0697541,0.0697541,-0.136411,0.0,0.0,0.0,0.120728,0.07224448391536265,0.0,0.0,0.07224448391536265,0.0,-0.1275160321226071
94,0.1773,783.751,828.256,-3.02013e-06,-1.89308e-33,1.66204e-15,1.41977e-15,0.0706863,0.0706863,-0.138269,0.0,0.0,0.0,0.122396,0.07324449625660368,0.0,0.0,0.07324449625660368,0.0,-0.12913560228832088
95,0.1797,785.455,830.058,-3.01167e-06,-6.26508e-34,1.22969e-15,-1.99299e-15,0.0716176,0.0716176,-0.140125,0.0,0.0,0.0,0.124062,0.07424447442352577,0.0,0.0,0.07424447442352577,0.0,-0.13075042758904076
96,0.1821,787.138,831.839,-3.00314e-06,-6.05516e-33,-5.011e-15,7.41519e-15,0.072548,0.072548,-0.141979,0.0,0.0,0.0,0.125727,0.07524441658348935,0.0,0.0,0.07524441658348935,0.0,-0.1323605232763878
97,0.1845,788.802,833.6,-2.99455e-06,-2.98621e-33,-3.34743e-15,-8.75598e-16,0.0734776,0.0734776,-0.143831,0.0,0.0,0.0,0.127391,0.07624442852668256,0.0,0.0,0.07624442852668256,0.0,-0.1339659045453665
98,0.1869,790.447,835.34,-2.98591e-06,-2.85789e-33,-2.20381e-15,-6.23506e-16,0.0744063,0.0744063,-0.145682,0.0,0.0,0.0,0.129053,0.07724440099279839,0.0,0.0,0.07724440099279839,0.0,-0.13556745096757072
99,0.1894,792.073,837.061,-2.97721e-06,-2.73482e-33,-1.41683e-15,-4.52634e-16,0.0753342,0.0753342,-0.147532,0.0,0.0,0.0,0.130714,0.07824443996881003,0.0,0.0,0.07824443996881003,0.0,-0.13716517283486995
100,0.1918,793.68,838.762,-2.96847e-06,-4.02441e-33,-8.74711e-16,2.60338e-15,0.0762612,0.0762612,-0.149379,0.0,0.0,0.0,0.132373,0.07924443599120679,0.0,0.0,0.07924443599120679,0.0,-0.13875735792508026
101,0.1942,795.271,840.445,-2.95969e-06,-2.44584e-33,-5.00861e-16,-1.20598e-15,0.0771874,0.0771874,-0.151225,0.0,0.0,0.0,0.134031,0.08024449524377042,0.0,0.0,0.08024449524377042,0.0,-0.1403457453097302
102,0.1966,796.843,842.109,-2.95087e-06,-9.31366e-34,-2.4276e-16,-3.79646e-15,0.0781126,0.0781126,-0.15307,0.0,0.0,0.0,0.135688,0.08124439993535426,0.0,0.0,0.08124439993535426,0.0,-0.14193034516676428
103,0.199,798.399,843.755,-2.94201e-06,-2.29447e-33,-6.43504e-17,3.36547e-16,0.0790371,0.0790371,-0.154912,0.0,0.0,0.0,0.137343,0.0822444725954512,0.0,0.0,0.0822444725954512,0.0,-0.14350945466463105
104,0.2015,799.938,845.383,-2.93313e-06,-2.58852e-33,-2.93434e-15,2.01269e-16,0.0799607,0.0799607,-0.156753,0.0,0.0,0.0,0.138996,0.08324449532975087,0.0,0.0,0.08324449532975087,0.0,-0.14508480320532013
105,0.2039,801.461,846.994,-2.92422e-06,-4.61745e-33,-4.91926e-15,3.06232e-15,0.0808834,0.0808834,-0.158593,0.0,0.0,0.0,0.140648,0.08424446629124893,0.0,0.0,0.08424446629124893,0.0,-0.1466564008541853
106,0.2063,802.968,848.589,-2.91528e-06,-3.91665e-33,-2.95983e-16,2.05876e-15,0.0818053,0.0818053,-0.160431,0.0,0.0,0.0,0.142299,0.0852444921558182,0.0,0.0,0.0852444921558182,0.0,-0.14822340587066152
107,0.2087,804.459,850.166,-2.90632e-06,-4.25819e-33,-3.09469e-15,1.37323e-15,0.0827263,0.0827263,-0.162267,0.0,0.0,0.0,0.143948,0.08624446274886743,0.0,0.0,0.08624446274886743,0.0,-0.1497858329505254
108,0.2111,805.935,851.728,-2.89735e-06,-4.07883e-33,-2.03154e-15,9.04513e-16,0.0836465,0.0836465,-0.164101,0.0,0.0,0.0,0.145596,0.08724448494313486,0.0,0.0,0.08724448494313486,0.0,-0.15134369673514014
109,0.2136,807.396,853.274,-2.88836e-06,-2.27212e-33,-1.29346e-15,-2.37974e-15,0.0845658,0.0845658,-0.165934,0.0,0.0,0.0,0.147243,0.08824444836090461,0.0,0.0,0.08824444836090461,0.0,-0.15289785891423657
110,0.216,808.843,854.805,-2.87936e-06,-7.07578e-33,-7.80564e-16,7.23527e-15,0.0854843,0.0854843,-0.167765,0.0,0.0,0.0,0.148888,0.08924446007179787,0.0,0.0,0.08924446007179787,0.0,-0.15444748382002904
111,0.2184,810.275,856.32,-2.87035e-06,-7.51708e-33,-3.43466e-15,4.9189e-15,0.0864019,0.0864019,-0.169595,0.0,0.0,0.0,0.150531,0.09024440949499302,0.0,0.0,0.09024440949499302,0.0,-0.1559934299524922
112,0.2208,811.693,857.82,-2.86133e-06,-5.46019e-33,-2.26738e-15,3.59011e-16,0.0873187,0.0873187,-0.171423,0.0,0.0,0.0,0.152173,0.09124440389700861,0.0,0.0,0.09124440389700861,0.0,-0.15753486466197852
113,0.2232,813.098,859.306,-2.8523e-06,-8.72814e-33,-1.45437e-15,6.1487e-15,0.0882347,0.0882347,-0.173249,0.0,0.0,0.0,0.153814,0.09224444171837654,0.0,0.0,0.09224444171837654,0.0,-0.1590718023479506
114,0.2257,814.489,860.778,-2.84327e-06,-4.48084e-33,2.13039e-15,-1.77701e-15,0.0891498,0.0891498,-0.175074,0.0,0.0,0.0,0.155453,0.09324441207364731,0.0,0.0,0.09324441207364731,0.0,-0.1606050967519529
115,0.2281,815.867,862.236,-2.83424e-06,-1.18943e-33,-1.41053e-15,-7.22617e-15,0.0900641,0.0900641,-0.176897,0.0,0.0,0.0,0.157091,0.09424442252472098,0.0,0.0,0.09424442252472098,0.0,-0.16213391971504476
116,0.2305,817.232,863.68,-2.82521e-06,-2.25679e-33,2.16412e-15,-2.03399e-15,0.0909776,0.0909776,-0.178719,0.0,0.0,0.0,0.158727,0.0952444715075269,0.0,0.0,0.0952444715075269,0.0,-0.16365912183226283
117,0.2329,818.584,865.111,-2.81618e-06,-2.1542e-33,1.63564e-15,-1.44125e-15,0.0918902,0.0918902,-0.180539,0.0,0.0,0.0,0.160363,0.09624444783201991,0.0,0.0,0.09624444783201991,0.0,-0.1651798779227064
118,0.2353,819.924,866.528,-2.80715e-06,-2.56326e-33,-1.7608e-15,-1.03273e-15,0.092802,0.092802,-0.182357,0.0,0.0,0.0,0.161996,0.09724445935552417,0.0,0.0,0.09724445935552417,0.0,-0.1666962021482853
119,0.2378,821.251,867.932,-2.79813e-06,-2.44858e-33,-1.10644e-15,-7.50972e-16,0.0937129,0.0937129,-0.184174,0.0,0.0,0.0,0.163628,0.09824439468495627,0.0,0.0,0.09824439468495627,0.0,-0.1682089404100804
120,0.2402,822.567,869.324,-2.78911e-06,-4.8766e-33,2.38358e-15,5.42279e-15,0.0946231,0.0946231,-0.185989,0.0,0.0,0.0,0.165259,0.09924447179904927,0.0,0.0,0.09924447179904927,0.0,-0.16971727195829067
121,0.242,823.553,870.368,-1.17953e-06,-1.98462e-33,-4.64449e-15,-2.4563e-15,0.0953102,0.0953102,-0.187359,0.0,0.0,0.0,0.16649,0.10000002221524285,0.0,0.0,0.10000002221524285,0.0,-0.17085398047258493
