,Time,S11,S22,S33,S12,S13,S23,LE11,LE22,LE33,LE12,LE13,LE23,SDV_EPBAR,E11,E12,E13,E22,E23,E33
0,2.42e-07,0.029678,0.029678,1.04083e-17,0.0,0.0,0.0,1e-07,1e-07,-8.57143e-08,0.0,0.0,0.0,0.0,1.0000000494336803e-07,0.0,0.0,1.0000000494336803e-07,0.0,-8.571429632731054e-08
1,4.84e-07,0.059356,0.059356,3.46945e-18,0.0,0.0,0.0,2e-07,2e-07,-1.71429e-07,0.0,0.0,0.0,0.0,2.0000002010078788e-07,0.0,0.0,2.0000002010078788e-07,0.0,-1.7142898534050488e-07
2,8.47e-07,0.103873,0.103873,3.46945e-18,0.0,0.0,0.0,3.5e-07,3.5e-07,-3e-07,0.0,0.0,0.0,0.0,3.5000006115559756e-07,0.0,0.0,3.5000006115559756e-07,0.0,-2.9999995498908305e-07
3,1.3915e-06,0.170648,0.170648,-1.73472e-17,0.0,0.0,0.0,5.75e-07,5.75e-07,-4.92857e-07,0.0,0.0,0.0,0.0,5.750001652593539e-07,0.0,0.0,5.750001652593539e-07,0.0,-4.928568785311782e-07
4,2.2083e-06,0.270812,0.270812,-3.46945e-18,0.0,0.0,0.0,9.125e-07,9.125e-07,-7.82142e-07,0.0,0.0,0.0,0.0,9.125004163390571e-07,0.0,0.0,9.125004163390571e-07,0.0,-7.821416940778647e-07
5,3.4334e-06,0.421056,0.421056,5.20417e-17,0.0,0.0,0.0,1.41875e-06,1.41875e-06,-1.21607e-06,0.0,0.0,0.0,0.0,1.4187510064544995e-06,0.0,0.0,1.4187510064544995e-06,0.0,-1.2160692606233425e-06
6,5.2711e-06,0.646423,0.646423,2.42861e-17,0.0,0.0,0.0,2.17812e-06,2.17812e-06,-1.86696e-06,0.0,0.0,0.0,0.0,2.178122372020752e-06,0.0,0.0,2.178122372020752e-06,0.0,-1.8669582572128363e-06
7,8.0276e-06,0.984473,0.984473,1.35308e-16,0.0,0.0,0.0,3.31718e-06,3.31718e-06,-2.8433e-06,0.0,0.0,0.0,0.0,3.317185501838793e-06,0.0,0.0,3.317185501838793e-06,0.0,-2.8432959577884276e-06
8,1.2162e-05,1.49155,1.49155,4.68375e-16,0.0,0.0,0.0,5.02577e-06,5.02577e-06,-4.3078e-06,0.0,0.0,0.0,0.0,5.025782629175524e-06,0.0,0.0,5.025782629175524e-06,0.0,-4.307790721469473e-06
9,1.8365e-05,2.25216,2.25216,3.57353e-16,0.0,0.0,0.0,7.58864e-06,7.58864e-06,-6.50455e-06,0.0,0.0,0.0,0.0,7.5886687938009345e-06,0.0,0.0,7.5886687938009345e-06,0.0,-6.50452884543018e-06
10,2.7668e-05,3.39307,3.39307,-3.08781e-16,0.0,0.0,0.0,1.14329e-05,1.14329e-05,-9.79967e-06,0.0,0.0,0.0,0.0,1.1432965355773206e-05,0.0,0.0,1.1432965355773206e-05,0.0,-9.799621983441753e-06
11,4.1623e-05,5.10443,5.10443,-7.5287e-16,0.0,0.0,-1.23207e-38,1.71994e-05,1.71994e-05,-1.47423e-05,0.0,0.0,0.0,0.0,1.7199547910573543e-05,0.0,0.0,1.7199547910573543e-05,0.0,-1.4742191332794974e-05
12,6.2555e-05,7.67145,7.67145,-1.64105e-15,0.0,0.0,-2.77213e-38,2.58489e-05,2.58489e-05,-2.21562e-05,0.0,0.0,0.0,0.0,2.5849234085661976e-05,0.0,0.0,2.5849234085661976e-05,0.0,-2.2155954553237933e-05
13,9.3954e-05,11.5219,11.5219,-8.30239e-15,0.0,0.0,-6.23724e-38,3.88231e-05,3.88231e-05,-3.3277e-05,0.0,0.0,0.0,0.0,3.882385362641294e-05,0.0,0.0,3.882385362641294e-05,0.0,-3.327644632677984e-05
14,0.00014105,17.2976,17.2976,-4.47177e-14,0.0,0.0,-1.40336e-37,5.82842e-05,5.82842e-05,-4.99578e-05,0.0,0.0,0.0,0.0,5.828589855694233e-05,0.0,0.0,5.828589855694233e-05,0.0,-4.995655212991501e-05
15,0.0002117,25.9608,25.9608,-2.25018e-13,0.0,0.0,-3.1575e-37,8.7475e-05,8.7475e-05,-7.49785e-05,0.0,0.0,0.0,0.0,8.747882604942525e-05,0.0,0.0,8.747882604942525e-05,0.0,-7.4975689182466e-05
16,0.00031767,38.9552,38.9552,-1.14339e-12,0.0,0.0,-7.10416e-37,0.00013126,0.00013126,-0.000112508,0.0,0.0,0.0,0.0,0.0001312686149708142,0.0,0.0,0.0001312686149708142,0.0,-0.00011250167121235055
17,0.00047662,58.4457,58.4457,-5.85252e-12,0.0,0.0,-1.59836e-36,0.000196933,0.000196933,-0.0001688,0.0,0.0,0.0,0.0,0.00019695239257622177,0.0,0.0,0.00019695239257622177,0.0,-0.0001687857540816351
18,0.00071506,87.6791,87.6791,-2.95989e-11,0.0,0.0,-3.59607e-36,0.000295435,0.000295435,-0.00025323,0.0,0.0,0.0,0.0,0.00029547864521761724,0.0,0.0,0.00029547864521761724,0.0,-0.000253197939989791
19,0.0010727,131.524,131.524,-1.49709e-10,0.0,0.0,-8.09034e-36,0.000443169,0.000443169,-0.000379859,0.0,0.0,0.0,0.0,0.0004432672138892091,0.0,0.0,0.0004432672138892091,0.0,-0.0003797868627043455
20,0.0016092,197.279,197.279,-7.57628e-10,0.0,0.0,-1.82005e-35,0.00066473,0.00066473,-0.000569769,0.0,0.0,0.0,0.0,0.0006649509819482979,0.0,0.0,0.0006649509819482979,0.0,-0.0005696067124668636
21,0.0024139,295.884,295.884,-3.83263e-09,0.0,0.0,-4.09417e-35,0.00099698,0.00099698,-0.000854554,0.0,0.0,0.0,0.0,0.0009974771497625046,0.0,0.0,0.0009974771497625046,0.0,-0.0008541889727164964
22,0.003621,419.311,419.655,0.00505956,-5.83396e-35,-2.01604e-15,2.00958e-15,0.00149515,0.00149515,-0.00137491,0.0,0.0,0.0,0.000143145,0.0014962682940309335,0.0,0.0,0.0014962682940309335,0.0,-0.0013739652442802397
23,0.0054316,443.398,445.563,0.121006,-6.74152e-34,1.48107e-15,-9.63268e-15,0.00224193,0.00224193,-0.002772,0.0,0.0,0.0,0.00130422,0.0022444450041991804,0.0,0.0,0.0022444450041991804,0.0,-0.002768161555541826
24,0.0078516,468.128,471.819,8.27163e-05,-2.49642e-34,-1.64563e-15,-5.43988e-15,0.0032392,0.0032392,-0.00466859,0.0,0.0,0.0,0.00290062,0.003244451877416177,0.0,0.0,0.003244451877416177,0.0,-0.00465770907315366
25,0.010272,487.971,492.649,1.09794e-05,-4.58926e-34,-9.58218e-16,6.8105e-15,0.00423547,0.00423547,-0.00658282,0.0,0.0,0.0,0.00452604,0.004244452279975608,0.0,0.0,0.004244452279975608,0.0,-0.006561200705078041
26,0.012692,504.585,509.927,1.43737e-06,-1.3811e-33,1.98666e-15,-1.10612e-14,0.00523074,0.00523074,-0.00850812,0.0,0.0,0.0,0.00616974,0.0052444442044314865,0.0,0.0,0.0052444442044314865,0.0,-0.008472028376850904
27,0.015112,518.927,524.734,3.30503e-07,-1.14387e-33,1.17846e-15,1.14745e-15,0.00622503,0.00622503,-0.0104406,0.0,0.0,0.0,0.00782572,0.006244445766251383,0.0,0.0,0.006244445766251383,0.0,-0.0103862861233186
28,0.017532,531.574,537.722,1.34104e-07,-1.08686e-33,7.02882e-16,6.94013e-16,0.00721833,0.00721833,-0.0123778,0.0,0.0,0.0,0.00949034,0.007244444941601369,0.0,0.0,0.007244444941601369,0.0,-0.012301510124927195
29,0.019952,542.904,549.314,-9.56684e-08,-9.77869e-34,4.206e-16,2.99028e-15,0.00821065,0.00821065,-0.0143183,0.0,0.0,0.0,0.0111612,0.008244449829572176,0.0,0.0,0.008244449829572176,0.0,-0.014216280637594503
30,0.022372,553.18,559.797,-3.94607e-07,-5.96074e-34,-2.37273e-15,-7.81275e-16,0.00920198,0.00920198,-0.016261,0.0,0.0,0.0,0.0128368,0.009244448382409898,0.0,0.0,0.009244448382409898,0.0,-0.016129503658296795
31,0.024792,562.591,569.381,-7.14549e-07,-1.12596e-33,3.83306e-15,-4.49851e-16,0.0101923,0.0101923,-0.0182051,0.0,0.0,0.0,0.0145159,0.010244418407964417,0.0,0.0,0.010244418407964417,0.0,-0.018040388213050318
32,0.027212,571.279,578.216,-1.02297e-06,-9.60287e-34,4.9975e-15,2.35412e-15,0.0111817,0.0111817,-0.0201501,0.0,0.0,0.0,0.0161976,0.011244448869027979,0.0,0.0,0.011244448869027979,0.0,-0.019948443472717514
33,0.029632,579.353,586.419,-1.30489e-06,-8.58324e-34,3.99499e-16,-3.79994e-15,0.0121701,0.0121701,-0.0220956,0.0,0.0,0.0,0.0178812,0.012244457004898734,0.0,0.0,0.012244457004898734,0.0,-0.021853280245158424
34,0.032052,586.899,594.081,-1.55557e-06,-8.1751e-34,2.36023e-16,-2.28887e-15,0.0131575,0.0131575,-0.0240411,0.0,0.0,0.0,0.0195663,0.013244440792496093,0.0,0.0,0.013244440792496093,0.0,-0.02375441476019724
35,0.034472,593.986,601.273,-1.77527e-06,-6.11276e-34,1.35191e-16,1.26992e-15,0.0141439,0.0141439,-0.0259865,0.0,0.0,0.0,0.0212524,0.014244398206812336,0.0,0.0,0.014244398206812336,0.0,-0.02565175677875431
36,0.036892,600.671,608.054,-1.96643e-06,-8.62396e-34,2.77453e-15,8.00181e-16,0.0151294,0.0151294,-0.0279315,0.0,0.0,0.0,0.0229393,0.015244428745356142,0.0,0.0,0.015244428745356142,0.0,-0.027545022314230505
37,0.039312,606.998,614.472,-2.13223e-06,-4.86914e-34,-9.89731e-16,3.17885e-15,0.0161139,0.0161139,-0.029876,0.0,0.0,0.0,0.0246265,0.016244429054838472,0.0,0.0,0.016244429054838472,0.0,-0.02943412374423815
38,0.041732,613.008,620.565,-2.2759e-06,1.51461e-34,2.08625e-15,7.33169e-15,0.0170975,0.0170975,-0.0318197,0.0,0.0,0.0,0.026314,0.017244498828943522,0.0,0.0,0.017244498828943522,0.0,-0.031318780440957816
39,0.044152,618.731,626.368,-2.40045e-06,-1.35484e-34,1.29938e-15,1.86901e-15,0.01808,0.01808,-0.0337627,0.0,0.0,0.0,0.0280015,0.01824443268611331,0.0,0.0,0.01824443268611331,0.0,-0.03319910072784593
40,0.046572,624.197,631.909,-2.50854e-06,-6.89402e-34,8.04368e-16,-4.21797e-15,0.0190616,0.0190616,-0.0357047,0.0,0.0,0.0,0.0296888,0.019244432140675505,0.0,0.0,0.019244432140675505,0.0,-0.03507480617474623
41,0.048992,629.428,637.211,-2.60248e-06,-9.75972e-35,4.91823e-16,2.78541e-15,0.0200423,0.0200423,-0.0376457,0.0,0.0,0.0,0.0313758,0.02024449545617002,0.0,0.0,0.02024449545617002,0.0,-0.03694590948275511
42,0.051412,634.446,642.297,-2.68423e-06,-6.5394e-34,3.0508e-15,-9.58513e-16,0.0210219,0.0210219,-0.0395856,0.0,0.0,0.0,0.0330624,0.02124441664535559,0.0,0.0,0.02124441664535559,0.0,-0.03881232719577832
43,0.053832,639.267,647.184,-2.75549e-06,-6.24761e-34,1.92476e-15,-5.91448e-16,0.0220006,0.0220006,-0.0415243,0.0,0.0,0.0,0.0347485,0.022244397816892914,0.0,0.0,0.022244397816892914,0.0,-0.04067397656413563
44,0.056252,643.909,651.888,-2.81766e-06,-2.04353e-34,1.20719e-15,2.36496e-15,0.0229784,0.0229784,-0.0434619,0.0,0.0,0.0,0.036434,0.02324443722866909,0.0,0.0,0.02324443722866909,0.0,-0.0425309670338041
45,0.058672,648.384,656.424,-2.87197e-06,3.04276e-35,-4.81088e-15,-3.96653e-15,0.0239552,0.0239552,-0.0453981,0.0,0.0,0.0,0.0381188,0.024244430712260456,0.0,0.0,0.024244430712260456,0.0,-0.04438302501950353
46,0.061092,652.706,660.803,-2.91943e-06,3.04056e-35,-3.11638e-15,-2.49723e-15,0.0249311,0.0249311,-0.0473331,0.0,0.0,0.0,0.0398028,0.02524447874626201,0.0,0.0,0.02524447874626201,0.0,-0.04623035599696823
47,0.063512,656.884,665.037,-2.96092e-06,3.03921e-35,-2.02794e-15,-1.56873e-15,0.025906,0.025906,-0.0492667,0.0,0.0,0.0,0.0414861,0.026244476958517948,0.0,0.0,0.026244476958517948,0.0,-0.04807278314800256
48,0.065932,660.929,669.136,-2.99717e-06,7.05582e-34,4.27318e-15,4.5284e-15,0.0268799,0.0268799,-0.0511989,0.0,0.0,0.0,0.0431684,0.02724442329946286,0.0,0.0,0.02724442329946286,0.0,-0.04991032109930116
49,0.068352,664.85,673.109,-3.02883e-06,1.12806e-33,-5.67127e-15,1.37922e-16,0.0278529,0.0278529,-0.0531297,0.0,0.0,0.0,0.0448499,0.028244418542125116,0.0,0.0,0.028244418542125116,0.0,-0.051742984428798655
50,0.070772,668.654,676.963,-3.05644e-06,1.75863e-33,1.92787e-15,5.63465e-15,0.028825,0.028825,-0.0550591,0.0,0.0,0.0,0.0465303,0.02924446093324229,0.0,0.0,0.02924446093324229,0.0,-0.05357078766584633
51,0.073192,672.349,680.707,-3.08047e-06,1.63193e-33,-1.58096e-15,3.61395e-15,0.0297961,0.0297961,-0.056987,0.0,0.0,0.0,0.0482098,0.030244445693269784,0.0,0.0,0.030244445693269784,0.0,-0.055393650830756314
52,0.075612,675.941,684.346,-3.10132e-06,1.56702e-33,-1.0462e-15,2.3214e-15,0.0307663,0.0307663,-0.0589134,0.0,0.0,0.0,0.0498882,0.03124447388971663,0.0,0.0,0.03124447388971663,0.0,-0.05721158890164624
53,0.078032,679.436,687.888,-3.11936e-06,7.73433e-34,2.13226e-15,-4.07689e-15,0.0317355,0.0317355,-0.0608383,0.0,0.0,0.0,0.0515656,0.032244440539372476,0.0,0.0,0.032244440539372476,0.0,-0.05902461680565463
54,0.080452,682.84,691.336,-3.13488e-06,7.44345e-34,1.37938e-15,-2.62188e-15,0.0327038,0.0327038,-0.0627617,0.0,0.0,0.0,0.0532419,0.03324444690609507,0.0,0.0,0.03324444690609507,0.0,-0.06083274941912897
55,0.082872,686.157,694.697,-3.14815e-06,1.27907e-33,8.86774e-16,3.90666e-15,0.0336712,0.0336712,-0.0646836,0.0,0.0,0.0,0.054917,0.03424449122747819,0.0,0.0,0.03424449122747819,0.0,-0.06263600156781213
56,0.085292,689.392,697.974,-3.1594e-06,1.22905e-33,5.63793e-16,2.52971e-15,0.0346376,0.0346376,-0.0666039,0.0,0.0,0.0,0.056591,0.03524446821485494,0.0,0.0,0.03524446821485494,0.0,-0.06443429447046278
57,0.087712,692.549,701.173,-3.16884e-06,1.4626e-33,3.51593e-16,4.44608e-15,0.0356031,0.0356031,-0.0685226,0.0,0.0,0.0,0.0582638,0.03624447942664566,0.0,0.0,0.03624447942664566,0.0,-0.06622764339020515
58,0.090132,695.633,704.297,-3.17666e-06,5.60925e-34,2.11889e-16,-5.55242e-15,0.0365676,0.0365676,-0.0704398,0.0,0.0,0.0,0.0599354,0.037244419370573656,0.0,0.0,0.037244419370573656,0.0,-0.0680161567355747
59,0.092552,698.646,707.35,-3.183e-06,7.65576e-34,-2.74156e-15,-7.92082e-16,0.0375313,0.0375313,-0.0723554,0.0,0.0,0.0,0.0616058,0.038244493625901876,0.0,0.0,0.038244493625901876,0.0,-0.06979975610883904
60,0.094972,701.592,710.335,-3.18802e-06,1.4124e-33,-1.83166e-15,1.07718e-14,0.038494,0.038494,-0.0742694,0.0,0.0,0.0,0.063275,0.03924449287232035,0.0,0.0,0.03924449287232035,0.0,-0.07157845661625406
61,0.097392,704.475,713.255,-3.19183e-06,2.85237e-34,4.51161e-15,-1.45846e-15,0.0394557,0.0394557,-0.0761817,0.0,0.0,0.0,0.0649429,0.04024441503662213,0.0,0.0,0.04024441503662213,0.0,-0.07335218064690863
62,0.099812,707.296,716.113,-3.19455e-06,1.23216e-33,8.72513e-15,1.87073e-15,0.0404166,0.0404166,-0.0780925,0.0,0.0,0.0,0.0666096,0.041244466292708726,0.0,0.0,0.041244466292708726,0.0,-0.07512112870892451
63,0.1022,710.059,718.912,-3.19627e-06,2.26156e-34,2.8922e-15,-4.45465e-15,0.0413765,0.0413765,-0.0800017,0.0,0.0,0.0,0.068275,0.042244436714925504,0.0,0.0,0.042244436714925504,0.0,-0.07688522290981914
64,0.1047,712.767,721.655,-3.1971e-06,1.73985e-33,1.89404e-15,5.59432e-15,0.0423355,0.0423355,-0.0819092,0.0,0.0,0.0,0.0699392,0.043244428549180425,0.0,0.0,0.043244428549180425,0.0,-0.07864438601190893
65,0.1071,715.421,724.344,-3.1971e-06,9.96514e-34,-4.54766e-15,-2.02477e-15,0.0432936,0.0432936,-0.0838151,0.0,0.0,0.0,0.071602,0.044244440015168696,0.0,0.0,0.044244440015168696,0.0,-0.08039872534789216
66,0.1095,718.023,726.98,-3.19634e-06,6.77375e-34,-3.06655e-15,-4.18772e-15,0.0442508,0.0442508,-0.0857193,0.0,0.0,0.0,0.0732635,0.04524446933082715,0.0,0.0,0.04524446933082715,0.0,-0.08214816392599578
67,0.1119,720.577,729.567,-3.1949e-06,2.00714e-33,3.71624e-15,2.94344e-15,0.045207,0.045207,-0.0876219,0.0,0.0,0.0,0.0749238,0.046244410087888266,0.0,0.0,0.046244410087888266,0.0,-0.08389280862252568
68,0.1143,723.083,732.106,-3.19283e-06,1.19889e-33,-4.42336e-16,-3.77887e-15,0.0461624,0.0461624,-0.0895229,0.0,0.0,0.0,0.0765827,0.04724446964966855,0.0,0.0,0.04724446964966855,0.0,-0.08563267412721143
69,0.1168,725.544,734.598,-3.19019e-06,1.71988e-33,2.57836e-15,3.61946e-16,0.0471168,0.0471168,-0.0914222,0.0,0.0,0.0,0.0782403,0.048244436879960606,0.0,0.0,0.048244436879960606,0.0,-0.08736768381572668
70,0.1192,727.961,737.047,-3.18701e-06,1.6565e-33,1.69906e-15,2.35972e-16,0.0480703,0.0480703,-0.0933199,0.0,0.0,0.0,0.0798965,0.04924441461414841,0.0,0.0,0.04924441461414841,0.0,-0.08909794388562187
71,0.1216,730.336,739.452,-3.18335e-06,1.25752e-33,-1.8044e-15,-2.71606e-15,0.0490229,0.0490229,-0.0952159,0.0,0.0,0.0,0.0815514,0.05024440106143513,0.0,0.0,0.05024440106143513,0.0,-0.09082337795563156
72,0.124,732.67,741.817,-3.17924e-06,1.21264e-33,-1.24757e-15,-1.80227e-15,0.0499747,0.0499747,-0.0971103,0.0,0.0,0.0,0.083205,0.05124449955373711,0.0,0.0,0.05124449955373711,0.0,-0.09254409177370282
73,0.1264,734.965,744.142,-3.17472e-06,1.56453e-33,-8.72661e-16,1.68024e-15,0.0509255,0.0509255,-0.099003,0.0,0.0,0.0,0.0848572,0.052244498147909324,0.0,0.0,0.052244498147909324,0.0,-0.0942600092004997
74,0.1289,737.223,746.429,-3.16982e-06,1.50785e-33,-6.19927e-16,1.1163e-15,0.0518753,0.0518753,-0.100894,0.0,0.0,0.0,0.086508,0.05324439474797682,0.0,0.0,0.05324439474797682,0.0,-0.09597114513417482
75,0.1313,739.444,748.678,-3.16458e-06,1.4534e-33,-4.49361e-16,7.41211e-16,0.0528243,0.0528243,-0.102783,0.0,0.0,0.0,0.0881575,0.05424439810513504,0.0,0.0,0.05424439810513504,0.0,-0.09767724372357312
76,0.1337,741.629,750.892,-3.15901e-06,1.45753e-33,2.59707e-15,4.91395e-16,0.0537724,0.0537724,-0.104671,0.0,0.0,0.0,0.0898056,0.05524440119553553,0.0,0.0,0.05524440119553553,0.0,-0.09937922191444615
77,0.1361,743.781,753.071,-3.15315e-06,1.40509e-33,1.72706e-15,3.24797e-16,0.0547196,0.0547196,-0.106557,0.0,0.0,0.0,0.0914524,0.05624440221806659,0.0,0.0,0.05624440221806659,0.0,-0.10107619195615658
78,0.1385,745.899,755.217,-3.14701e-06,8.46489e-34,1.1373e-15,-2.68096e-15,0.0556659,0.0556659,-0.108442,0.0,0.0,0.0,0.0930977,0.057244399369914545,0.0,0.0,0.057244399369914545,0.0,-0.10276906729804558
79,0.141,747.986,757.331,-3.14062e-06,1.83393e-33,7.37006e-16,4.0013e-15,0.0566114,0.0566114,-0.110324,0.0,0.0,0.0,0.0947417,0.05824449667101317,0.0,0.0,0.05824449667101317,0.0,-0.10445606794784357
80,0.1434,750.041,759.413,-3.134e-06,2.27571e-33,4.64954e-16,5.57689e-15,0.0575559,0.0575559,-0.112205,0.0,0.0,0.0,0.0963843,0.05924448076626909,0.0,0.0,0.05924448076626909,0.0,-0.10613900278760902
81,0.1458,752.067,761.465,-3.12716e-06,1.68408e-33,2.79812e-16,8.25201e-16,0.0584995,0.0584995,-0.114085,0.0,0.0,0.0,0.0980256,0.06024445557223701,0.0,0.0,0.06024445557223701,0.0,-0.10781788282065119
82,0.1482,754.063,763.487,-3.12013e-06,1.79269e-33,3.10521e-15,5.43257e-16,0.0594422,0.0594422,-0.115963,0.0,0.0,0.0,0.0996654,0.06124441927934421,0.0,0.0,0.06124441927934421,0.0,-0.1094918285097276
83,0.1506,756.032,765.48,-3.11291e-06,2.34864e-33,-8.7648e-16,6.17665e-15,0.0603841,0.0603841,-0.117839,0.0,0.0,0.0,0.101304,0.062244476300782114,0.0,0.0,0.062244476300782114,0.0,-0.11116085580234836
84,0.1531,757.972,767.446,-3.10552e-06,1.18792e-33,2.32017e-15,-1.69014e-15,0.061325,0.061325,-0.119713,0.0,0.0,0.0,0.102941,0.06324441247473667,0.0,0.0,0.06324441247473667,0.0,-0.11282498058663526
85,0.1555,759.887,769.385,-3.09797e-06,1.37002e-33,-1.41647e-15,1.76376e-15,0.0622651,0.0622651,-0.121586,0.0,0.0,0.0,0.104577,0.06424443853550321,0.0,0.0,0.06424443853550321,0.0,-0.11448510420689884
86,0.1579,761.775,771.298,-3.09028e-06,1.31928e-33,-1.00968e-15,1.17219e-15,0.0632043,0.0632043,-0.123457,0.0,0.0,0.0,0.106211,0.06524444644238003,0.0,0.0,0.06524444644238003,0.0,-0.11614035360824326
87,0.1603,763.638,773.185,-3.08246e-06,1.55309e-33,2.23609e-15,7.72971e-16,0.0641426,0.0641426,-0.125326,0.0,0.0,0.0,0.107844,0.06624443437745042,0.0,0.0,0.06624443437745042,0.0,-0.11779074451662219
88,0.1627,765.477,775.048,-3.07451e-06,1.21291e-33,-1.47859e-15,5.03255e-16,0.06508,0.06508,-0.127194,0.0,0.0,0.0,0.109475,0.06724440052114344,0.0,0.0,0.06724440052114344,0.0,-0.11943717316275237
89,0.1652,767.292,776.886,-3.06645e-06,1.16798e-33,-1.05543e-15,3.2082e-16,0.0660166,0.0660166,-0.12906,0.0,0.0,0.0,0.111105,0.06824444987667944,0.0,0.0,0.06824444987667944,0.0,-0.12107877131022804
90,0.1676,769.084,778.701,-3.05828e-06,1.12471e-33,-7.64865e-16,1.97277e-16,0.0669523,0.0669523,-0.130924,0.0,0.0,0.0,0.112734,0.0692444739967506,0.0,0.0,0.0692444739967506,0.0,-0.12271555452463356
91,0.17,770.853,780.493,-3.05002e-06,1.08303e-33,-5.65166e-16,1.13512e-16,0.0678871,0.0678871,-0.132787,0.0,0.0,0.0,0.114361,0.07024447105684795,0.0,0.0,0.07024447105684795,0.0,-0.12434841396571172
92,0.1724,772.6,782.263,-3.04167e-06,4.21331e-34,-6.39209e-15,-2.88256e-15,0.068821,0.068821,-0.134648,0.0,0.0,0.0,0.115987,0.07124443923082846,0.0,0.0,0.07124443923082846,0.0,-0.12597648617625157
93,0.1748,774.326,784.011,-3.03324e-06,2.21737e-33,1.53175e-15,3.90846e-15,0.0697541,0.0697541,-0.136508,0.0,0.0,0.0,0.117612,0.07224448391536265,0.0,0.0,0.07224448391536265,0.0,-0.12760065896302308
94,0.1773,776.032,785.738,-3.02473e-06,2.13791e-33,1.02193e-15,2.63596e-15,0.0706863,0.0706863,-0.138365,0.0,0.0,0.0,0.119235,0.07324449625660368,0.0,0.0,0.07324449625660368,0.0,-0.1292192012576865
95,0.1797,777.716,787.445,-3.01616e-06,1.38271e-33,-2.3207e-15,-1.17775e-15,0.0716176,0.0716176,-0.140222,0.0,0.0,0.0,0.120857,0.07424447442352577,0.0,0.0,0.07424447442352577,0.0,-0.13083474070831225
96,0.1821,779.381,789.131,-3.00752e-06,3.59844e-33,4.34928e-15,5.07619e-15,0.072548,0.072548,-0.142076,0.0,0.0,0.0,0.122477,0.07524441658348935,0.0,0.0,0.07524441658348935,0.0,-0.13244468022395217
97,0.1845,781.027,790.798,-2.99883e-06,2.56568e-33,-2.52925e-17,4.80331e-16,0.0734776,0.0734776,-0.143929,0.0,0.0,0.0,0.124096,0.07624442852668256,0.0,0.0,0.07624442852668256,0.0,-0.13405077172816104
98,0.1869,782.654,792.445,-2.99008e-06,1.96617e-33,-5.51781e-17,-2.65631e-15,0.0744063,0.0744063,-0.14578,0.0,0.0,0.0,0.125713,0.07724440099279839,0.0,0.0,0.07724440099279839,0.0,-0.13565216120650647
99,0.1894,784.262,794.074,-2.98129e-06,1.89753e-33,-7.59602e-17,-1.84023e-15,0.0753342,0.0753342,-0.147629,0.0,0.0,0.0,0.127329,0.07824443996881003,0.0,0.0,0.07824443996881003,0.0,-0.1372488637540299
100,0.1918,785.852,795.685,-2.97245e-06,2.85028e-33,-9.04471e-17,4.64093e-15,0.0762612,0.0762612,-0.149477,0.0,0.0,0.0,0.128944,0.07924443599120679,0.0,0.0,0.07924443599120679,0.0,-0.13884175556845169
101,0.1942,787.425,797.278,-2.96358e-06,1.9578e-33,-3.10739e-15,1.83495e-16,0.0771874,0.0771874,-0.151324,0.0,0.0,0.0,0.130557,0.08024449524377042,0.0,0.0,0.08024449524377042,0.0,-0.14043084686834795
102,0.1966,788.981,798.854,-2.95467e-06,3.53224e-33,8.15234e-16,6.03111e-15,0.0781126,0.0781126,-0.153168,0.0,0.0,0.0,0.132169,0.08124439993535426,0.0,0.0,0.08124439993535426,0.0,-0.14201443187262197
103,0.199,790.519,800.412,-2.94573e-06,2.38958e-33,5.30848e-16,-1.83823e-15,0.0790371,0.0790371,-0.155011,0.0,0.0,0.0,0.13378,0.0822444725954512,0.0,0.0,0.0822444725954512,0.0,-0.1435942430315259
104,0.2015,792.042,801.954,-2.93676e-06,2.7587e-33,-2.68169e-15,7.62286e-15,0.0799607,0.0799607,-0.156852,0.0,0.0,0.0,0.135389,0.08324449532975087,0.0,0.0,0.08324449532975087,0.0,-0.14516943562042928
105,0.2039,793.548,803.479,-2.92777e-06,1.07596e-33,-1.90233e-15,-6.70292e-15,0.0808834,0.0808834,-0.158692,0.0,0.0,0.0,0.136997,0.08424446629124893,0.0,0.0,0.08424446629124893,0.0,-0.1467408776888286
106,0.2063,795.039,804.989,-2.91875e-06,2.2277e-33,-1.35907e-15,4.29125e-15,0.0818053,0.0818053,-0.16053,0.0,0.0,0.0,0.138603,0.0852444921558182,0.0,0.0,0.0852444921558182,0.0,-0.14830772757948685
107,0.2087,796.514,806.483,-2.90972e-06,1.35679e-33,-4.00214e-15,-6.48537e-17,0.0827263,0.0827263,-0.162366,0.0,0.0,0.0,0.140208,0.08624446274886743,0.0,0.0,0.08624446274886743,0.0,-0.14986999998672634
108,0.2111,797.974,807.962,-2.90068e-06,1.30912e-33,2.01379e-16,-3.06418e-15,0.0836465,0.0836465,-0.164201,0.0,0.0,0.0,0.141811,0.08724448494313486,0.0,0.0,0.08724448494313486,0.0,-0.15142855812232658
109,0.2136,799.419,809.426,-2.89162e-06,1.03617e-33,-2.91508e-15,8.38647e-16,0.0845658,0.0845658,-0.166034,0.0,0.0,0.0,0.143413,0.08824444836090461,0.0,0.0,0.08824444836090461,0.0,-0.15298256489297557
110,0.216,800.85,810.875,-2.88255e-06,7.16052e-34,-2.06525e-15,-2.44436e-15,0.0854843,0.0854843,-0.167865,0.0,0.0,0.0,0.145014,0.08924446007179787,0.0,0.0,0.08924446007179787,0.0,-0.15453203484402533
111,0.2184,802.267,812.31,-2.87347e-06,1.59731e-33,1.56136e-15,1.26908e-15,0.0864019,0.0864019,-0.169695,0.0,0.0,0.0,0.146613,0.09024440949499302,0.0,0.0,0.09024440949499302,0.0,-0.15607782638960488
112,0.2208,803.67,813.731,-2.86439e-06,8.61592e-34,-1.96665e-15,-2.15012e-15,0.0873187,0.0873187,-0.171523,0.0,0.0,0.0,0.148211,0.09124440389700861,0.0,0.0,0.09124440389700861,0.0,-0.15761910696332704
113,0.2232,805.059,815.138,-2.8553e-06,1.11475e-33,-1.40334e-15,1.47516e-15,0.0882347,0.0882347,-0.17335,0.0,0.0,0.0,0.149808,0.09224444171837654,0.0,0.0,0.09224444171837654,0.0,-0.1591567318069036
114,0.2257,806.435,816.532,-2.84621e-06,1.07578e-33,-1.00811e-15,9.86386e-16,0.0891498,0.0891498,-0.175175,0.0,0.0,0.0,0.151403,0.09324441207364731,0.0,0.0,0.09324441207364731,0.0,-0.16068987135599144
115,0.2281,807.798,817.912,-2.83712e-06,1.03813e-33,-7.306e-16,6.47824e-16,0.0900641,0.0900641,-0.176998,0.0,0.0,0.0,0.152997,0.09424442252472098,0.0,0.0,0.09424442252472098,0.0,-0.16221853991576152
116,0.2305,809.148,819.28,-2.82803e-06,1.00176e-33,-5.35613e-16,4.13105e-16,0.0909776,0.0909776,-0.17882,0.0,0.0,0.0,0.154589,0.0952444715075269,0.0,0.0,0.0952444715075269,0.0,-0.16374358799534472
117,0.2329,810.486,820.635,-2.81895e-06,9.66625e-34,-3.98513e-16,2.50233e-16,0.0918902,0.0918902,-0.18064,0.0,0.0,0.0,0.15618,0.09624444783201991,0.0,0.0,0.09624444783201991,0.0,-0.16526419049717955
118,0.2353,811.811,821.977,-2.80987e-06,9.32675e-34,-3.02051e-16,1.37109e-16,0.092802,0.092802,-0.182458,0.0,0.0,0.0,0.15777,0.09724445935552417,0.0,0.0,0.09724445935552417,0.0,-0.16678036158174536
119,0.2378,813.125,823.307,-2.80079e-06,1.46689e-33,-2.3414e-16,6.07542e-15,0.0937129,0.0937129,-0.184275,0.0,0.0,0.0,0.159358,0.09824439468495627,0.0,0.0,0.09824439468495627,0.0,-0.16829294706469144
120,0.2402,814.426,824.625,-2.79173e-06,8.48787e-34,-1.86303e-16,-1.84053e-15,0.0946231,0.0946231,-0.18609,0.0,0.0,0.0,0.160945,0.09924447179904927,0.0,0.0,0.09924447179904927,0.0,-0.16980112627910848
121,0.242,815.402,825.613,-1.18062e-06,8.25907e-34,-1.58852e-16,-1.41631e-15,0.0953102,0.0953102,-0.187461,0.0,0.0,0.0,0.162143,0.10000002221524285,0.0,0.0,0.10000002221524285,0.0,-0.1709385490535058
