,Time,S11,S22,S33,S12,S13,S23,LE11,LE22,LE33,LE12,LE13,LE23,SDV_EPBAR,E11,E12,E13,E22,E23,E33
0,2.42e-07,0.029678,0.029678,1.04083e-17,0.0,0.0,0.0,1e-07,1e-07,-8.57143e-08,0.0,0.0,0.0,0.0,1.0000000494336803e-07,0.0,0.0,1.0000000494336803e-07,0.0,-8.571429632731054e-08
1,4.84e-07,0.059356,0.059356,3.46945e-18,0.0,0.0,0.0,2e-07,2e-07,-1.71429e-07,0.0,0.0,0.0,0.0,2.0000002010078788e-07,0.0,0.0,2.0000002010078788e-07,0.0,-1.7142898534050488e-07
2,8.47e-07,0.103873,0.103873,3.46945e-18,0.0,0.0,0.0,3.5e-07,3.5e-07,-3e-07,0.0,0.0,0.0,0.0,3.5000006115559756e-07,0.0,0.0,3.5000006115559756e-07,0.0,-2.9999995498908305e-07
3,1.3915e-06,0.170648,0.170648,-1.73472e-17,0.0,0.0,0.0,5.75e-07,5.75e-07,-4.92857e-07,0.0,0.0,0.0,0.0,5.750001652593539e-07,0.0,0.0,5.750001652593539e-07,0.0,-4.928568785311782e-07
4,2.2083e-06,0.270812,0.270812,-3.46945e-18,0.0,0.0,0.0,9.125e-07,9.125e-07,-7.82142e-07,0.0,0.0,0.0,0.0,9.125004163390571e-07,0.0,0.0,9.125004163390571e-07,0.0,-7.821416940778647e-07
5,3.4334e-06,0.421056,0.421056,5.20417e-17,0.0,0.0,0.0,1.41875e-06,1.41875e-06,-1.21607e-06,0.0,0.0,0.0,0.0,1.4187510064544995e-06,0.0,0.0,1.4187510064544995e-06,0.0,-1.2160692606233425e-06
6,5.2711e-06,0.646423,0.646423,2.42861e-17,0.0,0.0,0.0,2.17812e-06,2.17812e-06,-1.86696e-06,0.0,0.0,0.0,0.0,2.178122372020752e-06,0.0,0.0,2.178122372020752e-06,0.0,-1.8669582572128363e-06
7,8.0276e-06,0.984473,0.984473,1.35308e-16,0.0,0.0,0.0,3.31718e-06,3.31718e-06,-2.8433e-06,0.0,0.0,0.0,0.0,3.317185501838793e-06,0.0,0.0,3.317185501838793e-06,0.0,-2.8432959577884276e-06
8,1.2162e-05,1.49155,1.49155,4.68375e-16,0.0,0.0,0.0,5.02577e-06,5.02577e-06,-4.3078e-06,0.0,0.0,0.0,0.0,5.025782629175524e-06,0.0,0.0,5.025782629175524e-06,0.0,-4.307790721469473e-06
9,1.8365e-05,2.25216,2.25216,3.57353e-16,0.0,0.0,0.0,7.58864e-06,7.58864e-06,-6.50455e-06,0.0,0.0,0.0,0.0,7.5886687938009345e-06,0.0,0.0,7.5886687938009345e-06,0.0,-6.50452884543018e-06
10,2.7668e-05,3.39307,3.39307,-3.08781e-16,0.0,0.0,0.0,1.14329e-05,1.14329e-05,-9.79967e-06,0.0,0.0,0.0,0.0,1.1432965355773206e-05,0.0,0.0,1.1432965355773206e-05,0.0,-9.799621983441753e-06
11,4.1623e-05,5.10443,5.10443,-7.5287e-16,0.0,0.0,-1.23207e-38,1.71994e-05,1.71994e-05,-1.47423e-05,0.0,0.0,0.0,0.0,1.7199547910573543e-05,0.0,0.0,1.7199547910573543e-05,0.0,-1.4742191332794974e-05
12,6.2555e-05,7.67145,7.67145,-1.64105e-15,0.0,0.0,-2.77213e-38,2.58489e-05,2.58489e-05,-2.21562e-05,0.0,0.0,0.0,0.0,2.5849234085661976e-05,0.0,0.0,2.5849234085661976e-05,0.0,-2.2155954553237933e-05
13,9.3954e-05,11.5219,11.5219,-8.30239e-15,0.0,0.0,-6.23724e-38,3.88231e-05,3.88231e-05,-3.3277e-05,0.0,0.0,0.0,0.0,3.882385362641294e-05,0.0,0.0,3.882385362641294e-05,0.0,-3.327644632677984e-05
14,0.00014105,17.2976,17.2976,-4.47177e-14,0.0,0.0,-1.40336e-37,5.82842e-05,5.82842e-05,-4.99578e-05,0.0,0.0,0.0,0.0,5.828589855694233e-05,0.0,0.0,5.828589855694233e-05,0.0,-4.995655212991501e-05
15,0.0002117,25.9608,25.9608,-2.25018e-13,0.0,0.0,-3.1575e-37,8.7475e-05,8.7475e-05,-7.49785e-05,0.0,0.0,0.0,0.0,8.747882604942525e-05,0.0,0.0,8.747882604942525e-05,0.0,-7.4975689182466e-05
16,0.00031767,38.9552,38.9552,-1.14339e-12,0.0,0.0,-7.10416e-37,0.00013126,0.00013126,-0.000112508,0.0,0.0,0.0,0.0,0.0001312686149708142,0.0,0.0,0.0001312686149708142,0.0,-0.00011250167121223953
17,0.00047662,58.4457,58.4457,-5.85252e-12,0.0,0.0,-1.59836e-36,0.000196933,0.000196933,-0.0001688,0.0,0.0,0.0,0.0,0.00019695239257622177,0.0,0.0,0.00019695239257622177,0.0,-0.00016878575408152408
18,0.00071506,87.6791,87.6791,-2.95989e-11,0.0,0.0,-3.59607e-36,0.000295435,0.000295435,-0.00025323,0.0,0.0,0.0,0.0,0.00029547864521761724,0.0,0.0,0.00029547864521761724,0.0,-0.00025319793998968
19,0.0010727,131.524,131.524,-1.49709e-10,0.0,0.0,-8.09034e-36,0.000443169,0.000443169,-0.000379859,0.0,0.0,0.0,0.0,0.0004432672138892091,0.0,0.0,0.0004432672138892091,0.0,-0.0003797868627043455
20,0.0016092,197.279,197.279,-7.57628e-10,0.0,0.0,-1.82005e-35,0.00066473,0.00066473,-0.000569769,0.0,0.0,0.0,0.0,0.0006649509819482979,0.0,0.0,0.0006649509819482979,0.0,-0.0005696067124669746
21,0.0024139,295.884,295.884,-3.83263e-09,0.0,0.0,-4.09417e-35,0.00099698,0.00099698,-0.000854554,0.0,0.0,0.0,0.0,0.0009974771497625046,0.0,0.0,0.0009974771497625046,0.0,-0.0008541889727163854
22,0.003621,414.63,414.238,0.00700336,0.0,0.0,1.87365e-32,0.00149515,0.00149515,-0.00139436,0.0,0.0,0.0,0.000170599,0.0014962682940309335,0.0,0.0,0.0014962682940309335,0.0,-0.0013933883317661655
23,0.0054316,439.771,437.61,0.104188,0.0,2.78083e-15,6.60666e-32,0.00224193,0.00224193,-0.00279433,0.0,0.0,0.0,0.0013201,0.0022444450041991804,0.0,0.0,0.0022444450041991804,0.0,-0.002790429493871871
24,0.0078516,465.373,461.689,7.00377e-05,-1.11449e-34,-9.01466e-16,2.46213e-15,0.0032392,0.0032392,-0.0046934,0.0,0.0,0.0,0.00289855,0.003244451877416177,0.0,0.0,0.003244451877416177,0.0,-0.00468240320905966
25,0.010272,485.727,481.034,9.37653e-06,-4.40338e-34,2.00708e-15,-3.56499e-15,0.00423547,0.00423547,-0.0066095,0.0,0.0,0.0,0.00450462,0.004244452279975608,0.0,0.0,0.004244452279975608,0.0,-0.0065877052986703655
26,0.012692,502.636,497.252,1.21476e-06,-4.18951e-34,-1.37803e-15,4.45863e-16,0.00523074,0.00523074,-0.00853628,0.0,0.0,0.0,0.00612812,0.0052444442044314865,0.0,0.0,0.0052444442044314865,0.0,-0.008499949411401753
27,0.015112,517.142,511.266,3.03364e-07,-3.98997e-34,-8.23905e-16,2.61612e-16,0.00622503,0.00622503,-0.0104699,0.0,0.0,0.0,0.00776333,0.006244445766251383,0.0,0.0,0.006244445766251383,0.0,-0.010415281380352748
28,0.017532,529.873,523.634,1.15092e-07,-3.80331e-34,-4.96374e-16,1.5471e-16,0.00721833,0.00721833,-0.0124082,0.0,0.0,0.0,0.00940679,0.007244444941601369,0.0,0.0,0.007244444941601369,0.0,-0.012331535702628238
29,0.019952,541.24,534.722,-1.26196e-07,-3.62829e-34,-3.01118e-16,9.21425e-17,0.00821065,0.00821065,-0.0143496,0.0,0.0,0.0,0.0110563,0.008244449829572176,0.0,0.0,0.008244449829572176,0.0,-0.014247135185134319
30,0.022372,551.524,544.784,-4.33073e-07,-1.01791e-33,2.45263e-15,-7.71136e-15,0.00920198,0.00920198,-0.0162931,0.0,0.0,0.0,0.0127102,0.009244448382409898,0.0,0.0,0.009244448382409898,0.0,-0.016161085394339803
31,0.024792,560.927,554.003,-7.56248e-07,-6.35942e-34,1.49806e-15,3.18575e-15,0.0101923,0.0101923,-0.0182379,0.0,0.0,0.0,0.0143674,0.010244418407964417,0.0,0.0,0.010244418407964417,0.0,-0.018072595960106907
32,0.027212,569.598,562.518,-1.06484e-06,-1.16837e-33,-7.08044e-15,4.54997e-15,0.0111817,0.0111817,-0.0201836,0.0,0.0,0.0,0.0160271,0.011244448869027979,0.0,0.0,0.011244448869027979,0.0,-0.01998127464993593
33,0.029632,577.65,570.434,-1.34528e-06,-1.00518e-33,-1.69724e-15,1.33119e-16,0.0121701,0.0121701,-0.0221296,0.0,0.0,0.0,0.0176887,0.012244457004898734,0.0,0.0,0.012244457004898734,0.0,-0.021886536668267786
34,0.032052,585.172,577.834,-1.59367e-06,-9.61892e-34,-1.04968e-15,8.1501e-17,0.0131575,0.0131575,-0.0240757,0.0,0.0,0.0,0.0193516,0.013244440792496093,0.0,0.0,0.013244440792496093,0.0,-0.023788192273092146
35,0.034472,592.234,584.786,-1.81077e-06,-1.03299e-33,-6.48945e-16,2.70595e-15,0.0141439,0.0141439,-0.0260216,0.0,0.0,0.0,0.0210155,0.014244398206812336,0.0,0.0,0.014244398206812336,0.0,-0.025685955801894922
36,0.036892,598.893,591.344,-1.9993e-06,-1.10123e-33,-3.99771e-16,4.32992e-15,0.0151294,0.0151294,-0.0279671,0.0,0.0,0.0,0.02268,0.015244428745356142,0.0,0.0,0.015244428745356142,0.0,-0.027579641095218044
37,0.039312,605.196,597.554,-2.16257e-06,-9.42422e-34,-2.44137e-16,-8.85066e-18,0.0161139,0.0161139,-0.029912,0.0,0.0,0.0,0.024345,0.016244429054838472,0.0,0.0,0.016244429054838472,0.0,-0.029469063486864067
38,0.041732,611.181,603.452,-2.30388e-06,-7.9089e-34,-1.46506e-16,-2.70058e-15,0.0170975,0.0170975,-0.0318562,0.0,0.0,0.0,0.02601,0.017244498828943522,0.0,0.0,0.017244498828943522,0.0,-0.031354136660216914
39,0.044152,616.881,609.07,-2.42625e-06,9.27457e-34,-5.57106e-15,-9.77601e-15,0.01808,0.01808,-0.0337996,0.0,0.0,0.0,0.0276751,0.01824443268611331,0.0,0.0,0.01824443268611331,0.0,-0.03323477502283423
40,0.046572,622.324,614.435,-2.53235e-06,2.12968e-34,-3.5256e-15,-6.89307e-16,0.0190616,0.0190616,-0.0357419,0.0,0.0,0.0,0.0293399,0.019244432140675505,0.0,0.0,0.019244432140675505,0.0,-0.03511070072431366
41,0.048992,627.534,619.571,-2.62449e-06,-2.09632e-35,5.31281e-16,2.28896e-15,0.0200423,0.0200423,-0.0376833,0.0,0.0,0.0,0.0310045,0.02024449545617002,0.0,0.0,0.02024449545617002,0.0,-0.03698211963580322
42,0.051412,632.531,624.498,-2.70462e-06,4.29725e-34,-2.41178e-15,-1.27958e-15,0.0210219,0.0210219,-0.0396236,0.0,0.0,0.0,0.0326686,0.02124441664535559,0.0,0.0,0.02124441664535559,0.0,-0.03884885163337615
43,0.053832,637.332,629.233,-2.7744e-06,7.44298e-35,-1.52604e-15,1.92943e-15,0.0220006,0.0220006,-0.0415626,0.0,0.0,0.0,0.0343322,0.022244397816892914,0.0,0.0,0.022244397816892914,0.0,-0.040710718047229255
44,0.056252,641.955,633.791,-2.83525e-06,1.19665e-33,-3.74318e-15,-4.25283e-15,0.0229784,0.0229784,-0.0435005,0.0,0.0,0.0,0.0359951,0.02324443722866909,0.0,0.0,0.02324443722866909,0.0,-0.04256792462519032
45,0.058672,646.412,638.187,-2.88835e-06,2.17062e-35,-5.17767e-15,2.80339e-15,0.0239552,0.0239552,-0.045437,0.0,0.0,0.0,0.0376574,0.024244430712260456,0.0,0.0,0.024244430712260456,0.0,-0.04442019779681494
46,0.061092,650.716,642.431,-2.93472e-06,2.08624e-35,-5.15536e-16,1.78661e-15,0.0249311,0.0249311,-0.0473723,0.0,0.0,0.0,0.0393189,0.02524447874626201,0.0,0.0,0.02524447874626201,0.0,-0.04626774303422232
47,0.063512,654.878,646.535,-2.97522e-06,-6.55534e-34,-3.10703e-15,3.90075e-15,0.025906,0.025906,-0.0493062,0.0,0.0,0.0,0.0409796,0.026244476958517948,0.0,0.0,0.026244476958517948,0.0,-0.048110383530455825
48,0.065932,658.907,650.509,-3.01058e-06,1.58614e-34,8.29883e-16,-3.04181e-15,0.0268799,0.0268799,-0.0512387,0.0,0.0,0.0,0.0426394,0.02724442329946286,0.0,0.0,0.02724442329946286,0.0,-0.04994813391604125
49,0.068352,662.812,654.361,-3.04141e-06,1.51253e-34,5.74274e-16,-1.94449e-15,0.0278529,0.0278529,-0.0531697,0.0,0.0,0.0,0.0442983,0.028244418542125116,0.0,0.0,0.028244418542125116,0.0,-0.05178091395082607
50,0.070772,666.601,658.098,-3.06828e-06,-4.19259e-34,-2.41561e-15,1.53569e-15,0.028825,0.028825,-0.0550994,0.0,0.0,0.0,0.0459563,0.02924446093324229,0.0,0.0,0.02924446093324229,0.0,-0.05360892799457062
51,0.073192,670.281,661.728,-3.09162e-06,-6.5825e-35,1.28829e-15,-1.79451e-15,0.0297961,0.0297961,-0.0570275,0.0,0.0,0.0,0.0476132,0.030244445693269784,0.0,0.0,0.030244445693269784,0.0,-0.055431906613212845
52,0.075612,673.859,665.257,-3.11185e-06,4.80115e-35,-1.95693e-15,-1.15135e-15,0.0307663,0.0307663,-0.0589542,0.0,0.0,0.0,0.0492691,0.03124447388971663,0.0,0.0,0.03124447388971663,0.0,-0.05725005388412807
53,0.078032,677.34,668.691,-3.12931e-06,4.45869e-35,-1.2462e-15,-7.37308e-16,0.0317355,0.0317355,-0.0608793,0.0,0.0,0.0,0.0509239,0.032244440539372476,0.0,0.0,0.032244440539372476,0.0,-0.05906319600548671
54,0.080452,680.73,672.035,-3.14429e-06,6.04942e-34,-7.8016e-16,-3.27202e-15,0.0327038,0.0327038,-0.062803,0.0,0.0,0.0,0.0525776,0.03324444690609507,0.0,0.0,0.03324444690609507,0.0,-0.0608715362256248
55,0.082872,684.034,675.294,-3.15707e-06,-3.21983e-34,2.37836e-15,3.50406e-15,0.0336712,0.0336712,-0.064725,0.0,0.0,0.0,0.0542302,0.03424449122747819,0.0,0.0,0.03424449122747819,0.0,-0.06267480763405597
56,0.085292,687.257,678.473,-3.16787e-06,1.40268e-34,4.46411e-15,-3.34327e-15,0.0346376,0.0346376,-0.0666456,0.0,0.0,0.0,0.0558817,0.03524446821485494,0.0,0.0,0.03524446821485494,0.0,-0.06447330674697171
57,0.087712,690.402,681.576,-3.1769e-06,3.58785e-34,1.21006e-16,-2.16486e-15,0.0356031,0.0356031,-0.0685645,0.0,0.0,0.0,0.057532,0.03624447942664566,0.0,0.0,0.03624447942664566,0.0,-0.06626676763228856
58,0.090132,693.474,684.606,-3.18432e-06,-1.08445e-34,-2.75406e-15,1.42422e-15,0.0365676,0.0365676,-0.0704819,0.0,0.0,0.0,0.0591811,0.037244419370573656,0.0,0.0,0.037244419370573656,0.0,-0.0680553924294589
59,0.092552,696.475,687.567,-3.1903e-06,-1.06157e-34,-1.79015e-15,9.40622e-16,0.0375313,0.0375313,-0.0723977,0.0,0.0,0.0,0.060829,0.038244493625901876,0.0,0.0,0.038244493625901876,0.0,-0.06983910274696825
60,0.094972,699.41,690.463,-3.19498e-06,4.59675e-34,1.72616e-15,-5.04007e-15,0.038494,0.038494,-0.0743118,0.0,0.0,0.0,0.0624757,0.03924449287232035,0.0,0.0,0.03924449287232035,0.0,-0.07161782085516577
61,0.097392,702.282,693.296,-3.19848e-06,1.00358e-34,-1.69685e-15,-4.49108e-16,0.0394557,0.0394557,-0.0762244,0.0,0.0,0.0,0.0641212,0.04024441503662213,0.0,0.0,0.04024441503662213,0.0,-0.07339174766403322
62,0.099812,705.093,696.069,-3.20091e-06,6.58023e-34,-1.09242e-15,-3.12106e-15,0.0404166,0.0404166,-0.0781353,0.0,0.0,0.0,0.0657654,0.041244466292708726,0.0,0.0,0.041244466292708726,0.0,-0.0751607126775129
63,0.1022,707.845,698.784,-3.20236e-06,-6.12927e-34,-3.58046e-15,3.66057e-15,0.0413765,0.0413765,-0.0800447,0.0,0.0,0.0,0.0674084,0.042244436714925504,0.0,0.0,0.042244436714925504,0.0,-0.0769249159918266
64,0.1047,710.542,701.445,-3.20293e-06,-1.04433e-33,3.44032e-15,5.27532e-15,0.0423355,0.0423355,-0.0819524,0.0,0.0,0.0,0.06905,0.043244428549180425,0.0,0.0,0.043244428549180425,0.0,-0.0786841877147102
65,0.1071,713.186,704.054,-3.20269e-06,-2.81618e-33,-3.45617e-15,9.19789e-15,0.0432936,0.0432936,-0.0838584,0.0,0.0,0.0,0.0706905,0.044244440015168696,0.0,0.0,0.044244440015168696,0.0,-0.0804385432210214
66,0.1095,715.779,706.612,-3.20171e-06,-1.35804e-33,-2.27359e-15,3.54117e-16,0.0442508,0.0442508,-0.0857629,0.0,0.0,0.0,0.0723296,0.04524446933082715,0.0,0.0,0.04524446933082715,0.0,-0.08218818139366135
67,0.1119,718.323,709.122,-3.20005e-06,-3.57178e-33,-7.29644e-15,5.96225e-15,0.045207,0.045207,-0.0876656,0.0,0.0,0.0,0.0739674,0.046244410087888266,0.0,0.0,0.046244410087888266,0.0,-0.08393284163206127
68,0.1143,720.82,711.585,-3.19778e-06,-1.6345e-33,-4.85248e-15,-1.79328e-15,0.0461624,0.0461624,-0.0895668,0.0,0.0,0.0,0.0756039,0.04724446964966855,0.0,0.0,0.04724446964966855,0.0,-0.0856728139717412
69,0.1168,723.271,714.004,-3.19495e-06,-1.57798e-33,-2.93293e-16,-1.19239e-15,0.0471168,0.0471168,-0.0914663,0.0,0.0,0.0,0.0772391,0.048244436879960606,0.0,0.0,0.048244436879960606,0.0,-0.08740793001343528
70,0.1192,725.68,716.38,-3.1916e-06,-7.32365e-34,-1.39827e-16,-3.66982e-15,0.0480703,0.0480703,-0.0933641,0.0,0.0,0.0,0.078873,0.04924441461414841,0.0,0.0,0.04924441461414841,0.0,-0.08913820486672785
71,0.1216,728.046,718.714,-3.18777e-06,-2.63209e-33,-2.95988e-15,3.32097e-15,0.0490229,0.0490229,-0.0952603,0.0,0.0,0.0,0.0805055,0.05024440106143513,0.0,0.0,0.05024440106143513,0.0,-0.09086374450150625
72,0.124,730.371,721.009,-3.1835e-06,-3.44414e-33,-1.93931e-15,5.09261e-15,0.0499747,0.0499747,-0.0971548,0.0,0.0,0.0,0.0821368,0.05124449955373711,0.0,0.0,0.05124449955373711,0.0,-0.09258447266313741
73,0.1264,732.658,723.265,-3.17883e-06,-3.09556e-33,1.68197e-15,3.388e-15,0.0509255,0.0509255,-0.0990477,0.0,0.0,0.0,0.0837666,0.052244498147909324,0.0,0.0,0.052244498147909324,0.0,-0.09430049487322678
74,0.1289,734.907,725.484,-3.17379e-06,-2.19371e-33,-4.66833e-15,-6.39801e-16,0.0518753,0.0518753,-0.100939,0.0,0.0,0.0,0.0853952,0.05324439474797682,0.0,0.0,0.05324439474797682,0.0,-0.09601182551732823
75,0.1313,737.12,727.667,-3.16841e-06,-1.89045e-33,2.77626e-15,-4.37048e-16,0.0528243,0.0528243,-0.102828,0.0,0.0,0.0,0.0870224,0.05424439810513504,0.0,0.0,0.05424439810513504,0.0,-0.09771784733401745
76,0.1337,739.297,729.816,-3.16272e-06,-4.54101e-33,-3.93447e-15,5.49535e-15,0.0537724,0.0537724,-0.104716,0.0,0.0,0.0,0.0886482,0.05524440119553553,0.0,0.0,0.05524440119553553,0.0,-0.09941974893759498
77,0.1361,741.441,731.931,-3.15673e-06,-4.38e-33,-2.60782e-15,3.66746e-15,0.0547196,0.0547196,-0.106602,0.0,0.0,0.0,0.0902727,0.05624440221806659,0.0,0.0,0.05624440221806659,0.0,-0.10111664261737197
78,0.1385,743.551,734.013,-3.15048e-06,-1.1696e-33,-1.70516e-15,-6.27421e-15,0.0556659,0.0556659,-0.108487,0.0,0.0,0.0,0.0918958,0.057244399369914545,0.0,0.0,0.057244399369914545,0.0,-0.10280944178158435
79,0.141,745.63,736.065,-3.14398e-06,-1.69587e-33,4.81462e-15,-1.31663e-15,0.0566114,0.0566114,-0.11037,0.0,0.0,0.0,0.0935176,0.05824449667101317,0.0,0.0,0.05824449667101317,0.0,-0.10449726202124698
80,0.1434,747.678,738.086,-3.13725e-06,-2.76953e-33,3.97602e-16,2.01635e-15,0.0575559,0.0575559,-0.112251,0.0,0.0,0.0,0.095138,0.05924448076626909,0.0,0.0,0.05924448076626909,0.0,-0.10618011944779038
81,0.1458,749.697,740.077,-3.13032e-06,-1.76686e-33,-2.61965e-15,-1.57111e-15,0.0584995,0.0584995,-0.114131,0.0,0.0,0.0,0.096757,0.06024445557223701,0.0,0.0,0.06024445557223701,0.0,-0.1078589222541273
82,0.1482,751.686,742.04,-3.12319e-06,-3.17688e-33,1.24109e-15,4.76807e-15,0.0594422,0.0594422,-0.116008,0.0,0.0,0.0,0.0983747,0.06124441927934421,0.0,0.0,0.06124441927934421,0.0,-0.10953190047581862
83,0.1506,753.647,743.975,-3.11588e-06,-2.15899e-33,9.1915e-16,2.78848e-16,0.0603841,0.0603841,-0.117885,0.0,0.0,0.0,0.0999909,0.062244476300782114,0.0,0.0,0.062244476300782114,0.0,-0.11120174146260398
84,0.1531,755.581,745.883,-3.1084e-06,-1.17724e-33,6.98799e-16,-2.75321e-15,0.061325,0.061325,-0.119759,0.0,0.0,0.0,0.101606,0.06324441247473667,0.0,0.0,0.06324441247473667,0.0,-0.11286578969891137
85,0.1555,757.488,747.765,-3.10077e-06,-1.16649e-34,-2.42399e-15,-4.80384e-15,0.0622651,0.0622651,-0.121632,0.0,0.0,0.0,0.103219,0.06424443853550321,0.0,0.0,0.06424443853550321,0.0,-0.11452583695524476
86,0.1579,759.369,749.621,-3.093e-06,-1.12853e-34,1.38088e-15,-3.26077e-15,0.0632043,0.0632043,-0.123503,0.0,0.0,0.0,0.104832,0.06524444644238003,0.0,0.0,0.06524444644238003,0.0,-0.11618101021686811
87,0.1603,761.226,751.453,-3.0851e-06,-1.01542e-33,1.01914e-15,7.19307e-16,0.0641426,0.0641426,-0.125373,0.0,0.0,0.0,0.106442,0.06624443437745042,0.0,0.0,0.06624443437745042,0.0,-0.11783220737724498
88,0.1627,763.058,753.261,-3.07708e-06,1.17313e-33,-2.21058e-15,-5.39515e-15,0.06508,0.06508,-0.127241,0.0,0.0,0.0,0.108052,0.06724440052114344,0.0,0.0,0.06724440052114344,0.0,-0.11947855864304724
89,0.1652,764.866,755.045,-3.06895e-06,-2.49421e-33,-4.4357e-15,5.15799e-15,0.0660166,0.0660166,-0.129107,0.0,0.0,0.0,0.10966,0.06824444987667944,0.0,0.0,0.06824444987667944,0.0,-0.12112007963722315
90,0.1676,766.652,756.807,-3.06072e-06,-2.4077e-33,-2.98353e-15,3.49918e-15,0.0669523,0.0669523,-0.130971,0.0,0.0,0.0,0.111266,0.0692444739967506,0.0,0.0,0.0692444739967506,0.0,-0.12275678592462558
91,0.17,768.415,758.547,-3.05239e-06,-1.19095e-33,-1.98131e-15,-5.7616e-16,0.0678871,0.0678871,-0.132834,0.0,0.0,0.0,0.112872,0.07024447105684795,0.0,0.0,0.07024447105684795,0.0,-0.12438956862311323
92,0.1724,770.156,760.265,-3.04398e-06,-1.14973e-33,-1.2889e-15,-4.01767e-16,0.068821,0.068821,-0.134695,0.0,0.0,0.0,0.114476,0.07124443923082846,0.0,0.0,0.07124443923082846,0.0,-0.12601756431605737
93,0.1748,771.876,761.962,-3.03549e-06,-2.24345e-33,-8.09989e-16,2.66998e-15,0.0697541,0.0697541,-0.136555,0.0,0.0,0.0,0.116078,0.07224448391536265,0.0,0.0,0.07224448391536265,0.0,-0.1276416607685018
94,0.1773,773.575,763.638,-3.02693e-06,-1.03227e-33,-4.7838e-16,-1.14526e-15,0.0706863,0.0706863,-0.138413,0.0,0.0,0.0,0.117679,0.07324449625660368,0.0,0.0,0.07324449625660368,0.0,-0.12926099773290278
95,0.1797,775.253,765.295,-3.0183e-06,-9.96422e-34,-2.48492e-16,-7.92716e-16,0.0716176,0.0716176,-0.140269,0.0,0.0,0.0,0.119279,0.07424447442352577,0.0,0.0,0.07424447442352577,0.0,-0.130875590515521
96,0.1821,776.912,766.932,-3.00961e-06,-9.61805e-34,-8.89195e-17,-5.51757e-16,0.072548,0.072548,-0.142124,0.0,0.0,0.0,0.120877,0.07524441658348935,0.0,0.0,0.07524441658348935,0.0,-0.13248632187989373
97,0.1845,778.552,768.55,-3.00086e-06,-9.28371e-34,2.19993e-17,-3.86909e-16,0.0734776,0.0734776,-0.143976,0.0,0.0,0.0,0.122474,0.07624442852668256,0.0,0.0,0.07624442852668256,0.0,-0.13409147038546365
98,0.1869,780.173,770.15,-2.99207e-06,-8.96075e-34,9.92207e-17,-2.74029e-16,0.0744063,0.0744063,-0.145828,0.0,0.0,0.0,0.12407,0.07724440099279839,0.0,0.0,0.07724440099279839,0.0,-0.13569364890705582
99,0.1894,781.776,771.731,-2.98323e-06,-1.99903e-33,1.53081e-16,2.77299e-15,0.0753342,0.0753342,-0.147677,0.0,0.0,0.0,0.125664,0.07824443996881003,0.0,0.0,0.07824443996881003,0.0,-0.13729027481469624
100,0.1918,783.36,773.295,-2.97434e-06,-7.96074e-34,1.90729e-16,-1.08073e-15,0.0762612,0.0762612,-0.149525,0.0,0.0,0.0,0.127257,0.07924443599120679,0.0,0.0,0.07924443599120679,0.0,-0.13888309017214595
101,0.1942,784.927,774.841,-2.96542e-06,-7.68146e-34,2.17117e-16,-7.5261e-16,0.0771874,0.0771874,-0.151372,0.0,0.0,0.0,0.128848,0.08024449524377042,0.0,0.0,0.08024449524377042,0.0,-0.14047210519749032
102,0.1966,786.477,776.371,-2.95647e-06,-4.14583e-33,-5.80415e-15,5.42821e-15,0.0781126,0.0781126,-0.153216,0.0,0.0,0.0,0.130438,0.08124439993535426,0.0,0.0,0.08124439993535426,0.0,-0.14205561419150858
103,0.199,788.011,777.884,-2.94749e-06,-1.28321e-33,-3.96066e-15,-2.24013e-15,0.0790371,0.0790371,-0.155059,0.0,0.0,0.0,0.132027,0.0822444725954512,0.0,0.0,0.0822444725954512,0.0,-0.14363534952129675
104,0.2015,789.528,779.381,-2.93848e-06,-2.94215e-33,-5.69807e-15,1.42766e-15,0.0799607,0.0799607,-0.156901,0.0,0.0,0.0,0.133614,0.08324449532975087,0.0,0.0,0.08324449532975087,0.0,-0.14521132129187653
105,0.2039,791.028,780.862,-2.92945e-06,1.07004e-34,-3.88471e-15,-5.00064e-15,0.0808834,0.0808834,-0.15874,0.0,0.0,0.0,0.1352,0.08424446629124893,0.0,0.0,0.08424446629124893,0.0,-0.1467818331437607
106,0.2063,792.514,782.327,-2.9204e-06,-1.14433e-33,4.14051e-16,-4.7112e-16,0.0818053,0.0818053,-0.160578,0.0,0.0,0.0,0.136785,0.0852444921558182,0.0,0.0,0.0852444921558182,0.0,-0.1483486078274292
107,0.2087,793.984,783.778,-2.91134e-06,-4.39756e-33,-2.6412e-15,5.64648e-15,0.0827263,0.0827263,-0.162415,0.0,0.0,0.0,0.138368,0.08624446274886743,0.0,0.0,0.08624446274886743,0.0,-0.14991165533616257
108,0.2111,795.439,785.214,-2.90226e-06,1.75731e-34,-1.74672e-15,-5.09132e-15,0.0836465,0.0836465,-0.16425,0.0,0.0,0.0,0.13995,0.08724448494313486,0.0,0.0,0.08724448494313486,0.0,-0.15147013710428525
109,0.2136,796.879,786.635,-2.89317e-06,1.70378e-34,1.91813e-15,-3.53057e-15,0.0845658,0.0845658,-0.166083,0.0,0.0,0.0,0.14153,0.08824444836090461,0.0,0.0,0.08824444836090461,0.0,-0.15302406773046795
110,0.216,798.305,788.042,-2.88406e-06,-1.8792e-33,-7.66891e-15,5.476e-16,0.0854843,0.0854843,-0.167914,0.0,0.0,0.0,0.143109,0.08924446007179787,0.0,0.0,0.08924446007179787,0.0,-0.15457346175935027
111,0.2184,799.716,789.435,-2.87496e-06,-2.2838e-34,-2.23308e-15,-2.62821e-15,0.0864019,0.0864019,-0.169744,0.0,0.0,0.0,0.144687,0.09024440949499302,0.0,0.0,0.09024440949499302,0.0,-0.15611917756299964
112,0.2208,801.114,790.815,-2.86584e-06,-2.49111e-33,4.63246e-15,4.17845e-15,0.0873187,0.0873187,-0.171572,0.0,0.0,0.0,0.146263,0.09124440389700861,0.0,0.0,0.09124440389700861,0.0,-0.15766038261582416
113,0.2232,802.499,792.181,-2.85672e-06,7.72243e-34,-2.72565e-15,-3.11983e-15,0.0882347,0.0882347,-0.173399,0.0,0.0,0.0,0.147838,0.09224444171837654,0.0,0.0,0.09224444171837654,0.0,-0.15919793211762923
114,0.2257,803.87,793.534,-2.84761e-06,7.49016e-34,1.24247e-15,-2.1721e-15,0.0891498,0.0891498,-0.175224,0.0,0.0,0.0,0.149411,0.09324441207364731,0.0,0.0,0.09324441207364731,0.0,-0.16073099654471956
115,0.2281,805.228,794.875,-2.83849e-06,-1.43225e-33,-8.16784e-15,1.49634e-15,0.0900641,0.0900641,-0.177047,0.0,0.0,0.0,0.150984,0.09424442252472098,0.0,0.0,0.09424442252472098,0.0,-0.16225959020156533
116,0.2305,806.574,796.202,-2.82938e-06,-2.51959e-33,4.67329e-16,4.04725e-15,0.0909776,0.0909776,-0.178869,0.0,0.0,0.0,0.152554,0.0952444715075269,0.0,0.0,0.0952444715075269,0.0,-0.16378456355562343
117,0.2329,807.907,797.518,-2.82026e-06,-2.43565e-33,4.4786e-16,2.80779e-15,0.0918902,0.0918902,-0.180689,0.0,0.0,0.0,0.154124,0.09624444783201991,0.0,0.0,0.09624444783201991,0.0,-0.16530509154976114
118,0.2353,809.227,798.821,-2.81116e-06,-3.94477e-33,4.34299e-16,4.96105e-15,0.092802,0.092802,-0.182508,0.0,0.0,0.0,0.155692,0.09724445935552417,0.0,0.0,0.09724445935552417,0.0,-0.16682202152215908
119,0.2378,810.536,800.112,-2.80206e-06,-4.15533e-33,-2.6356e-15,3.44243e-15,0.0937129,0.0937129,-0.184325,0.0,0.0,0.0,0.157258,0.09824439468495627,0.0,0.0,0.09824439468495627,0.0,-0.16833453137772159
120,0.2402,811.833,801.392,-2.79297e-06,-2.31397e-33,-1.74311e-15,-6.38341e-16,0.0946231,0.0946231,-0.18614,0.0,0.0,0.0,0.158824,0.09924447179904927,0.0,0.0,0.09924447179904927,0.0,-0.16984263518506326
121,0.242,812.805,802.352,-1.18114e-06,-5.00294e-33,2.07194e-15,6.03361e-15,0.0953102,0.0953102,-0.187511,0.0,0.0,0.0,0.160006,0.10000002221524285,0.0,0.0,0.10000002221524285,0.0,-0.17098000108974365
