,Time,S11,S22,S33,S12,S13,S23,LE11,LE22,LE33,LE12,LE13,LE23,SDV_EPBAR,E11,E12,E13,E22,E23,E33
0,2.42e-07,0.029678,0.029678,1.04083e-17,0.0,0.0,0.0,1e-07,1e-07,-8.57143e-08,0.0,0.0,0.0,0.0,1.0000000494336803e-07,0.0,0.0,1.0000000494336803e-07,0.0,-8.571429632731054e-08
1,4.84e-07,0.059356,0.059356,3.46945e-18,0.0,0.0,0.0,2e-07,2e-07,-1.71429e-07,0.0,0.0,0.0,0.0,2.0000002010078788e-07,0.0,0.0,2.0000002010078788e-07,0.0,-1.7142898534050488e-07
2,8.47e-07,0.103873,0.103873,3.46945e-18,0.0,0.0,0.0,3.5e-07,3.5e-07,-3e-07,0.0,0.0,0.0,0.0,3.5000006115559756e-07,0.0,0.0,3.5000006115559756e-07,0.0,-2.9999995498908305e-07
3,1.3915e-06,0.170648,0.170648,-1.73472e-17,0.0,0.0,0.0,5.75e-07,5.75e-07,-4.92857e-07,0.0,0.0,0.0,0.0,5.750001652593539e-07,0.0,0.0,5.750001652593539e-07,0.0,-4.928568785311782e-07
4,2.2083e-06,0.270812,0.270812,-3.46945e-18,0.0,0.0,0.0,9.125e-07,9.125e-07,-7.82142e-07,0.0,0.0,0.0,0.0,9.125004163390571e-07,0.0,0.0,9.125004163390571e-07,0.0,-7.821416940778647e-07
5,3.4334e-06,0.421056,0.421056,5.20417e-17,0.0,0.0,0.0,1.41875e-06,1.41875e-06,-1.21607e-06,0.0,0.0,0.0,0.0,1.4187510064544995e-06,0.0,0.0,1.4187510064544995e-06,0.0,-1.2160692606233425e-06
6,5.2711e-06,0.646423,0.646423,2.42861e-17,0.0,0.0,0.0,2.17812e-06,2.17812e-06,-1.86696e-06,0.0,0.0,0.0,0.0,2.178122372020752e-06,0.0,0.0,2.178122372020752e-06,0.0,-1.8669582572128363e-06
7,8.0276e-06,0.984473,0.984473,1.35308e-16,0.0,0.0,0.0,3.31718e-06,3.31718e-06,-2.8433e-06,0.0,0.0,0.0,0.0,3.317185501838793e-06,0.0,0.0,3.317185501838793e-06,0.0,-2.8432959577884276e-06
8,1.2162e-05,1.49155,1.49155,4.68375e-16,0.0,0.0,0.0,5.02577e-06,5.02577e-06,-4.3078e-06,0.0,0.0,0.0,0.0,5.025782629175524e-06,0.0,0.0,5.025782629175524e-06,0.0,-4.307790721469473e-06
9,1.8365e-05,2.25216,2.25216,3.57353e-16,0.0,0.0,0.0,7.58864e-06,7.58864e-06,-6.50455e-06,0.0,0.0,0.0,0.0,7.5886687938009345e-06,0.0,0.0,7.5886687938009345e-06,0.0,-6.50452884543018e-06
10,2.7668e-05,3.39307,3.39307,-3.08781e-16,0.0,0.0,0.0,1.14329e-05,1.14329e-05,-9.79967e-06,0.0,0.0,0.0,0.0,1.1432965355773206e-05,0.0,0.0,1.1432965355773206e-05,0.0,-9.799621983441753e-06
11,4.1623e-05,5.10443,5.10443,-7.5287e-16,0.0,0.0,-1.23207e-38,1.71994e-05,1.71994e-05,-1.47423e-05,0.0,0.0,0.0,0.0,1.7199547910573543e-05,0.0,0.0,1.7199547910573543e-05,0.0,-1.4742191332794974e-05
12,6.2555e-05,7.67145,7.67145,-1.64105e-15,0.0,0.0,-2.77213e-38,2.58489e-05,2.58489e-05,-2.21562e-05,0.0,0.0,0.0,0.0,2.5849234085661976e-05,0.0,0.0,2.5849234085661976e-05,0.0,-2.2155954553237933e-05
13,9.3954e-05,11.5219,11.5219,-8.30239e-15,0.0,0.0,-6.23724e-38,3.88231e-05,3.88231e-05,-3.3277e-05,0.0,0.0,0.0,0.0,3.882385362641294e-05,0.0,0.0,3.882385362641294e-05,0.0,-3.327644632677984e-05
14,0.00014105,17.2976,17.2976,-4.47177e-14,0.0,0.0,-1.40336e-37,5.82842e-05,5.82842e-05,-4.99578e-05,0.0,0.0,0.0,0.0,5.828589855694233e-05,0.0,0.0,5.828589855694233e-05,0.0,-4.995655212991501e-05
15,0.0002117,25.9608,25.9608,-2.25018e-13,0.0,0.0,-3.1575e-37,8.7475e-05,8.7475e-05,-7.49785e-05,0.0,0.0,0.0,0.0,8.747882604942525e-05,0.0,0.0,8.747882604942525e-05,0.0,-7.4975689182466e-05
16,0.00031767,38.9552,38.9552,-1.14339e-12,0.0,0.0,-7.10416e-37,0.00013126,0.00013126,-0.000112508,0.0,0.0,0.0,0.0,0.0001312686149708142,0.0,0.0,0.0001312686149708142,0.0,-0.00011250167121223953
17,0.00047662,58.4457,58.4457,-5.85252e-12,0.0,0.0,-1.59836e-36,0.000196933,0.000196933,-0.0001688,0.0,0.0,0.0,0.0,0.00019695239257622177,0.0,0.0,0.00019695239257622177,0.0,-0.00016878575408152408
18,0.00071506,87.6791,87.6791,-2.95989e-11,0.0,0.0,-3.59607e-36,0.000295435,0.000295435,-0.00025323,0.0,0.0,0.0,0.0,0.00029547864521761724,0.0,0.0,0.00029547864521761724,0.0,-0.00025319793998968
19,0.0010727,131.524,131.524,-1.49709e-10,0.0,0.0,-8.09034e-36,0.000443169,0.000443169,-0.000379859,0.0,0.0,0.0,0.0,0.0004432672138892091,0.0,0.0,0.0004432672138892091,0.0,-0.0003797868627043455
20,0.0016092,197.279,197.279,-7.57628e-10,0.0,0.0,-1.82005e-35,0.00066473,0.00066473,-0.000569769,0.0,0.0,0.0,0.0,0.0006649509819482979,0.0,0.0,0.0006649509819482979,0.0,-0.0005696067124669746
21,0.0024139,295.884,295.884,-3.83263e-09,0.0,0.0,-4.09417e-35,0.00099698,0.00099698,-0.000854554,0.0,0.0,0.0,0.0,0.0009974771497625046,0.0,0.0,0.0009974771497625046,0.0,-0.0008541889727163854
22,0.003621,404.524,386.432,0.0652655,0.0,0.0,2.99377e-32,0.00149515,0.00149515,-0.00146724,0.0,0.0,0.0,0.000264641,0.0014962682940309335,0.0,0.0,0.0014962682940309335,0.0,-0.001466164129642178
23,0.0054316,451.559,392.615,0.104062,0.0,0.0,5.22602e-32,0.00224193,0.00224193,-0.00285827,0.0,0.0,0.0,0.00134153,0.0022444450041991804,0.0,0.0,0.0022444450041991804,0.0,-0.0028541890353956934
24,0.0078516,490.533,403.076,0.000171014,0.0,0.0,5.01512e-15,0.0032392,0.0032392,-0.00475781,0.0,0.0,0.0,0.00285133,0.003244451877416177,0.0,0.0,0.003244451877416177,0.0,-0.004746509550902056
25,0.010272,517.474,414.319,1.18303e-05,0.0,0.0,3.92263e-16,0.00423547,0.00423547,-0.00667683,0.0,0.0,0.0,0.00439834,0.004244452279975608,0.0,0.0,0.004244452279975608,0.0,-0.006654589496790875
26,0.012692,537.973,425.416,1.0073e-06,0.0,0.0,-4.8675e-15,0.00523074,0.00523074,-0.00860655,0.0,0.0,0.0,0.00596597,0.0052444442044314865,0.0,0.0,0.0052444442044314865,0.0,-0.008569619672063378
27,0.015112,554.661,435.893,2.58097e-07,-1.09173e-34,2.61386e-15,-2.88452e-15,0.00622503,0.00622503,-0.0105428,0.0,0.0,0.0,0.00754639,0.006244445766251383,0.0,0.0,0.006244445766251383,0.0,-0.010487419476874482
28,0.017532,568.877,445.597,7.43023e-08,1.16909e-34,1.58571e-15,3.45137e-15,0.00721833,0.00721833,-0.0124834,0.0,0.0,0.0,0.00913537,0.007244444941601369,0.0,0.0,0.007244444941601369,0.0,-0.01240580557856108
29,0.019952,581.359,454.53,-1.94252e-07,1.08842e-34,9.6532e-16,2.07247e-15,0.00821065,0.00821065,-0.0144268,0.0,0.0,0.0,0.0107304,0.008244449829572176,0.0,0.0,0.008244449829572176,0.0,-0.014323232368908867
30,0.022372,592.551,462.758,-5.18489e-07,1.0139e-34,5.88165e-16,1.2492e-15,0.00920198,0.00920198,-0.016372,0.0,0.0,0.0,0.0123297,0.009244448382409898,0.0,0.0,0.009244448382409898,0.0,-0.016238707222480664
31,0.024792,602.732,470.362,-8.48236e-07,-1.49785e-35,-2.32424e-15,7.5424e-16,0.0101923,0.0101923,-0.0183185,0.0,0.0,0.0,0.0139323,0.010244418407964417,0.0,0.0,0.010244418407964417,0.0,-0.018151736119481288
32,0.027212,612.096,477.42,-1.15679e-06,-1.40193e-35,-1.45061e-15,-4.84221e-15,0.0111817,0.0111817,-0.0202656,0.0,0.0,0.0,0.0155372,0.011244448869027979,0.0,0.0,0.011244448869027979,0.0,-0.020061632890681858
33,0.029632,620.779,484.003,-1.43371e-06,-1.31311e-35,-9.09707e-16,-2.97632e-15,0.0121701,0.0121701,-0.022213,0.0,0.0,0.0,0.0171439,0.012244457004898734,0.0,0.0,0.012244457004898734,0.0,-0.021968107929540626
34,0.032052,628.883,490.17,-1.67699e-06,-1.23078e-35,-5.73056e-16,-1.83484e-15,0.0131575,0.0131575,-0.0241604,0.0,0.0,0.0,0.0187518,0.013244440792496093,0.0,0.0,0.013244440792496093,0.0,-0.02387087391158982
35,0.034472,636.489,495.972,-1.8884e-06,-3.41247e-34,2.36948e-15,-3.81842e-15,0.0141439,0.0141439,-0.0261074,0.0,0.0,0.0,0.0203607,0.014244398206812336,0.0,0.0,0.014244398206812336,0.0,-0.0257695483607151
36,0.036892,643.659,501.452,-2.0712e-06,-4.29473e-34,1.49672e-15,-5.06439e-15,0.0151294,0.0151294,-0.028054,0.0,0.0,0.0,0.0219701,0.015244428745356142,0.0,0.0,0.015244428745356142,0.0,-0.027664140752843625
37,0.039312,650.443,506.644,-2.22898e-06,-4.02325e-34,9.45964e-16,-3.15003e-15,0.0161139,0.0161139,-0.03,0.0,0.0,0.0,0.0235798,0.016244429054838472,0.0,0.0,0.016244429054838472,0.0,-0.029554466451491623
38,0.041732,656.886,511.579,-2.36518e-06,-2.67054e-34,5.96991e-16,7.59082e-16,0.0170975,0.0170975,-0.0319451,0.0,0.0,0.0,0.0251897,0.017244498828943522,0.0,0.0,0.017244498828943522,0.0,-0.031440245449875226
39,0.044152,663.021,516.283,-2.48285e-06,1.90428e-34,-2.39683e-15,-4.95646e-15,0.01808,0.01808,-0.0338894,0.0,0.0,0.0,0.0267996,0.01824443268611331,0.0,0.0,0.01824443268611331,0.0,-0.033321586642137246
40,0.046572,668.879,520.778,-2.58468e-06,-7.02354e-34,1.23747e-15,-8.5757e-15,0.0190616,0.0190616,-0.0358326,0.0,0.0,0.0,0.0284092,0.019244432140675505,0.0,0.0,0.019244432140675505,0.0,-0.03519821221505204
41,0.048992,674.485,525.083,-2.67293e-06,6.66986e-37,-4.78714e-15,8.76324e-17,0.0200423,0.0200423,-0.0377748,0.0,0.0,0.0,0.0300185,0.02024449545617002,0.0,0.0,0.02024449545617002,0.0,-0.03707023174066637
42,0.051412,679.862,529.214,-2.74955e-06,-4.41486e-34,-2.95087e-16,8.80652e-17,0.0210219,0.0210219,-0.0397159,0.0,0.0,0.0,0.0316274,0.02124441664535559,0.0,0.0,0.02124441664535559,0.0,-0.038937561790333586
43,0.053832,685.03,533.186,-2.81615e-06,-4.15807e-34,-1.91642e-16,8.85686e-17,0.0220006,0.0220006,-0.0416557,0.0,0.0,0.0,0.0332357,0.022244397816892914,0.0,0.0,0.022244397816892914,0.0,-0.04080002372213554
44,0.056252,690.004,537.011,-2.87412e-06,-3.91788e-34,-1.2479e-16,-1.0978e-14,0.0229784,0.0229784,-0.0435943,0.0,0.0,0.0,0.0348435,0.02324443722866909,0.0,0.0,0.02324443722866909,0.0,-0.04265772754203789
45,0.058672,694.8,540.7,-2.92462e-06,5.12174e-34,-5.72043e-15,-1.43824e-15,0.0239552,0.0239552,-0.0455316,0.0,0.0,0.0,0.0364505,0.024244430712260456,0.0,0.0,0.024244430712260456,0.0,-0.044510591370419905
46,0.061092,699.43,544.264,-2.96862e-06,-1.83234e-34,-9.00691e-16,-8.77395e-16,0.0249311,0.0249311,-0.0474675,0.0,0.0,0.0,0.0380568,0.02524447874626201,0.0,0.0,0.02524447874626201,0.0,-0.04635853402336576
47,0.063512,703.908,547.711,-3.00697e-06,-1.74785e-34,-5.82565e-16,-5.17548e-16,0.025906,0.025906,-0.0494021,0.0,0.0,0.0,0.0396623,0.026244476958517948,0.0,0.0,0.026244476958517948,0.0,-0.048201665367641144
48,0.065932,708.243,551.049,-3.04037e-06,-9.405e-34,2.46483e-15,-3.08039e-15,0.0268799,0.0268799,-0.0513352,0.0,0.0,0.0,0.041267,0.02724442329946286,0.0,0.0,0.02724442329946286,0.0,-0.05003980949770048
49,0.068352,712.444,554.285,-3.06942e-06,-2.26067e-34,-4.06756e-15,3.66107e-15,0.0278529,0.0278529,-0.0532669,0.0,0.0,0.0,0.0428707,0.028244418542125116,0.0,0.0,0.028244418542125116,0.0,-0.05187307636682381
50,0.070772,716.52,557.426,-3.09465e-06,2.25494e-34,-2.66934e-15,-3.19366e-15,0.028825,0.028825,-0.0551971,0.0,0.0,0.0,0.0444735,0.02924446093324229,0.0,0.0,0.02924446093324229,0.0,-0.05370138588566398
51,0.073192,720.48,560.478,-3.1165e-06,-5.66232e-34,1.10817e-15,-7.64866e-15,0.0297961,0.0297961,-0.0571258,0.0,0.0,0.0,0.0460753,0.030244445693269784,0.0,0.0,0.030244445693269784,0.0,-0.055524753093313395
52,0.075612,724.329,563.445,-3.13536e-06,-1.31166e-33,3.60665e-15,7.19364e-16,0.0307663,0.0307663,-0.059053,0.0,0.0,0.0,0.0476762,0.03124447388971663,0.0,0.0,0.03124447388971663,0.0,-0.05734319297765722
53,0.078032,728.074,566.333,-3.15155e-06,-2.19769e-35,-4.73208e-16,-5.12103e-15,0.0317355,0.0317355,-0.0609787,0.0,0.0,0.0,0.0492759,0.032244440539372476,0.0,0.0,0.032244440539372476,0.0,-0.05915672047556053
54,0.080452,731.721,569.145,-3.16538e-06,-1.35065e-33,5.4426e-15,2.37831e-15,0.0327038,0.0327038,-0.0629029,0.0,0.0,0.0,0.0508746,0.03324444690609507,0.0,0.0,0.03324444690609507,0.0,-0.06096535047305618
55,0.082872,735.276,571.887,-3.17708e-06,-5.59802e-35,7.40875e-16,-9.7225e-15,0.0336712,0.0336712,-0.0648255,0.0,0.0,0.0,0.0524723,0.03424449122747819,0.0,0.0,0.03424449122747819,0.0,-0.06276900408243802
56,0.085292,738.742,574.561,-3.18689e-06,1.4963e-33,-5.27525e-15,-6.22776e-16,0.0346376,0.0346376,-0.0667465,0.0,0.0,0.0,0.0540688,0.03524446821485494,0.0,0.0,0.03524446821485494,0.0,-0.06456769662827133
57,0.087712,742.126,577.172,-3.19499e-06,1.6318e-33,-3.51327e-15,-3.18193e-15,0.0356031,0.0356031,-0.0686659,0.0,0.0,0.0,0.0556641,0.03624447942664566,0.0,0.0,0.03624447942664566,0.0,-0.06636144338190908
58,0.090132,745.43,579.722,-3.20156e-06,-1.12511e-35,3.45188e-15,6.53433e-15,0.0365676,0.0365676,-0.0705838,0.0,0.0,0.0,0.0572584,0.037244419370573656,0.0,0.0,0.037244419370573656,0.0,-0.06815035274666004
59,0.092552,748.659,582.214,-3.20675e-06,2.87321e-33,-3.48208e-15,-4.18878e-15,0.0375313,0.0375313,-0.0725,0.0,0.0,0.0,0.0588514,0.038244493625901876,0.0,0.0,0.038244493625901876,0.0,-0.06993425333972147
60,0.094972,751.816,584.652,-3.21068e-06,2.71475e-33,-2.32494e-15,-2.69155e-15,0.038494,0.038494,-0.0744147,0.0,0.0,0.0,0.0604433,0.03924449287232035,0.0,0.0,0.03924449287232035,0.0,-0.07171334646652283
61,0.097392,754.905,587.036,-3.21349e-06,2.56533e-33,-1.54923e-15,-1.70284e-15,0.0394557,0.0394557,-0.0763277,0.0,0.0,0.0,0.062034,0.04024441503662213,0.0,0.0,0.04024441503662213,0.0,-0.07348746135280226
62,0.099812,757.928,589.371,-3.21527e-06,1.31478e-33,1.88535e-15,-3.91835e-15,0.0404166,0.0404166,-0.0782391,0.0,0.0,0.0,0.0636235,0.041244466292708726,0.0,0.0,0.041244466292708726,0.0,-0.07525670601339673
63,0.1022,760.889,591.658,-3.21612e-06,1.2426e-33,1.2822e-15,-2.51646e-15,0.0413765,0.0413765,-0.0801488,0.0,0.0,0.0,0.0652117,0.042244436714925504,0.0,0.0,0.042244436714925504,0.0,-0.07702100310665083
64,0.1047,763.79,593.898,-3.21612e-06,4.72714e-33,-4.96889e-15,-7.34311e-15,0.0423355,0.0423355,-0.0820569,0.0,0.0,0.0,0.0667987,0.043244428549180425,0.0,0.0,0.043244428549180425,0.0,-0.07878046018676976
65,0.1071,766.634,596.095,-3.21534e-06,4.80291e-33,-3.34176e-15,-7.67639e-15,0.0432936,0.0432936,-0.0839634,0.0,0.0,0.0,0.0683845,0.044244440015168696,0.0,0.0,0.044244440015168696,0.0,-0.08053509210507803
66,0.1095,769.423,598.25,-3.21387e-06,4.5418e-33,-2.24239e-15,-5.01517e-15,0.0442508,0.0442508,-0.0858682,0.0,0.0,0.0,0.0699691,0.04524446933082715,0.0,0.0,0.04524446933082715,0.0,-0.08228482188994923
67,0.1119,772.159,600.364,-3.21174e-06,3.96195e-33,-1.4985e-15,-3.49856e-16,0.045207,0.045207,-0.0877714,0.0,0.0,0.0,0.0715523,0.046244410087888266,0.0,0.0,0.046244410087888266,0.0,-0.08402975641053423
68,0.1143,774.845,602.439,-3.20903e-06,2.63507e-33,1.94455e-15,-8.81256e-15,0.0461624,0.0461624,-0.0896729,0.0,0.0,0.0,0.0731343,0.04724446964966855,0.0,0.0,0.04724446964966855,0.0,-0.08576981893997437
69,0.1168,777.482,604.477,-3.20578e-06,5.37867e-33,-4.54399e-15,-2.88348e-15,0.0471168,0.0471168,-0.0915728,0.0,0.0,0.0,0.0747151,0.048244436879960606,0.0,0.0,0.048244436879960606,0.0,-0.08750511589364884
70,0.1192,780.072,606.478,-3.20203e-06,6.75345e-33,-6.01321e-15,-1.81367e-15,0.0480703,0.0480703,-0.093471,0.0,0.0,0.0,0.0762945,0.04924441461414841,0.0,0.0,0.04924441461414841,0.0,-0.08923557078832633
71,0.1216,782.617,608.445,-3.19783e-06,5.38707e-33,-1.1151e-15,-6.91034e-15,0.0490229,0.0490229,-0.0953675,0.0,0.0,0.0,0.0778727,0.05024440106143513,0.0,0.0,0.05024440106143513,0.0,-0.09096119868445818
72,0.124,785.118,610.379,-3.19321e-06,1.31291e-33,5.17964e-15,-1.03378e-14,0.0499747,0.0499747,-0.0972624,0.0,0.0,0.0,0.0794496,0.05124449955373711,0.0,0.0,0.05124449955373711,0.0,-0.09268210532114762
73,0.1264,787.578,612.28,-3.1882e-06,2.90255e-33,6.06153e-16,-3.9035e-15,0.0509255,0.0509255,-0.0991556,0.0,0.0,0.0,0.0810251,0.052244498147909324,0.0,0.0,0.052244498147909324,0.0,-0.09439821457775732
74,0.1289,789.997,614.15,-3.18285e-06,3.0739e-33,4.4095e-16,-5.40614e-15,0.0518753,0.0518753,-0.101047,0.0,0.0,0.0,0.0825994,0.05324439474797682,0.0,0.0,0.05324439474797682,0.0,-0.09610945096830315
75,0.1313,792.377,615.99,-3.17717e-06,1.12189e-33,3.29324e-15,-1.22652e-14,0.0528243,0.0528243,-0.102937,0.0,0.0,0.0,0.0841724,0.05424439810513504,0.0,0.0,0.05424439810513504,0.0,-0.09781619072884562
76,0.1337,794.719,617.801,-3.17119e-06,1.27477e-33,2.28042e-15,-1.10501e-14,0.0537724,0.0537724,-0.104825,0.0,0.0,0.0,0.0857441,0.05524440119553553,0.0,0.0,0.05524440119553553,0.0,-0.0995179068352583
77,0.1361,797.024,619.584,-3.16493e-06,-1.36166e-33,4.55829e-15,-1.44398e-15,0.0547196,0.0547196,-0.106712,0.0,0.0,0.0,0.0873144,0.05624440221806659,0.0,0.0,0.05624440221806659,0.0,-0.10121551434863885
78,0.1385,799.295,621.339,-3.15842e-06,-1.30113e-33,3.14872e-15,-8.05542e-16,0.0556659,0.0556659,-0.108597,0.0,0.0,0.0,0.0888834,0.057244399369914545,0.0,0.0,0.057244399369914545,0.0,-0.10290812731518462
79,0.141,801.531,623.068,-3.15167e-06,-1.24381e-33,2.18009e-15,-3.72666e-16,0.0566114,0.0566114,-0.11048,0.0,0.0,0.0,0.0904512,0.05824449667101317,0.0,0.0,0.05824449667101317,0.0,-0.10459576190483166
80,0.1434,803.733,624.772,-3.14471e-06,-1.30084e-33,1.51371e-15,2.86067e-15,0.0575559,0.0575559,-0.112361,0.0,0.0,0.0,0.0920176,0.05924448076626909,0.0,0.0,0.05924448076626909,0.0,-0.10627843422723904
81,0.1458,805.904,626.451,-3.13755e-06,-3.80581e-33,4.04029e-15,-6.71243e-15,0.0584995,0.0584995,-0.114241,0.0,0.0,0.0,0.0935826,0.06024445557223701,0.0,0.0,0.06024445557223701,0.0,-0.10795705237542363
82,0.1482,808.043,628.106,-3.13021e-06,1.64332e-34,-3.18183e-15,4.45135e-15,0.0594422,0.0594422,-0.116119,0.0,0.0,0.0,0.0951464,0.06124441927934421,0.0,0.0,0.06124441927934421,0.0,-0.10963073694934011
83,0.1506,810.153,629.737,-3.12269e-06,5.8935e-34,-2.18711e-15,-2.69232e-15,0.0603841,0.0603841,-0.117996,0.0,0.0,0.0,0.0967088,0.062244476300782114,0.0,0.0,0.062244476300782114,0.0,-0.11130039259406255
84,0.1531,812.232,631.346,-3.11502e-06,-3.9083e-33,4.49051e-15,4.24789e-15,0.061325,0.061325,-0.119871,0.0,0.0,0.0,0.0982699,0.06324441247473667,0.0,0.0,0.06324441247473667,0.0,-0.11296514316656703
85,0.1555,814.284,632.933,-3.1072e-06,1.18374e-33,-2.87937e-15,1.1788e-16,0.0622651,0.0622651,-0.121744,0.0,0.0,0.0,0.0998296,0.06424443853550321,0.0,0.0,0.06424443853550321,0.0,-0.11462500450801927
86,0.1579,816.307,634.498,-3.09926e-06,2.00527e-33,-1.98378e-15,-1.15787e-14,0.0632043,0.0632043,-0.123615,0.0,0.0,0.0,0.101388,0.06524444644238003,0.0,0.0,0.06524444644238003,0.0,-0.11627999240061804
87,0.1603,818.304,636.043,-3.09118e-06,1.44765e-33,-1.36288e-15,-1.80745e-15,0.0641426,0.0641426,-0.125485,0.0,0.0,0.0,0.102945,0.06624443437745042,0.0,0.0,0.06624443437745042,0.0,-0.11793100463726891
88,0.1627,820.274,637.568,-3.083e-06,-1.19977e-33,2.07531e-15,1.916e-15,0.06508,0.06508,-0.127353,0.0,0.0,0.0,0.104501,0.06724440052114344,0.0,0.0,0.06724440052114344,0.0,-0.11957717152205494
89,0.1652,822.219,639.073,-3.07471e-06,-1.14954e-33,1.45476e-15,1.49998e-15,0.0660166,0.0660166,-0.12922,0.0,0.0,0.0,0.106055,0.06824444987667944,0.0,0.0,0.06824444987667944,0.0,-0.1212193874572266
90,0.1676,824.14,640.559,-3.06633e-06,1.68644e-33,-1.98985e-15,-1.75555e-15,0.0669523,0.0669523,-0.131084,0.0,0.0,0.0,0.107608,0.0692444739967506,0.0,0.0,0.0692444739967506,0.0,-0.1228559088072676
91,0.17,826.036,642.026,-3.05786e-06,1.59223e-33,-1.37248e-15,-1.0167e-15,0.0678871,0.0678871,-0.132948,0.0,0.0,0.0,0.10916,0.07024447105684795,0.0,0.0,0.07024447105684795,0.0,-0.12448938252278985
92,0.1724,827.908,643.475,-3.04931e-06,-1.06269e-33,2.07655e-15,2.46785e-15,0.068821,0.068821,-0.134809,0.0,0.0,0.0,0.110711,0.07124443923082846,0.0,0.0,0.07124443923082846,0.0,-0.12611719263480325
93,0.1748,829.758,644.906,-3.04068e-06,-3.4741e-33,4.48279e-15,1.88585e-15,0.0697541,0.0697541,-0.136669,0.0,0.0,0.0,0.11226,0.07224448391536265,0.0,0.0,0.07224448391536265,0.0,-0.12774110395080507
94,0.1773,831.585,646.32,-3.03199e-06,6.50843e-33,-8.95897e-15,1.48563e-15,0.0706863,0.0706863,-0.138527,0.0,0.0,0.0,0.113807,0.07324449625660368,0.0,0.0,0.07324449625660368,0.0,-0.1293602563213141
95,0.1797,833.39,647.718,-3.02324e-06,1.26666e-33,-1.90485e-16,4.19535e-15,0.0716176,0.0716176,-0.140383,0.0,0.0,0.0,0.115354,0.07424447442352577,0.0,0.0,0.07424447442352577,0.0,-0.13097466505084632
96,0.1821,835.175,649.099,-3.01443e-06,6.55274e-33,-6.17655e-15,8.9407e-17,0.072548,0.072548,-0.142238,0.0,0.0,0.0,0.116899,0.07524441658348935,0.0,0.0,0.07524441658348935,0.0,-0.13258521280230973
97,0.1845,836.938,650.464,-3.00556e-06,6.22051e-33,-4.30261e-15,2.45497e-16,0.0734776,0.0734776,-0.144091,0.0,0.0,0.0,0.118443,0.07624442852668256,0.0,0.0,0.07624442852668256,0.0,-0.13419104414076888
98,0.1869,838.681,651.813,-2.99666e-06,9.92656e-34,3.08099e-15,3.34702e-15,0.0744063,0.0744063,-0.145943,0.0,0.0,0.0,0.119985,0.07724440099279839,0.0,0.0,0.07724440099279839,0.0,-0.13579303842242463
99,0.1894,840.405,653.147,-2.98771e-06,6.29415e-33,-3.89205e-15,-4.99249e-16,0.0753342,0.0753342,-0.147793,0.0,0.0,0.0,0.121526,0.07824443996881003,0.0,0.0,0.07824443996881003,0.0,-0.13739034333873112
100,0.1918,842.109,654.467,-2.97872e-06,3.74254e-33,3.34728e-16,-3.16164e-15,0.0762612,0.0762612,-0.149641,0.0,0.0,0.0,0.123066,0.07924443599120679,0.0,0.0,0.07924443599120679,0.0,-0.13898297394031534
101,0.1942,843.795,655.771,-2.96971e-06,3.54892e-33,2.61202e-16,-2.00485e-15,0.0771874,0.0771874,-0.151487,0.0,0.0,0.0,0.124604,0.08024449524377042,0.0,0.0,0.08024449524377042,0.0,-0.14057094522198232
102,0.1966,845.462,657.062,-2.96066e-06,5.37511e-33,-2.83613e-15,1.80159e-15,0.0781126,0.0781126,-0.153332,0.0,0.0,0.0,0.126141,0.08124439993535426,0.0,0.0,0.08124439993535426,0.0,-0.14215512996823565
103,0.199,847.111,658.338,-2.95158e-06,4.65494e-33,-1.96757e-15,4.44398e-15,0.0790371,0.0790371,-0.155176,0.0,0.0,0.0,0.127677,0.0822444725954512,0.0,0.0,0.0822444725954512,0.0,-0.14373553832424346
104,0.2015,848.742,659.601,-2.94249e-06,1.8468e-33,1.69494e-15,6.27996e-15,0.0799607,0.0799607,-0.157017,0.0,0.0,0.0,0.129211,0.08324449532975087,0.0,0.0,0.08324449532975087,0.0,-0.14531047102781058
105,0.2039,850.356,660.851,-2.93337e-06,2.07941e-33,1.22342e-15,1.53365e-15,0.0808834,0.0808834,-0.158857,0.0,0.0,0.0,0.130744,0.08424446629124893,0.0,0.0,0.08424446629124893,0.0,-0.1468816538296589
106,0.2063,851.953,662.088,-2.92424e-06,1.9655e-33,8.90829e-16,1.24533e-15,0.0818053,0.0818053,-0.160695,0.0,0.0,0.0,0.132276,0.0852444921558182,0.0,0.0,0.0852444921558182,0.0,-0.14844824521141287
107,0.2087,853.534,663.312,-2.91509e-06,2.52769e-33,6.56049e-16,-4.98826e-15,0.0827263,0.0827263,-0.162532,0.0,0.0,0.0,0.133806,0.08624446274886743,0.0,0.0,0.08624446274886743,0.0,-0.15001110985428545
108,0.2111,855.099,664.523,-2.90593e-06,1.05068e-33,4.90196e-16,8.78154e-15,0.0836465,0.0836465,-0.164367,0.0,0.0,0.0,0.135335,0.08724448494313486,0.0,0.0,0.08724448494313486,0.0,-0.15156940929070783
109,0.2136,856.648,665.723,-2.89676e-06,1.65659e-33,3.72952e-16,2.58041e-16,0.0845658,0.0845658,-0.1662,0.0,0.0,0.0,0.136863,0.08824444836090461,0.0,0.0,0.08824444836090461,0.0,-0.153123158117643
110,0.216,858.181,666.91,-2.88759e-06,1.89816e-33,2.90017e-16,-2.66811e-15,0.0854843,0.0854843,-0.168032,0.0,0.0,0.0,0.138389,0.08924446007179787,0.0,0.0,0.08924446007179787,0.0,-0.15467321620523455
111,0.2184,859.7,668.086,-2.87841e-06,7.86219e-34,2.31319e-16,7.39302e-15,0.0864019,0.0864019,-0.169862,0.0,0.0,0.0,0.139914,0.09024440949499302,0.0,0.0,0.09024440949499302,0.0,-0.15621874962518
112,0.2208,861.203,669.25,-2.86922e-06,1.40459e-33,1.89754e-16,-7.15368e-16,0.0873187,0.0873187,-0.171691,0.0,0.0,0.0,0.141438,0.09124440389700861,0.0,0.0,0.09124440389700861,0.0,-0.15776061506634376
113,0.2232,862.692,670.403,-2.86004e-06,9.86965e-34,1.60311e-16,2.70411e-15,0.0882347,0.0882347,-0.173518,0.0,0.0,0.0,0.14296,0.09224444171837654,0.0,0.0,0.09224444171837654,0.0,-0.15929798161064423
114,0.2257,864.166,671.545,-2.85086e-06,2.26708e-33,1.3945e-16,-1.00678e-14,0.0891498,0.0891498,-0.175343,0.0,0.0,0.0,0.144481,0.09324441207364731,0.0,0.0,0.09324441207364731,0.0,-0.1608308636139223
115,0.2281,865.627,672.676,-2.84168e-06,-7.64118e-34,3.20154e-15,-8.03858e-16,0.0900641,0.0900641,-0.177166,0.0,0.0,0.0,0.146001,0.09424442252472098,0.0,0.0,0.09424442252472098,0.0,-0.16235927537894568
116,0.2305,867.074,673.797,-2.8325e-06,-1.19138e-33,2.299e-15,5.6939e-15,0.0909776,0.0909776,-0.178988,0.0,0.0,0.0,0.14752,0.0952444715075269,0.0,0.0,0.0952444715075269,0.0,-0.1638840672719719
117,0.2329,868.508,674.907,-2.82333e-06,-1.15101e-33,1.65684e-15,4.17407e-15,0.0918902,0.0918902,-0.180809,0.0,0.0,0.0,0.149037,0.09624444783201991,0.0,0.0,0.09624444783201991,0.0,-0.16540524892921227
118,0.2353,869.928,676.007,-2.81416e-06,-6.64833e-34,1.19961e-15,-2.97846e-15,0.092802,0.092802,-0.182627,0.0,0.0,0.0,0.150552,0.09724445935552417,0.0,0.0,0.09724445935552417,0.0,-0.16692116380251532
119,0.2378,871.335,677.097,-2.80501e-06,-1.09682e-33,8.73826e-16,4.17336e-15,0.0937129,0.0937129,-0.184445,0.0,0.0,0.0,0.152067,0.09824439468495627,0.0,0.0,0.09824439468495627,0.0,-0.1684343252462046
120,0.2402,872.73,678.177,-2.79586e-06,-1.28484e-33,6.41538e-16,6.15726e-15,0.0946231,0.0946231,-0.18626,0.0,0.0,0.0,0.15358,0.09924447179904927,0.0,0.0,0.09924447179904927,0.0,-0.16994224809194702
121,0.242,873.776,678.987,-1.18238e-06,-7.97757e-34,5.06896e-16,-1.76321e-15,0.0953102,0.0953102,-0.187631,0.0,0.0,0.0,0.154722,0.10000002221524285,0.0,0.0,0.10000002221524285,0.0,-0.17107947752090757
