,Time,S11,S22,S33,S12,S13,S23,LE11,LE22,LE33,LE12,LE13,LE23,SDV_EPBAR,E11,E12,E13,E22,E23,E33
0,2.42e-07,0.029678,0.029678,1.04083e-17,0.0,0.0,0.0,1e-07,1e-07,-8.57143e-08,0.0,0.0,0.0,0.0,1.0000000494336803e-07,0.0,0.0,1.0000000494336803e-07,0.0,-8.571429632731054e-08
1,4.84e-07,0.059356,0.059356,3.46945e-18,0.0,0.0,0.0,2e-07,2e-07,-1.71429e-07,0.0,0.0,0.0,0.0,2.0000002010078788e-07,0.0,0.0,2.0000002010078788e-07,0.0,-1.7142898534050488e-07
2,8.47e-07,0.103873,0.103873,3.46945e-18,0.0,0.0,0.0,3.5e-07,3.5e-07,-3e-07,0.0,0.0,0.0,0.0,3.5000006115559756e-07,0.0,0.0,3.5000006115559756e-07,0.0,-2.9999995498908305e-07
3,1.3915e-06,0.170648,0.170648,-1.73472e-17,0.0,0.0,0.0,5.75e-07,5.75e-07,-4.92857e-07,0.0,0.0,0.0,0.0,5.750001652593539e-07,0.0,0.0,5.750001652593539e-07,0.0,-4.928568785311782e-07
4,2.2083e-06,0.270812,0.270812,-3.46945e-18,0.0,0.0,0.0,9.125e-07,9.125e-07,-7.82142e-07,0.0,0.0,0.0,0.0,9.125004163390571e-07,0.0,0.0,9.125004163390571e-07,0.0,-7.821416940778647e-07
5,3.4334e-06,0.421056,0.421056,5.20417e-17,0.0,0.0,0.0,1.41875e-06,1.41875e-06,-1.21607e-06,0.0,0.0,0.0,0.0,1.4187510064544995e-06,0.0,0.0,1.4187510064544995e-06,0.0,-1.2160692606233425e-06
6,5.2711e-06,0.646423,0.646423,2.42861e-17,0.0,0.0,0.0,2.17812e-06,2.17812e-06,-1.86696e-06,0.0,0.0,0.0,0.0,2.178122372020752e-06,0.0,0.0,2.178122372020752e-06,0.0,-1.8669582572128363e-06
7,8.0276e-06,0.984473,0.984473,1.35308e-16,0.0,0.0,0.0,3.31718e-06,3.31718e-06,-2.8433e-06,0.0,0.0,0.0,0.0,3.317185501838793e-06,0.0,0.0,3.317185501838793e-06,0.0,-2.8432959577884276e-06
8,1.2162e-05,1.49155,1.49155,4.68375e-16,0.0,0.0,0.0,5.02577e-06,5.02577e-06,-4.3078e-06,0.0,0.0,0.0,0.0,5.025782629175524e-06,0.0,0.0,5.025782629175524e-06,0.0,-4.307790721469473e-06
9,1.8365e-05,2.25216,2.25216,3.57353e-16,0.0,0.0,0.0,7.58864e-06,7.58864e-06,-6.50455e-06,0.0,0.0,0.0,0.0,7.5886687938009345e-06,0.0,0.0,7.5886687938009345e-06,0.0,-6.50452884543018e-06
10,2.7668e-05,3.39307,3.39307,-3.08781e-16,0.0,0.0,0.0,1.14329e-05,1.14329e-05,-9.79967e-06,0.0,0.0,0.0,0.0,1.1432965355773206e-05,0.0,0.0,1.1432965355773206e-05,0.0,-9.799621983441753e-06
11,4.1623e-05,5.10443,5.10443,-7.5287e-16,0.0,0.0,-1.23207e-38,1.71994e-05,1.71994e-05,-1.47423e-05,0.0,0.0,0.0,0.0,1.7199547910573543e-05,0.0,0.0,1.7199547910573543e-05,0.0,-1.4742191332794974e-05
12,6.2555e-05,7.67145,7.67145,-1.64105e-15,0.0,0.0,-2.77213e-38,2.58489e-05,2.58489e-05,-2.21562e-05,0.0,0.0,0.0,0.0,2.5849234085661976e-05,0.0,0.0,2.5849234085661976e-05,0.0,-2.2155954553237933e-05
13,9.3954e-05,11.5219,11.5219,-8.30239e-15,0.0,0.0,-6.23724e-38,3.88231e-05,3.88231e-05,-3.3277e-05,0.0,0.0,0.0,0.0,3.882385362641294e-05,0.0,0.0,3.882385362641294e-05,0.0,-3.327644632677984e-05
14,0.00014105,17.2976,17.2976,-4.47177e-14,0.0,0.0,-1.40336e-37,5.82842e-05,5.82842e-05,-4.99578e-05,0.0,0.0,0.0,0.0,5.828589855694233e-05,0.0,0.0,5.828589855694233e-05,0.0,-4.995655212991501e-05
15,0.0002117,25.9608,25.9608,-2.25018e-13,0.0,0.0,-3.1575e-37,8.7475e-05,8.7475e-05,-7.49785e-05,0.0,0.0,0.0,0.0,8.747882604942525e-05,0.0,0.0,8.747882604942525e-05,0.0,-7.4975689182466e-05
16,0.00031767,38.9552,38.9552,-1.14339e-12,0.0,0.0,-7.10416e-37,0.00013126,0.00013126,-0.000112508,0.0,0.0,0.0,0.0,0.0001312686149708142,0.0,0.0,0.0001312686149708142,0.0,-0.00011250167121223953
17,0.00047662,58.4457,58.4457,-5.85252e-12,0.0,0.0,-1.59836e-36,0.000196933,0.000196933,-0.0001688,0.0,0.0,0.0,0.0,0.00019695239257622177,0.0,0.0,0.00019695239257622177,0.0,-0.00016878575408152408
18,0.00071506,87.6791,87.6791,-2.95989e-11,0.0,0.0,-3.59607e-36,0.000295435,0.000295435,-0.00025323,0.0,0.0,0.0,0.0,0.00029547864521761724,0.0,0.0,0.00029547864521761724,0.0,-0.00025319793998968
19,0.0010727,131.524,131.524,-1.49709e-10,0.0,0.0,-8.09034e-36,0.000443169,0.000443169,-0.000379859,0.0,0.0,0.0,0.0,0.0004432672138892091,0.0,0.0,0.0004432672138892091,0.0,-0.0003797868627043455
20,0.0016092,197.279,197.279,-7.57628e-10,0.0,0.0,-1.82005e-35,0.00066473,0.00066473,-0.000569769,0.0,0.0,0.0,0.0,0.0006649509819482979,0.0,0.0,0.0006649509819482979,0.0,-0.0005696067124669746
21,0.0024139,295.884,295.884,-3.83263e-09,0.0,0.0,-4.09417e-35,0.00099698,0.00099698,-0.000854554,0.0,0.0,0.0,0.0,0.0009974771497625046,0.0,0.0,0.0009974771497625046,0.0,-0.0008541889727163854
22,0.003621,418.724,421.396,0.00572326,0.0,0.0,1.54088e-32,0.00149515,0.00149515,-0.00137269,0.0,0.0,0.0,0.000139915,0.0014962682940309335,0.0,0.0,0.0014962682940309335,0.0,-0.0013717482920222457
23,0.0054316,437.123,454.285,0.131982,2.0213e-33,-8.31493e-15,-8.17652e-15,0.00224193,0.00224193,-0.00276727,0.0,0.0,0.0,0.0012991,0.0022444450041991804,0.0,0.0,0.0022444450041991804,0.0,-0.0027634446377904354
24,0.0078516,456.967,486.242,9.96029e-05,1.46389e-33,-2.28943e-15,-2.16628e-15,0.0032392,0.0032392,-0.00466231,0.0,0.0,0.0,0.00289674,0.003244451877416177,0.0,0.0,0.003244451877416177,0.0,-0.004651458303939204
25,0.010272,473.631,510.709,1.25777e-05,1.38155e-33,-1.32238e-15,-1.22639e-15,0.00423547,0.00423547,-0.00657566,0.0,0.0,0.0,0.0045254,0.004244452279975608,0.0,0.0,0.004244452279975608,0.0,-0.0065540876578104035
26,0.012692,488.119,530.412,1.59416e-06,1.08329e-33,1.78111e-15,-6.94495e-16,0.00523074,0.00523074,-0.00850038,0.0,0.0,0.0,0.00617344,0.0052444442044314865,0.0,0.0,0.0052444442044314865,0.0,-0.00846435392065037
27,0.015112,500.986,546.915,3.44749e-07,9.13669e-34,3.63331e-15,2.12862e-15,0.00622503,0.00622503,-0.0104324,0.0,0.0,0.0,0.0078344,0.006244445766251383,0.0,0.0,0.006244445766251383,0.0,-0.010378171257593993
28,0.017532,512.566,561.148,1.42175e-07,8.64953e-34,2.17614e-15,1.2587e-15,0.00721833,0.00721833,-0.0123693,0.0,0.0,0.0,0.00950441,0.007244444941601369,0.0,0.0,0.007244444941601369,0.0,-0.012293114652082382
29,0.019952,523.089,573.697,-8.42516e-08,8.19463e-34,1.31243e-15,7.52686e-16,0.00821065,0.00821065,-0.0143095,0.0,0.0,0.0,0.011181,0.008244449829572176,0.0,0.0,0.008244449829572176,0.0,-0.014207605702694415
30,0.022372,532.725,584.951,-3.7936e-07,1.11055e-33,3.4177e-15,5.60294e-15,0.00920198,0.00920198,-0.016252,0.0,0.0,0.0,0.0128623,0.009244448382409898,0.0,0.0,0.009244448382409898,0.0,-0.016120648783982783
31,0.024792,541.611,595.177,-6.98222e-07,2.38904e-33,-5.83061e-15,-4.41548e-15,0.0101923,0.0101923,-0.0181959,0.0,0.0,0.0,0.0145474,0.010244418407964417,0.0,0.0,0.010244418407964417,0.0,-0.018031354143065115
32,0.027212,549.852,604.564,-1.00669e-06,2.04521e-33,1.7383e-15,-4.29495e-17,0.0111817,0.0111817,-0.0201407,0.0,0.0,0.0,0.0162351,0.011244448869027979,0.0,0.0,0.011244448869027979,0.0,-0.019939230944787223
33,0.029632,557.535,613.254,-1.28922e-06,2.38772e-33,-9.5826e-15,-1.83211e-17,0.0121701,0.0121701,-0.0220859,0.0,0.0,0.0,0.0179248,0.012244457004898734,0.0,0.0,0.012244457004898734,0.0,-0.021843792175959775
34,0.032052,564.732,621.354,-1.54077e-06,2.04508e-33,-5.54044e-16,-2.63225e-15,0.0131575,0.0131575,-0.0240313,0.0,0.0,0.0,0.0196161,0.013244440792496093,0.0,0.0,0.013244440792496093,0.0,-0.023744847506582567
35,0.034472,571.503,628.945,-1.76143e-06,1.72131e-33,2.35862e-15,1.0467e-15,0.0141439,0.0141439,-0.0259765,0.0,0.0,0.0,0.0213085,0.014244398206812336,0.0,0.0,0.014244398206812336,0.0,-0.0256420132476044
36,0.036892,577.895,636.095,-1.95357e-06,1.52616e-33,1.48167e-15,3.30202e-15,0.0151294,0.0151294,-0.0279214,0.0,0.0,0.0,0.0230015,0.015244428745356142,0.0,0.0,0.015244428745356142,0.0,-0.027535200469355536
37,0.039312,583.951,642.856,-2.1203e-06,2.79149e-33,-1.77158e-15,-8.61292e-15,0.0161139,0.0161139,-0.0298657,0.0,0.0,0.0,0.0246951,0.016244429054838472,0.0,0.0,0.016244429054838472,0.0,-0.029424126864228795
38,0.041732,589.706,649.271,-2.26484e-06,2.87838e-33,-6.53667e-15,-2.62531e-15,0.0170975,0.0170975,-0.0318093,0.0,0.0,0.0,0.0263888,0.017244498828943522,0.0,0.0,0.017244498828943522,0.0,-0.03130870610388792
39,0.044152,595.19,655.378,-2.3902e-06,2.84956e-33,-1.36891e-15,-6.96931e-15,0.01808,0.01808,-0.0337522,0.0,0.0,0.0,0.0280826,0.01824443268611331,0.0,0.0,0.01824443268611331,0.0,-0.0331889492651084
40,0.046572,600.428,661.206,-2.49902e-06,2.04217e-33,1.89355e-15,-1.6117e-15,0.0190616,0.0190616,-0.0356941,0.0,0.0,0.0,0.0297763,0.019244432140675505,0.0,0.0,0.019244432140675505,0.0,-0.03506457791348194
41,0.048992,605.443,666.782,-2.59362e-06,2.83815e-33,-1.5257e-15,-3.67476e-15,0.0200423,0.0200423,-0.0376349,0.0,0.0,0.0,0.0314697,0.02024449545617002,0.0,0.0,0.02024449545617002,0.0,-0.036935508442412
42,0.051412,610.254,672.129,-2.67598e-06,2.03284e-33,1.80512e-15,4.43415e-16,0.0210219,0.0210219,-0.0395747,0.0,0.0,0.0,0.0331626,0.02124441664535559,0.0,0.0,0.02124441664535559,0.0,-0.03880185019304527
43,0.053832,614.878,677.266,-2.74778e-06,4.17287e-33,-4.35277e-15,-5.1202e-15,0.0220006,0.0220006,-0.0415134,0.0,0.0,0.0,0.0348551,0.022244397816892914,0.0,0.0,0.022244397816892914,0.0,-0.04066351985349115
44,0.056252,619.33,682.209,-2.81045e-06,2.63594e-33,2.7798e-15,2.26558e-15,0.0229784,0.0229784,-0.0434508,0.0,0.0,0.0,0.036547,0.02324443722866909,0.0,0.0,0.02324443722866909,0.0,-0.042520339068552904
45,0.058672,623.624,686.975,-2.8652e-06,2.29095e-33,1.80324e-15,4.19464e-15,0.0239552,0.0239552,-0.045387,0.0,0.0,0.0,0.0382382,0.024244430712260456,0.0,0.0,0.024244430712260456,0.0,-0.044372417612210224
46,0.061092,627.77,691.576,-2.91307e-06,2.18643e-33,1.17841e-15,2.68275e-15,0.0249311,0.0249311,-0.0473218,0.0,0.0,0.0,0.0399286,0.02524447874626201,0.0,0.0,0.02524447874626201,0.0,-0.04621957833909729
47,0.063512,631.779,696.023,-2.95493e-06,2.87055e-33,-2.01267e-15,-1.01568e-15,0.025906,0.025906,-0.0492554,0.0,0.0,0.0,0.0416183,0.026244476958517948,0.0,0.0,0.026244476958517948,0.0,-0.04806202630967604
48,0.065932,635.661,700.329,-2.99152e-06,2.40408e-33,-1.2789e-15,2.13619e-15,0.0268799,0.0268799,-0.0511875,0.0,0.0,0.0,0.0433071,0.02724442329946286,0.0,0.0,0.02724442329946286,0.0,-0.049899490015224535
49,0.068352,639.423,704.501,-3.02349e-06,1.39885e-33,4.80084e-15,-4.12709e-15,0.0278529,0.0278529,-0.0531182,0.0,0.0,0.0,0.0449949,0.028244418542125116,0.0,0.0,0.028244418542125116,0.0,-0.05173207941041591
50,0.070772,643.074,708.549,-3.05139e-06,1.44809e-33,3.13103e-15,-5.36464e-15,0.028825,0.028825,-0.0550475,0.0,0.0,0.0,0.0466818,0.02924446093324229,0.0,0.0,0.02924446093324229,0.0,-0.05355980902330726
51,0.073192,646.62,712.48,-3.07568e-06,1.49525e-33,2.0492e-15,-6.1621e-15,0.0297961,0.0297961,-0.0569754,0.0,0.0,0.0,0.0483677,0.030244445693269784,0.0,0.0,0.030244445693269784,0.0,-0.05538269333355261
52,0.075612,650.068,716.301,-3.09677e-06,9.81342e-34,4.16799e-15,4.42347e-15,0.0307663,0.0307663,-0.0589017,0.0,0.0,0.0,0.0500526,0.03124447388971663,0.0,0.0,0.03124447388971663,0.0,-0.057200558212706976
53,0.078032,653.423,720.018,-3.11503e-06,1.61177e-33,-9.88229e-17,9.95919e-17,0.0317355,0.0317355,-0.0608266,0.0,0.0,0.0,0.0517364,0.032244440539372476,0.0,0.0,0.032244440539372476,0.0,-0.05901360732926597
54,0.080452,656.69,723.639,-3.13075e-06,1.54131e-33,-5.65947e-17,1.04683e-16,0.0327038,0.0327038,-0.0627499,0.0,0.0,0.0,0.0534191,0.03324444690609507,0.0,0.0,0.03324444690609507,0.0,-0.06082166718018689
55,0.082872,659.875,727.166,-3.14421e-06,1.47421e-33,-2.89631e-17,1.08145e-16,0.0336712,0.0336712,-0.0646717,0.0,0.0,0.0,0.0551006,0.03424449122747819,0.0,0.0,0.03424449122747819,0.0,-0.06262484686986036
56,0.085292,662.98,730.607,-3.15564e-06,1.41027e-33,-1.08347e-17,1.10559e-16,0.0346376,0.0346376,-0.0665919,0.0,0.0,0.0,0.0567811,0.03524446821485494,0.0,0.0,0.03524446821485494,0.0,-0.06442306761463534
57,0.087712,666.012,733.964,-3.16525e-06,1.34934e-33,1.09343e-18,1.12296e-16,0.0356031,0.0356031,-0.0685106,0.0,0.0,0.0,0.0584603,0.03624447942664566,0.0,0.0,0.03624447942664566,0.0,-0.06621643805469402
58,0.090132,668.972,737.243,-3.17322e-06,1.29125e-33,8.96801e-18,1.13593e-16,0.0365676,0.0365676,-0.0704277,0.0,0.0,0.0,0.0601384,0.037244419370573656,0.0,0.0,0.037244419370573656,0.0,-0.06800487966284507
59,0.092552,671.865,740.446,-3.1797e-06,1.23585e-33,1.41871e-17,1.14603e-16,0.0375313,0.0375313,-0.0723432,0.0,0.0,0.0,0.0618152,0.038244493625901876,0.0,0.0,0.038244493625901876,0.0,-0.06978840759663774
60,0.094972,674.694,743.579,-3.18485e-06,1.18301e-33,1.7663e-17,1.15423e-16,0.038494,0.038494,-0.0742572,0.0,0.0,0.0,0.0634908,0.03924449287232035,0.0,0.0,0.03924449287232035,0.0,-0.07156712980433133
61,0.097392,677.462,746.643,-3.18879e-06,1.13257e-33,1.99923e-17,1.16118e-16,0.0394557,0.0394557,-0.0761695,0.0,0.0,0.0,0.0651652,0.04024441503662213,0.0,0.0,0.04024441503662213,0.0,-0.07334087547455115
62,0.099812,680.171,749.642,-3.19162e-06,-7.13018e-34,5.76582e-15,-5.53814e-15,0.0404166,0.0404166,-0.0780802,0.0,0.0,0.0,0.0668383,0.041244466292708726,0.0,0.0,0.041244466292708726,0.0,-0.0751097526288449
63,0.1022,682.825,752.58,-3.19346e-06,2.15363e-34,-1.92133e-15,2.08971e-15,0.0413765,0.0413765,-0.0799893,0.0,0.0,0.0,0.0685102,0.042244436714925504,0.0,0.0,0.042244436714925504,0.0,-0.07687377621561375
64,0.1047,685.425,755.457,-3.19439e-06,-4.6916e-34,1.60769e-15,-1.42333e-15,0.0423355,0.0423355,-0.0818967,0.0,0.0,0.0,0.0701807,0.043244428549180425,0.0,0.0,0.043244428549180425,0.0,-0.07863286899475286
65,0.1071,687.973,758.278,-3.19448e-06,-1.16817e-36,-1.81133e-15,1.95362e-15,0.0432936,0.0432936,-0.0838026,0.0,0.0,0.0,0.07185,0.044244440015168696,0.0,0.0,0.044244440015168696,0.0,-0.08038723026011474
66,0.1095,690.473,761.044,-3.19382e-06,-2.73291e-36,-1.20352e-15,1.32773e-15,0.0442508,0.0442508,-0.0857068,0.0,0.0,0.0,0.0735179,0.04524446933082715,0.0,0.0,0.04524446933082715,0.0,-0.08213669070633733
67,0.1119,692.925,763.758,-3.19247e-06,-4.23378e-36,-7.98038e-16,9.16757e-16,0.045207,0.045207,-0.0876094,0.0,0.0,0.0,0.0751846,0.046244410087888266,0.0,0.0,0.046244410087888266,0.0,-0.08388135721106227
68,0.1143,695.332,766.421,-3.19048e-06,-5.67383e-36,-5.2712e-16,6.46536e-16,0.0461624,0.0461624,-0.0895103,0.0,0.0,0.0,0.0768499,0.04724446964966855,0.0,0.0,0.04724446964966855,0.0,-0.08562115302632256
69,0.1168,697.695,769.036,-3.18791e-06,-7.05596e-36,-3.4584e-16,4.68641e-16,0.0471168,0.0471168,-0.0914096,0.0,0.0,0.0,0.0785139,0.048244436879960606,0.0,0.0,0.048244436879960606,0.0,-0.08735618457609784
70,0.1192,700.017,771.605,-3.18481e-06,-5.70486e-34,2.68139e-15,3.51398e-16,0.0480703,0.0480703,-0.0933072,0.0,0.0,0.0,0.0801766,0.04924441461414841,0.0,0.0,0.04924441461414841,0.0,-0.08908637535604913
71,0.1216,702.297,774.128,-3.18121e-06,-5.47913e-34,1.80633e-15,2.7406e-16,0.0490229,0.0490229,-0.0952032,0.0,0.0,0.0,0.0818379,0.05024440106143513,0.0,0.0,0.05024440106143513,0.0,-0.09081183133921056
72,0.124,704.539,776.609,-3.17717e-06,2.61205e-34,-1.695e-15,-2.64636e-15,0.0499747,0.0499747,-0.0970975,0.0,0.0,0.0,0.0834979,0.05124449955373711,0.0,0.0,0.05124449955373711,0.0,-0.0925324762637385
73,0.1264,706.744,779.047,-3.17271e-06,2.40738e-35,-1.13649e-15,4.03513e-15,0.0509255,0.0509255,-0.0989901,0.0,0.0,0.0,0.0851565,0.052244498147909324,0.0,0.0,0.052244498147909324,0.0,-0.09424832507925596
74,0.1289,708.912,781.446,-3.16788e-06,2.04799e-33,-6.60197e-15,-3.03336e-15,0.0518753,0.0518753,-0.100881,0.0,0.0,0.0,0.0868137,0.05324439474797682,0.0,0.0,0.05324439474797682,0.0,-0.09595939268267073
75,0.1313,711.045,783.805,-3.16269e-06,6.12284e-34,1.40385e-15,-1.97384e-15,0.0528243,0.0528243,-0.10277,0.0,0.0,0.0,0.0884696,0.05424439810513504,0.0,0.0,0.05424439810513504,0.0,-0.09766551345149477
76,0.1337,713.145,786.127,-3.15718e-06,3.2872e-33,-1.07523e-14,-1.26885e-15,0.0537724,0.0537724,-0.104658,0.0,0.0,0.0,0.0901241,0.05524440119553553,0.0,0.0,0.05524440119553553,0.0,-0.09936751376822817
77,0.1361,715.211,788.413,-3.15136e-06,7.88282e-34,4.47014e-15,2.08871e-15,0.0547196,0.0547196,-0.106544,0.0,0.0,0.0,0.0917772,0.05624440221806659,0.0,0.0,0.05624440221806659,0.0,-0.10106450587069249
78,0.1385,717.246,790.664,-3.14528e-06,1.09396e-33,3.04594e-15,-7.23481e-15,0.0556659,0.0556659,-0.108429,0.0,0.0,0.0,0.093429,0.057244399369914545,0.0,0.0,0.057244399369914545,0.0,-0.10275740322010407
79,0.141,719.25,792.88,-3.13893e-06,1.61192e-33,-8.57939e-16,-1.88836e-15,0.0566114,0.0566114,-0.110311,0.0,0.0,0.0,0.0950794,0.05824449667101317,0.0,0.0,0.05824449667101317,0.0,-0.10444442580105295
80,0.1434,721.225,795.064,-3.13236e-06,1.54572e-33,-5.67672e-16,-1.20961e-15,0.0575559,0.0575559,-0.112192,0.0,0.0,0.0,0.0967284,0.05924448076626909,0.0,0.0,0.05924448076626909,0.0,-0.10612738251911358
81,0.1458,723.17,797.215,-3.12556e-06,2.15789e-33,-3.70403e-16,-9.46001e-15,0.0584995,0.0584995,-0.114072,0.0,0.0,0.0,0.098376,0.06024445557223701,0.0,0.0,0.06024445557223701,0.0,-0.1078062843777382
82,0.1482,725.088,799.336,-3.11857e-06,2.06943e-33,-2.36168e-16,-6.28023e-15,0.0594422,0.0594422,-0.115949,0.0,0.0,0.0,0.100022,0.06124441927934421,0.0,0.0,0.06124441927934421,0.0,-0.10947936130805647
83,0.1506,726.979,801.427,-3.11139e-06,8.58553e-34,2.807e-15,-1.23814e-15,0.0603841,0.0603841,-0.117825,0.0,0.0,0.0,0.101667,0.062244476300782114,0.0,0.0,0.062244476300782114,0.0,-0.11114841196722292
84,0.1531,728.843,803.488,-3.10404e-06,1.8371e-33,-1.02626e-15,-7.60607e-16,0.061325,0.061325,-0.1197,0.0,0.0,0.0,0.10331,0.06324441247473667,0.0,0.0,0.06324441247473667,0.0,-0.11281344723641618
85,0.1555,730.682,805.522,-3.09653e-06,2.32518e-33,-3.64419e-15,2.47545e-15,0.0622651,0.0622651,-0.121572,0.0,0.0,0.0,0.104953,0.06424443853550321,0.0,0.0,0.06424443853550321,0.0,-0.11447270691157674
86,0.1579,732.496,807.527,-3.08888e-06,-1.3755e-33,9.37141e-15,1.73805e-15,0.0632043,0.0632043,-0.123443,0.0,0.0,0.0,0.106593,0.06524444644238003,0.0,0.0,0.06524444644238003,0.0,-0.11612797948657494
87,0.1603,734.286,809.506,-3.08108e-06,1.49778e-33,4.94491e-16,-7.52186e-15,0.0641426,0.0641426,-0.125313,0.0,0.0,0.0,0.108232,0.06624443437745042,0.0,0.0,0.06624443437745042,0.0,-0.11777927572175384
88,0.1627,736.053,811.459,-3.07317e-06,7.62154e-34,3.48049e-16,1.2543e-14,0.06508,0.06508,-0.127181,0.0,0.0,0.0,0.10987,0.06724440052114344,0.0,0.0,0.06724440052114344,0.0,-0.1194257257715956
89,0.1652,737.796,813.387,-3.06514e-06,1.07038e-33,2.4769e-16,-2.40208e-16,0.0660166,0.0660166,-0.129047,0.0,0.0,0.0,0.111507,0.06824444987667944,0.0,0.0,0.06824444987667944,0.0,-0.12106734525998586
90,0.1676,739.518,815.29,-3.05701e-06,1.7033e-33,-5.76766e-15,5.76321e-15,0.0669523,0.0669523,-0.130911,0.0,0.0,0.0,0.113142,0.0692444739967506,0.0,0.0,0.0692444739967506,0.0,-0.1227041497527116
91,0.17,741.217,817.169,-3.04877e-06,1.68263e-34,2.00334e-15,1.02981e-15,0.0678871,0.0678871,-0.132774,0.0,0.0,0.0,0.114775,0.07024447105684795,0.0,0.0,0.07024447105684795,0.0,-0.12433703042110034
92,0.1724,742.896,819.025,-3.04045e-06,9.49182e-34,-1.58904e-15,7.57616e-16,0.068821,0.068821,-0.134635,0.0,0.0,0.0,0.116408,0.07124443923082846,0.0,0.0,0.07124443923082846,0.0,-0.12596512379671654
93,0.1748,744.554,820.858,-3.03205e-06,-4.42794e-34,4.88359e-15,3.51212e-15,0.0697541,0.0697541,-0.136494,0.0,0.0,0.0,0.118038,0.07224448391536265,0.0,0.0,0.07224448391536265,0.0,-0.12758844528675306
94,0.1773,746.192,822.669,-3.02357e-06,7.01943e-34,3.89846e-16,-3.44236e-15,0.0706863,0.0706863,-0.138352,0.0,0.0,0.0,0.119668,0.07324449625660368,0.0,0.0,0.07324449625660368,0.0,-0.12920788103372138
95,0.1797,747.811,824.458,-3.01502e-06,5.60026e-34,-2.70959e-15,6.55328e-15,0.0716176,0.0716176,-0.140208,0.0,0.0,0.0,0.121296,0.07424447442352577,0.0,0.0,0.07424447442352577,0.0,-0.13082257230950356
96,0.1821,749.411,826.226,-3.0064e-06,-1.04417e-33,4.12156e-15,-1.38205e-15,0.072548,0.072548,-0.142062,0.0,0.0,0.0,0.122922,0.07524441658348935,0.0,0.0,0.07524441658348935,0.0,-0.13243253436445457
97,0.1845,750.992,827.974,-2.99773e-06,-1.00624e-33,2.85597e-15,-8.86373e-16,0.0734776,0.0734776,-0.143915,0.0,0.0,0.0,0.124548,0.07624442852668256,0.0,0.0,0.07624442852668256,0.0,-0.13403864835410173
98,0.1869,752.555,829.701,-2.98901e-06,-9.69787e-34,1.98079e-15,-5.48366e-16,0.0744063,0.0744063,-0.145766,0.0,0.0,0.0,0.126171,0.07724440099279839,0.0,0.0,0.07724440099279839,0.0,-0.13564006025205688
99,0.1894,754.1,831.409,-2.98024e-06,-9.34753e-34,1.37503e-15,2.63822e-15,0.0753342,0.0753342,-0.147616,0.0,0.0,0.0,0.127794,0.07824443996881003,0.0,0.0,0.07824443996881003,0.0,-0.13723764791635584
100,0.1918,755.628,833.098,-2.97142e-06,-9.01078e-34,9.5536e-16,4.81495e-15,0.0762612,0.0762612,-0.149463,0.0,0.0,0.0,0.129415,0.07924443599120679,0.0,0.0,0.07924443599120679,0.0,-0.13882969926863564
101,0.1942,757.139,834.768,-2.96257e-06,-8.68705e-34,6.64359e-16,-2.58042e-15,0.0771874,0.0771874,-0.15131,0.0,0.0,0.0,0.131034,0.08024449524377042,0.0,0.0,0.08024449524377042,0.0,-0.1404188128159659
102,0.1966,758.633,836.419,-2.95368e-06,-8.37581e-34,4.62397e-16,4.21481e-15,0.0781126,0.0781126,-0.153154,0.0,0.0,0.0,0.132653,0.08124439993535426,0.0,0.0,0.08124439993535426,0.0,-0.14200241999058527
103,0.199,760.112,838.053,-2.94476e-06,-8.07653e-34,3.22105e-16,2.93576e-15,0.0790371,0.0790371,-0.154997,0.0,0.0,0.0,0.134269,0.0822444725954512,0.0,0.0,0.0822444725954512,0.0,-0.14358225326700003
104,0.2015,761.574,839.67,-2.93581e-06,1.25474e-33,-5.7985e-15,-3.87912e-15,0.0799607,0.0799607,-0.156838,0.0,0.0,0.0,0.135885,0.08324449532975087,0.0,0.0,0.08324449532975087,0.0,-0.14515746790875406
105,0.2039,763.021,841.269,-2.92683e-06,7.78162e-35,1.99879e-15,3.33231e-15,0.0808834,0.0808834,-0.158678,0.0,0.0,0.0,0.137499,0.08424446629124893,0.0,0.0,0.08424446629124893,0.0,-0.14672893197749637
106,0.2063,764.454,842.852,-2.91784e-06,8.65892e-34,-1.62071e-15,-6.38619e-16,0.0818053,0.0818053,-0.160516,0.0,0.0,0.0,0.139111,0.0852444921558182,0.0,0.0,0.0852444921558182,0.0,-0.14829580380420682
107,0.2087,765.871,844.418,-2.90883e-06,9.46348e-34,-1.12441e-15,-3.36748e-15,0.0827263,0.0827263,-0.162352,0.0,0.0,0.0,0.140723,0.08624446274886743,0.0,0.0,0.08624446274886743,0.0,-0.149858098083413
108,0.2111,767.274,845.968,-2.8998e-06,1.02375e-33,-7.78172e-16,-5.24427e-15,0.0836465,0.0836465,-0.164187,0.0,0.0,0.0,0.142332,0.08724448494313486,0.0,0.0,0.08724448494313486,0.0,-0.15141667803897996
109,0.2136,768.662,847.503,-2.89075e-06,9.85246e-34,-5.36419e-16,-3.55422e-15,0.0845658,0.0845658,-0.16602,0.0,0.0,0.0,0.143941,0.08824444836090461,0.0,0.0,0.08824444836090461,0.0,-0.15297070656587597
110,0.216,770.037,849.022,-2.8817e-06,1.6248e-33,-6.42023e-15,3.57882e-15,0.0854843,0.0854843,-0.167851,0.0,0.0,0.0,0.145548,0.08924446007179787,0.0,0.0,0.08924446007179787,0.0,-0.1545201982096569
111,0.2184,771.399,850.526,-2.87264e-06,9.97096e-34,-1.44786e-15,-4.62826e-16,0.0864019,0.0864019,-0.169681,0.0,0.0,0.0,0.147153,0.09024440949499302,0.0,0.0,0.09024440949499302,0.0,-0.15606601139646947
112,0.2208,772.747,852.016,-2.86357e-06,-3.97402e-34,5.063e-15,2.72641e-15,0.0873187,0.0873187,-0.171509,0.0,0.0,0.0,0.148757,0.09124440389700861,0.0,0.0,0.09124440389700861,0.0,-0.15760731354827084
113,0.2232,774.082,853.491,-2.8545e-06,-3.83566e-34,3.55554e-15,-4.04548e-15,0.0882347,0.0882347,-0.173336,0.0,0.0,0.0,0.15036,0.09224444171837654,0.0,0.0,0.09224444171837654,0.0,-0.1591449599187459
114,0.2257,775.404,854.952,-2.84542e-06,-3.70244e-34,2.49883e-15,-2.73803e-15,0.0891498,0.0891498,-0.175161,0.0,0.0,0.0,0.151962,0.09324441207364731,0.0,0.0,0.09324441207364731,0.0,-0.16067812093193756
115,0.2281,776.713,856.399,-2.83635e-06,3.20441e-34,-1.28065e-15,1.16285e-15,0.0900641,0.0900641,-0.176984,0.0,0.0,0.0,0.153562,0.09424442252472098,0.0,0.0,0.09424442252472098,0.0,-0.1622068108932173
116,0.2305,778.011,857.832,-2.82727e-06,3.07196e-34,-8.9306e-16,8.64776e-16,0.0909776,0.0909776,-0.178806,0.0,0.0,0.0,0.15516,0.0952444715075269,0.0,0.0,0.0952444715075269,0.0,-0.16373188032362307
117,0.2329,779.296,859.253,-2.8182e-06,2.94437e-34,-6.20724e-16,6.58319e-16,0.0918902,0.0918902,-0.180626,0.0,0.0,0.0,0.156758,0.09624444783201991,0.0,0.0,0.09624444783201991,0.0,-0.1652525041140419
118,0.2353,780.57,860.66,-2.80913e-06,2.82143e-34,-4.29219e-16,5.15235e-16,0.092802,0.092802,-0.182444,0.0,0.0,0.0,0.158353,0.09724445935552417,0.0,0.0,0.09724445935552417,0.0,-0.16676869642515157
119,0.2378,781.831,862.054,-2.80007e-06,-7.47935e-34,2.75278e-15,-5.5949e-15,0.0937129,0.0937129,-0.184261,0.0,0.0,0.0,0.159948,0.09824439468495627,0.0,0.0,0.09824439468495627,0.0,-0.16828130308444267
120,0.2402,783.082,863.436,-2.79101e-06,-3.84026e-34,-1.10615e-15,5.20154e-15,0.0946231,0.0946231,-0.186076,0.0,0.0,0.0,0.161541,0.09924447179904927,0.0,0.0,0.09924447179904927,0.0,-0.1697895034135165
121,0.242,784.019,864.471,-1.18041e-06,-3.30979e-35,-8.34971e-16,-5.80376e-15,0.0953102,0.0953102,-0.187446,0.0,0.0,0.0,0.162744,0.10000002221524285,0.0,0.0,0.10000002221524285,0.0,-0.17092611303847172
