,Time,S11,S22,S33,S12,S13,S23,LE11,LE22,LE33,LE12,LE13,LE23,SDV_EPBAR,E11,E12,E13,E22,E23,E33
0,2.42e-07,0.029678,0.029678,1.04083e-17,0.0,0.0,0.0,1e-07,1e-07,-8.57143e-08,0.0,0.0,0.0,0.0,1.0000000494336803e-07,0.0,0.0,1.0000000494336803e-07,0.0,-8.571429632731054e-08
1,4.84e-07,0.059356,0.059356,3.46945e-18,0.0,0.0,0.0,2e-07,2e-07,-1.71429e-07,0.0,0.0,0.0,0.0,2.0000002010078788e-07,0.0,0.0,2.0000002010078788e-07,0.0,-1.7142898534050488e-07
2,8.47e-07,0.103873,0.103873,3.46945e-18,0.0,0.0,0.0,3.5e-07,3.5e-07,-3e-07,0.0,0.0,0.0,0.0,3.5000006115559756e-07,0.0,0.0,3.5000006115559756e-07,0.0,-2.9999995498908305e-07
3,1.3915e-06,0.170648,0.170648,-1.73472e-17,0.0,0.0,0.0,5.75e-07,5.75e-07,-4.92857e-07,0.0,0.0,0.0,0.0,5.750001652593539e-07,0.0,0.0,5.750001652593539e-07,0.0,-4.928568785311782e-07
4,2.2083e-06,0.270812,0.270812,-3.46945e-18,0.0,0.0,0.0,9.125e-07,9.125e-07,-7.82142e-07,0.0,0.0,0.0,0.0,9.125004163390571e-07,0.0,0.0,9.125004163390571e-07,0.0,-7.821416940778647e-07
5,3.4334e-06,0.421056,0.421056,5.20417e-17,0.0,0.0,0.0,1.41875e-06,1.41875e-06,-1.21607e-06,0.0,0.0,0.0,0.0,1.4187510064544995e-06,0.0,0.0,1.4187510064544995e-06,0.0,-1.2160692606233425e-06
6,5.2711e-06,0.646423,0.646423,2.42861e-17,0.0,0.0,0.0,2.17812e-06,2.17812e-06,-1.86696e-06,0.0,0.0,0.0,0.0,2.178122372020752e-06,0.0,0.0,2.178122372020752e-06,0.0,-1.8669582572128363e-06
7,8.0276e-06,0.984473,0.984473,1.35308e-16,0.0,0.0,0.0,3.31718e-06,3.31718e-06,-2.8433e-06,0.0,0.0,0.0,0.0,3.317185501838793e-06,0.0,0.0,3.317185501838793e-06,0.0,-2.8432959577884276e-06
8,1.2162e-05,1.49155,1.49155,4.68375e-16,0.0,0.0,0.0,5.02577e-06,5.02577e-06,-4.3078e-06,0.0,0.0,0.0,0.0,5.025782629175524e-06,0.0,0.0,5.025782629175524e-06,0.0,-4.307790721469473e-06
9,1.8365e-05,2.25216,2.25216,3.57353e-16,0.0,0.0,0.0,7.58864e-06,7.58864e-06,-6.50455e-06,0.0,0.0,0.0,0.0,7.5886687938009345e-06,0.0,0.0,7.5886687938009345e-06,0.0,-6.50452884543018e-06
10,2.7668e-05,3.39307,3.39307,-3.08781e-16,0.0,0.0,0.0,1.14329e-05,1.14329e-05,-9.79967e-06,0.0,0.0,0.0,0.0,1.1432965355773206e-05,0.0,0.0,1.1432965355773206e-05,0.0,-9.799621983441753e-06
11,4.1623e-05,5.10443,5.10443,-7.5287e-16,0.0,0.0,-1.23207e-38,1.71994e-05,1.71994e-05,-1.47423e-05,0.0,0.0,0.0,0.0,1.7199547910573543e-05,0.0,0.0,1.7199547910573543e-05,0.0,-1.4742191332794974e-05
12,6.2555e-05,7.67145,7.67145,-1.64105e-15,0.0,0.0,-2.77213e-38,2.58489e-05,2.58489e-05,-2.21562e-05,0.0,0.0,0.0,0.0,2.5849234085661976e-05,0.0,0.0,2.5849234085661976e-05,0.0,-2.2155954553237933e-05
13,9.3954e-05,11.5219,11.5219,-8.30239e-15,0.0,0.0,-6.23724e-38,3.88231e-05,3.88231e-05,-3.3277e-05,0.0,0.0,0.0,0.0,3.882385362641294e-05,0.0,0.0,3.882385362641294e-05,0.0,-3.327644632677984e-05
14,0.00014105,17.2976,17.2976,-4.47177e-14,0.0,0.0,-1.40336e-37,5.82842e-05,5.82842e-05,-4.99578e-05,0.0,0.0,0.0,0.0,5.828589855694233e-05,0.0,0.0,5.828589855694233e-05,0.0,-4.995655212991501e-05
15,0.0002117,25.9608,25.9608,-2.25018e-13,0.0,0.0,-3.1575e-37,8.7475e-05,8.7475e-05,-7.49785e-05,0.0,0.0,0.0,0.0,8.747882604942525e-05,0.0,0.0,8.747882604942525e-05,0.0,-7.4975689182466e-05
16,0.00031767,38.9552,38.9552,-1.14339e-12,0.0,0.0,-7.10416e-37,0.00013126,0.00013126,-0.000112508,0.0,0.0,0.0,0.0,0.0001312686149708142,0.0,0.0,0.0001312686149708142,0.0,-0.00011250167121223953
17,0.00047662,58.4457,58.4457,-5.85252e-12,0.0,0.0,-1.59836e-36,0.000196933,0.000196933,-0.0001688,0.0,0.0,0.0,0.0,0.00019695239257622177,0.0,0.0,0.00019695239257622177,0.0,-0.00016878575408152408
18,0.00071506,87.6791,87.6791,-2.95989e-11,0.0,0.0,-3.59607e-36,0.000295435,0.000295435,-0.00025323,0.0,0.0,0.0,0.0,0.00029547864521761724,0.0,0.0,0.00029547864521761724,0.0,-0.00025319793998968
19,0.0010727,131.524,131.524,-1.49709e-10,0.0,0.0,-8.09034e-36,0.000443169,0.000443169,-0.000379859,0.0,0.0,0.0,0.0,0.0004432672138892091,0.0,0.0,0.0004432672138892091,0.0,-0.0003797868627043455
20,0.0016092,197.279,197.279,-7.57628e-10,0.0,0.0,-1.82005e-35,0.00066473,0.00066473,-0.000569769,0.0,0.0,0.0,0.0,0.0006649509819482979,0.0,0.0,0.0006649509819482979,0.0,-0.0005696067124669746
21,0.0024139,295.884,295.884,-3.83263e-09,0.0,0.0,-4.09417e-35,0.00099698,0.00099698,-0.000854554,0.0,0.0,0.0,0.0,0.0009974771497625046,0.0,0.0,0.0009974771497625046,0.0,-0.0008541889727163854
22,0.003621,422.264,423.685,0.00409477,-1.16748e-34,-2.03479e-15,4.05819e-15,0.00149515,0.00149515,-0.00136147,0.0,0.0,0.0,0.000123684,0.0014962682940309335,0.0,0.0,0.0014962682940309335,0.0,-0.0013605436201800103
23,0.0054316,443.633,453.756,0.137185,-5.03854e-34,-4.06208e-15,5.26345e-15,0.00224193,0.00224193,-0.00275574,0.0,0.0,0.0,0.00129157,0.0022444450041991804,0.0,0.0,0.0022444450041991804,0.0,-0.0027519464340201027
24,0.0078516,466.086,483.439,9.82864e-05,-8.07698e-34,5.14092e-15,-1.9223e-15,0.0032392,0.0032392,-0.00465015,0.0,0.0,0.0,0.00290009,0.003244451877416177,0.0,0.0,0.003244451877416177,0.0,-0.004639354792082995
25,0.010272,484.502,506.501,1.2723e-05,-7.62877e-34,2.9838e-15,-1.09819e-15,0.00423547,0.00423547,-0.00656283,0.0,0.0,0.0,0.00453927,0.004244452279975608,0.0,0.0,0.004244452279975608,0.0,-0.006541341664989542
26,0.012692,500.203,525.304,1.65618e-06,-2.27219e-33,4.2829e-15,-1.05979e-14,0.00523074,0.00523074,-0.00848695,0.0,0.0,0.0,0.0061977,0.0052444442044314865,0.0,0.0,0.0052444442044314865,0.0,-0.008451037507504089
27,0.015112,513.944,541.206,3.54029e-07,-1.70411e-33,-4.01042e-17,-6.13695e-15,0.00622503,0.00622503,-0.0104185,0.0,0.0,0.0,0.007869,0.006244445766251383,0.0,0.0,0.006244445766251383,0.0,-0.010364415418571471
28,0.017532,526.18,555.021,1.48173e-07,-2.05603e-33,2.5456e-15,-3.56935e-15,0.00721833,0.00721833,-0.0123549,0.0,0.0,0.0,0.00954935,0.007244444941601369,0.0,0.0,0.007244444941601369,0.0,-0.012278891570527417
29,0.019952,537.218,567.265,-7.25988e-08,-7.23955e-34,-3.68517e-15,-7.18042e-15,0.00821065,0.00821065,-0.0142947,0.0,0.0,0.0,0.0112363,0.008244449829572176,0.0,0.0,0.008244449829572176,0.0,-0.014193015867294378
30,0.022372,547.277,578.285,-3.65195e-07,-1.31892e-34,-7.46668e-15,9.11698e-16,0.00920198,0.00920198,-0.0162368,0.0,0.0,0.0,0.0129281,0.009244448382409898,0.0,0.0,0.009244448382409898,0.0,-0.01610569370418591
31,0.024792,556.518,588.324,-6.8249e-07,-2.96482e-33,3.35568e-15,-7.17376e-15,0.0101923,0.0101923,-0.0181804,0.0,0.0,0.0,0.0146235,0.010244418407964417,0.0,0.0,0.010244418407964417,0.0,-0.01801613351109488
32,0.027212,565.068,597.556,-9.90666e-07,-2.03523e-33,-6.01521e-16,-4.26101e-15,0.0111817,0.0111817,-0.0201249,0.0,0.0,0.0,0.0163217,0.011244448869027979,0.0,0.0,0.011244448869027979,0.0,-0.019923745862304387
33,0.029632,573.026,606.113,-1.27367e-06,-1.93406e-33,-3.74136e-16,-2.52208e-15,0.0121701,0.0121701,-0.0220698,0.0,0.0,0.0,0.0180219,0.012244457004898734,0.0,0.0,0.012244457004898734,0.0,-0.021828043734239078
34,0.032052,580.471,614.095,-1.52607e-06,-2.61855e-33,2.43524e-15,-1.47791e-15,0.0131575,0.0131575,-0.024015,0.0,0.0,0.0,0.0197237,0.013244440792496093,0.0,0.0,0.013244440792496093,0.0,-0.023728934417905467
35,0.034472,587.469,621.581,-1.74775e-06,-2.32208e-33,1.50053e-15,1.78752e-15,0.0141439,0.0141439,-0.02596,0.0,0.0,0.0,0.0214266,0.014244398206812336,0.0,0.0,0.014244398206812336,0.0,-0.02562593620818776
36,0.036892,594.071,628.635,-1.94093e-06,-2.71035e-33,9.23809e-16,-6.79638e-15,0.0151294,0.0151294,-0.0279046,0.0,0.0,0.0,0.0231302,0.015244428745356142,0.0,0.0,0.015244428745356142,0.0,-0.027518862923488374
37,0.039312,600.324,635.306,-2.10867e-06,-5.20017e-33,5.97325e-15,-6.76687e-15,0.0161139,0.0161139,-0.0298487,0.0,0.0,0.0,0.0248343,0.016244429054838472,0.0,0.0,0.016244429054838472,0.0,-0.029407626934136566
38,0.041732,606.263,641.638,-2.25417e-06,-1.87797e-33,-4.41508e-15,-1.43318e-15,0.0170975,0.0170975,-0.0317922,0.0,0.0,0.0,0.0265386,0.017244498828943522,0.0,0.0,0.017244498828943522,0.0,-0.031292141341134005
39,0.044152,611.921,647.666,-2.3804e-06,-1.78958e-33,-2.78732e-15,-8.17354e-16,0.01808,0.01808,-0.0337348,0.0,0.0,0.0,0.028243,0.01824443268611331,0.0,0.0,0.01824443268611331,0.0,-0.033172126606469066
40,0.046572,617.324,653.421,-2.49003e-06,-3.27029e-33,9.64663e-16,-5.80739e-15,0.0190616,0.0190616,-0.0356765,0.0,0.0,0.0,0.0299472,0.019244432140675505,0.0,0.0,0.019244432140675505,0.0,-0.03504759490060305
41,0.048992,622.496,658.927,-2.58535e-06,-2.94841e-33,6.00002e-16,-8.41594e-16,0.0200423,0.0200423,-0.0376172,0.0,0.0,0.0,0.0316512,0.02024449545617002,0.0,0.0,0.02024449545617002,0.0,-0.03691846205005134
42,0.051412,627.457,664.206,-2.66837e-06,-4.31961e-33,3.11811e-15,-3.14942e-15,0.0210219,0.0210219,-0.0395569,0.0,0.0,0.0,0.0333548,0.02124441664535559,0.0,0.0,0.02124441664535559,0.0,-0.038784740713704746
43,0.053832,632.225,669.278,-2.74077e-06,-2.8314e-33,-7.8647e-16,8.2102e-16,0.0220006,0.0220006,-0.0414954,0.0,0.0,0.0,0.0350579,0.022244397816892914,0.0,0.0,0.022244397816892914,0.0,-0.040646251641435094
44,0.056252,636.814,674.16,-2.80397e-06,-2.86824e-33,-5.15412e-16,-2.12157e-15,0.0229784,0.0229784,-0.0434326,0.0,0.0,0.0,0.0367603,0.02324443722866909,0.0,0.0,0.02324443722866909,0.0,-0.042502912780145286
45,0.058672,641.24,678.867,-2.85921e-06,-2.9039e-33,-3.42845e-16,-3.97609e-15,0.0239552,0.0239552,-0.0453687,0.0,0.0,0.0,0.0384622,0.024244430712260456,0.0,0.0,0.024244430712260456,0.0,-0.044354929467436466
46,0.061092,645.513,683.41,-2.90752e-06,-3.72156e-33,2.54546e-15,3.12574e-16,0.0249311,0.0249311,-0.0473034,0.0,0.0,0.0,0.0401632,0.02524447874626201,0.0,0.0,0.02524447874626201,0.0,-0.046202028617881696
47,0.063512,649.645,687.803,-2.94977e-06,-3.55025e-33,1.62109e-15,2.86117e-16,0.025906,0.025906,-0.0492368,0.0,0.0,0.0,0.0418635,0.026244476958517948,0.0,0.0,0.026244476958517948,0.0,-0.0480443200986983
48,0.065932,653.646,692.055,-2.98673e-06,-3.3874e-33,1.02746e-15,2.69923e-16,0.0268799,0.0268799,-0.0511688,0.0,0.0,0.0,0.0435629,0.02724442329946286,0.0,0.0,0.02724442329946286,0.0,-0.0498817229695665
49,0.068352,657.523,696.176,-3.01902e-06,-2.00027e-33,-2.15269e-15,2.60168e-16,0.0278529,0.0278529,-0.0530994,0.0,0.0,0.0,0.0452613,0.028244418542125116,0.0,0.0,0.028244418542125116,0.0,-0.05171425180592981
50,0.070772,661.285,700.174,-3.04721e-06,-4.51257e-34,-4.21404e-15,-1.07795e-14,0.028825,0.028825,-0.0550286,0.0,0.0,0.0,0.0469588,0.02924446093324229,0.0,0.0,0.02924446093324229,0.0,-0.05354192113465772
51,0.073192,664.939,704.056,-3.07177e-06,-4.01428e-33,5.68448e-15,-1.25027e-15,0.0297961,0.0297961,-0.0569563,0.0,0.0,0.0,0.0486553,0.030244445693269784,0.0,0.0,0.030244445693269784,0.0,-0.05536465097069121
52,0.075612,668.491,707.831,-3.09312e-06,-8.57963e-34,-1.9543e-15,-3.4679e-15,0.0307663,0.0307663,-0.0588826,0.0,0.0,0.0,0.0503508,0.03124447388971663,0.0,0.0,0.03124447388971663,0.0,-0.05718255057139643
53,0.078032,671.947,711.503,-3.1116e-06,6.98529e-34,-4.11075e-15,6.59888e-16,0.0317355,0.0317355,-0.0608073,0.0,0.0,0.0,0.0520452,0.032244440539372476,0.0,0.0,0.032244440539372476,0.0,-0.05899544611663232
54,0.080452,675.313,715.078,-3.12753e-06,-3.25569e-33,2.95943e-15,-5.03384e-15,0.0327038,0.0327038,-0.0627305,0.0,0.0,0.0,0.0537384,0.03324444690609507,0.0,0.0,0.03324444690609507,0.0,-0.06080344694379458
55,0.082872,678.594,718.563,-3.14118e-06,-1.36927e-33,-9.1219e-16,-3.40196e-16,0.0336712,0.0336712,-0.0646522,0.0,0.0,0.0,0.0554306,0.03424449122747819,0.0,0.0,0.03424449122747819,0.0,-0.06260656787615482
56,0.085292,681.793,721.961,-3.15279e-06,-1.30572e-33,-6.11691e-16,-1.06787e-16,0.0346376,0.0346376,-0.0665723,0.0,0.0,0.0,0.0571216,0.03524446821485494,0.0,0.0,0.03524446821485494,0.0,-0.06440473012705372
57,0.087712,684.916,725.278,-3.16256e-06,-3.20962e-33,2.42802e-15,-2.75377e-15,0.0356031,0.0356031,-0.0684909,0.0,0.0,0.0,0.0588114,0.03624447942664566,0.0,0.0,0.03624447942664566,0.0,-0.0661980423373264
58,0.090132,687.965,728.516,-3.17068e-06,-3.06579e-33,1.58049e-15,-1.66564e-15,0.0365676,0.0365676,-0.0704079,0.0,0.0,0.0,0.0605,0.037244419370573656,0.0,0.0,0.037244419370573656,0.0,-0.0679864259767714
59,0.092552,690.945,731.681,-3.1773e-06,-2.92848e-33,1.02339e-15,-9.61272e-16,0.0375313,0.0375313,-0.0723234,0.0,0.0,0.0,0.0621874,0.038244493625901876,0.0,0.0,0.038244493625901876,0.0,-0.06976998922476674
60,0.094972,693.859,734.775,-3.18258e-06,-3.07813e-33,6.56518e-16,-3.31712e-15,0.038494,0.038494,-0.0742372,0.0,0.0,0.0,0.0638736,0.03924449287232035,0.0,0.0,0.03924449287232035,0.0,-0.07154856096123974
61,0.097392,696.71,737.802,-3.18663e-06,-4.23221e-33,3.27687e-15,7.83559e-16,0.0394557,0.0394557,-0.0761494,0.0,0.0,0.0,0.0655585,0.04024441503662213,0.0,0.0,0.04024441503662213,0.0,-0.07332224943895727
62,0.099812,699.5,740.764,-3.18958e-06,-3.6516e-33,2.14629e-15,3.45614e-15,0.0404166,0.0404166,-0.0780601,0.0,0.0,0.0,0.0672422,0.041244466292708726,0.0,0.0,0.041244466292708726,0.0,-0.07509116214803901
63,0.1022,702.233,743.666,-3.19152e-06,-3.4894e-33,1.39802e-15,2.37586e-15,0.0413765,0.0413765,-0.0799691,0.0,0.0,0.0,0.0689246,0.042244436714925504,0.0,0.0,0.042244436714925504,0.0,-0.07685512887755586
64,0.1047,704.91,746.509,-3.19254e-06,-4.9079e-33,3.77785e-15,1.67138e-15,0.0423355,0.0423355,-0.0818765,0.0,0.0,0.0,0.0706057,0.043244428549180425,0.0,0.0,0.043244428549180425,0.0,-0.07861425719072801
65,0.1071,707.535,749.295,-3.19273e-06,-8.45954e-33,5.36228e-15,-7.29562e-15,0.0432936,0.0432936,-0.0837822,0.0,0.0,0.0,0.0722855,0.044244440015168696,0.0,0.0,0.044244440015168696,0.0,-0.08036846996825775
66,0.1095,710.109,752.027,-3.19215e-06,-6.18323e-33,6.51139e-16,-4.65856e-15,0.0442508,0.0442508,-0.0856863,0.0,0.0,0.0,0.0739639,0.04524446933082715,0.0,0.0,0.04524446933082715,0.0,-0.08211787431562945
67,0.1119,712.634,754.708,-3.19087e-06,-5.40889e-33,3.98215e-16,-8.48996e-17,0.045207,0.045207,-0.0875888,0.0,0.0,0.0,0.0756411,0.046244410087888266,0.0,0.0,0.046244410087888266,0.0,-0.08386248497263737
68,0.1143,715.113,757.339,-3.18896e-06,-4.66731e-33,2.29416e-16,2.92289e-15,0.0461624,0.0461624,-0.0894897,0.0,0.0,0.0,0.0773169,0.04724446964966855,0.0,0.0,0.04724446964966855,0.0,-0.08560231662806073
69,0.1168,717.547,759.922,-3.18646e-06,-4.96941e-33,1.16558e-16,-7.99663e-16,0.0471168,0.0471168,-0.0913889,0.0,0.0,0.0,0.0789914,0.048244436879960606,0.0,0.0,0.048244436879960606,0.0,-0.0873372926535877
70,0.1192,719.937,762.46,-3.18342e-06,-3.74018e-33,4.0957e-17,5.31467e-15,0.0480703,0.0480703,-0.0932864,0.0,0.0,0.0,0.0806646,0.04924441461414841,0.0,0.0,0.04924441461414841,0.0,-0.0890674281556062
71,0.1216,722.286,764.953,-3.17989e-06,-3.5749e-33,-9.79516e-18,3.63402e-15,0.0490229,0.0490229,-0.0951823,0.0,0.0,0.0,0.0823364,0.05024440106143513,0.0,0.0,0.05024440106143513,0.0,-0.09079282910791298
72,0.124,724.594,767.403,-3.1759e-06,-3.41658e-33,-4.39491e-17,2.52432e-15,0.0499747,0.0499747,-0.0970766,0.0,0.0,0.0,0.0840068,0.05124449955373711,0.0,0.0,0.05124449955373711,0.0,-0.09251350999429553
73,0.1264,726.864,769.812,-3.1715e-06,-8.3317e-33,5.75727e-15,-3.9454e-15,0.0509255,0.0509255,-0.0989692,0.0,0.0,0.0,0.0856759,0.052244498147909324,0.0,0.0,0.052244498147909324,0.0,-0.09422939467142799
74,0.1289,729.097,772.181,-3.16672e-06,-7.24714e-33,3.83265e-15,3.79449e-16,0.0518753,0.0518753,-0.10086,0.0,0.0,0.0,0.0873436,0.05324439474797682,0.0,0.0,0.05324439474797682,0.0,-0.09594040763057476
75,0.1313,731.293,774.512,-3.16157e-06,-2.99933e-33,-3.30237e-15,6.12639e-15,0.0528243,0.0528243,-0.102749,0.0,0.0,0.0,0.0890099,0.05424439810513504,0.0,0.0,0.05424439810513504,0.0,-0.09764656422831108
76,0.1337,733.455,776.806,-3.15611e-06,-3.37323e-33,-2.27229e-15,1.31107e-15,0.0537724,0.0537724,-0.104637,0.0,0.0,0.0,0.0906749,0.05524440119553553,0.0,0.0,0.05524440119553553,0.0,-0.09934860028742643
77,0.1361,735.582,779.064,-3.15034e-06,-3.22515e-33,-1.57705e-15,9.89691e-16,0.0547196,0.0547196,-0.106523,0.0,0.0,0.0,0.0923385,0.05624440221806659,0.0,0.0,0.05624440221806659,0.0,-0.10104562802709915
78,0.1385,737.678,781.287,-3.14429e-06,-5.39278e-33,1.8228e-15,-2.11022e-15,0.0556659,0.0556659,-0.108407,0.0,0.0,0.0,0.0940007,0.057244399369914545,0.0,0.0,0.057244399369914545,0.0,-0.10273766366584058
79,0.141,739.741,783.477,-3.13799e-06,-1.44667e-33,-4.67475e-15,4.49061e-15,0.0566114,0.0566114,-0.11029,0.0,0.0,0.0,0.0956615,0.05824449667101317,0.0,0.0,0.05824449667101317,0.0,-0.10442561893652347
80,0.1434,741.774,785.634,-3.13145e-06,-3.46277e-33,-2.7083e-16,2.21335e-16,0.0575559,0.0575559,-0.112171,0.0,0.0,0.0,0.0973209,0.05924448076626909,0.0,0.0,0.05924448076626909,0.0,-0.10610861099704627
81,0.1458,743.777,787.76,-3.12469e-06,-1.73543e-33,-3.16202e-15,2.63229e-16,0.0584995,0.0584995,-0.11405,0.0,0.0,0.0,0.0989789,0.06024445557223701,0.0,0.0,0.06024445557223701,0.0,-0.10778665590008207
82,0.1482,745.752,789.855,-3.11773e-06,-6.50298e-33,3.70301e-15,-5.50826e-15,0.0594422,0.0594422,-0.115928,0.0,0.0,0.0,0.100636,0.06124441927934421,0.0,0.0,0.06124441927934421,0.0,-0.10946066017828271
83,0.1506,747.698,791.92,-3.11058e-06,-5.61337e-33,2.48048e-15,-6.67887e-16,0.0603841,0.0603841,-0.117804,0.0,0.0,0.0,0.102291,0.062244476300782114,0.0,0.0,0.062244476300782114,0.0,-0.11112974588788105
84,0.1531,749.618,793.957,-3.10326e-06,-4.47671e-33,-1.30166e-15,-6.13925e-15,0.061325,0.061325,-0.119678,0.0,0.0,0.0,0.103945,0.06324441247473667,0.0,0.0,0.06324441247473667,0.0,-0.11279392891755469
85,0.1555,751.511,795.966,-3.09578e-06,-4.28716e-33,-9.27422e-16,-3.99612e-15,0.0622651,0.0622651,-0.121551,0.0,0.0,0.0,0.105597,0.06424443853550321,0.0,0.0,0.06424443853550321,0.0,-0.11445411064316191
86,0.1579,753.378,797.947,-3.08815e-06,-6.0222e-33,2.28399e-15,-2.55533e-15,0.0632043,0.0632043,-0.123422,0.0,0.0,0.0,0.107248,0.06524444644238003,0.0,0.0,0.06524444644238003,0.0,-0.11610941797924912
87,0.1603,755.221,799.902,-3.08038e-06,-5.15135e-33,1.51899e-15,1.33046e-15,0.0641426,0.0641426,-0.125291,0.0,0.0,0.0,0.108898,0.06624443437745042,0.0,0.0,0.06624443437745042,0.0,-0.11775986665232074
88,0.1627,757.04,801.832,-3.07249e-06,-5.55549e-33,9.95938e-16,-1.88856e-15,0.06508,0.06508,-0.127159,0.0,0.0,0.0,0.110546,0.06724440052114344,0.0,0.0,0.06724440052114344,0.0,-0.119406352924462
89,0.1652,758.835,803.736,-3.06449e-06,-4.08247e-33,6.37899e-16,4.70623e-15,0.0660166,0.0660166,-0.129025,0.0,0.0,0.0,0.112193,0.06824444987667944,0.0,0.0,0.06824444987667944,0.0,-0.12104800852887843
90,0.1676,760.607,805.616,-3.05637e-06,-3.79392e-33,-2.57579e-15,-8.39028e-15,0.0669523,0.0669523,-0.130889,0.0,0.0,0.0,0.113838,0.0692444739967506,0.0,0.0,0.0692444739967506,0.0,-0.12268484903169896
91,0.17,762.357,807.472,-3.04816e-06,-4.07824e-33,4.13316e-15,6.18082e-15,0.0678871,0.0678871,-0.132752,0.0,0.0,0.0,0.115482,0.07024447105684795,0.0,0.0,0.07024447105684795,0.0,-0.12431776562385766
92,0.1724,764.085,809.306,-3.03986e-06,-6.1007e-33,2.79174e-15,-4.47583e-15,0.068821,0.068821,-0.134613,0.0,0.0,0.0,0.117124,0.07124443923082846,0.0,0.0,0.07124443923082846,0.0,-0.12594589481792196
93,0.1748,765.792,811.117,-3.03147e-06,-4.37685e-33,1.86994e-15,2.97566e-15,0.0697541,0.0697541,-0.136472,0.0,0.0,0.0,0.118766,0.07224448391536265,0.0,0.0,0.07224448391536265,0.0,-0.1275692520214241
94,0.1773,767.478,812.906,-3.02301e-06,-4.92056e-33,1.23584e-15,-7.82205e-16,0.0706863,0.0706863,-0.13833,0.0,0.0,0.0,0.120405,0.07324449625660368,0.0,0.0,0.07324449625660368,0.0,-0.129188723396371
95,0.1797,769.144,814.673,-3.01448e-06,-2.28279e-33,-2.1835e-15,2.54709e-15,0.0716176,0.0716176,-0.140186,0.0,0.0,0.0,0.122044,0.07424447442352577,0.0,0.0,0.07424447442352577,0.0,-0.1308034501957519
96,0.1821,770.791,816.42,-3.00588e-06,-4.03642e-33,-1.55502e-15,-6.96109e-15,0.072548,0.072548,-0.14204,0.0,0.0,0.0,0.123681,0.07524441658348935,0.0,0.0,0.07524441658348935,0.0,-0.13241344767025753
97,0.1845,772.419,818.146,-2.99723e-06,-3.85985e-33,-1.12162e-15,-4.59053e-15,0.0734776,0.0734776,-0.143893,0.0,0.0,0.0,0.125316,0.07624442852668256,0.0,0.0,0.07624442852668256,0.0,-0.13401959699480137
98,0.1869,774.027,819.853,-2.98852e-06,-5.83428e-33,5.15937e-15,2.91928e-15,0.0744063,0.0744063,-0.145744,0.0,0.0,0.0,0.12695,0.07724440099279839,0.0,0.0,0.07724440099279839,0.0,-0.13562104412420573
99,0.1894,775.618,821.54,-2.97976e-06,-4.28862e-33,5.19552e-16,-8.16845e-16,0.0753342,0.0753342,-0.147593,0.0,0.0,0.0,0.128583,0.07824443996881003,0.0,0.0,0.07824443996881003,0.0,-0.1372178041540556
100,0.1918,777.191,823.209,-2.97096e-06,-4.10051e-33,3.06205e-16,-4.10614e-16,0.0762612,0.0762612,-0.149441,0.0,0.0,0.0,0.130214,0.07924443599120679,0.0,0.0,0.07924443599120679,0.0,-0.1388107533136148
101,0.1942,778.746,824.859,-2.96212e-06,-2.39418e-33,-2.84053e-15,-3.08938e-15,0.0771874,0.0771874,-0.151287,0.0,0.0,0.0,0.131844,0.08024449524377042,0.0,0.0,0.08024449524377042,0.0,-0.14039904222129984
102,0.1966,780.285,826.49,-2.95324e-06,-3.51629e-33,6.98494e-15,9.87563e-15,0.0781126,0.0781126,-0.153132,0.0,0.0,0.0,0.133472,0.08124439993535426,0.0,0.0,0.08124439993535426,0.0,-0.14198354383618805
103,0.199,781.806,828.105,-2.94434e-06,-1.99493e-33,-1.22125e-15,-4.95204e-15,0.0790371,0.0790371,-0.154974,0.0,0.0,0.0,0.135099,0.0822444725954512,0.0,0.0,0.0822444725954512,0.0,-0.14356255543230112
104,0.2015,783.312,829.701,-2.9354e-06,-1.88661e-33,-9.04255e-16,-3.24208e-15,0.0799607,0.0799607,-0.156816,0.0,0.0,0.0,0.136725,0.08324449532975087,0.0,0.0,0.08324449532975087,0.0,-0.14513866116617458
105,0.2039,784.802,831.282,-2.92644e-06,3.07572e-33,-6.70257e-15,3.86293e-15,0.0808834,0.0808834,-0.158655,0.0,0.0,0.0,0.138349,0.08424446629124893,0.0,0.0,0.08424446629124893,0.0,-0.1467093065172399
106,0.2063,786.276,832.845,-2.91745e-06,-8.49716e-34,1.31271e-15,2.79512e-15,0.0818053,0.0818053,-0.160493,0.0,0.0,0.0,0.139972,0.0852444921558182,0.0,0.0,0.0852444921558182,0.0,-0.14827621438241678
107,0.2087,787.735,834.393,-2.90845e-06,-7.85757e-34,8.61849e-16,2.06272e-15,0.0827263,0.0827263,-0.162329,0.0,0.0,0.0,0.141593,0.08624446274886743,0.0,0.0,0.08624446274886743,0.0,-0.1498385445948046
108,0.2111,789.179,835.924,-2.89943e-06,-3.6069e-33,3.56442e-15,-1.41434e-15,0.0836465,0.0836465,-0.164164,0.0,0.0,0.0,0.143213,0.08724448494313486,0.0,0.0,0.08724448494313486,0.0,-0.1513971603981229
109,0.2136,790.608,837.44,-2.8904e-06,-1.40563e-33,-5.90314e-16,-8.2681e-16,0.0845658,0.0845658,-0.165997,0.0,0.0,0.0,0.144832,0.08824444836090461,0.0,0.0,0.08824444836090461,0.0,-0.15295122466808597
110,0.216,792.023,838.941,-2.88136e-06,-1.02544e-32,8.5976e-15,-6.38103e-15,0.0854843,0.0854843,-0.167828,0.0,0.0,0.0,0.146449,0.08924446007179787,0.0,0.0,0.08924446007179787,0.0,-0.15450075195058455
111,0.2184,793.424,840.427,-2.8723e-06,-4.6997e-33,-1.08283e-16,-1.25867e-15,0.0864019,0.0864019,-0.169658,0.0,0.0,0.0,0.148065,0.09024440949499302,0.0,0.0,0.09024440949499302,0.0,-0.15604660069150944
112,0.2208,794.812,841.899,-2.86324e-06,-1.09403e-32,8.94069e-15,-7.13482e-16,0.0873187,0.0873187,-0.171486,0.0,0.0,0.0,0.149679,0.09124440389700861,0.0,0.0,0.09124440389700861,0.0,-0.1575879382936678
113,0.2232,796.186,843.356,-2.85418e-06,-1.05051e-32,6.1813e-15,-3.37252e-16,0.0882347,0.0882347,-0.173313,0.0,0.0,0.0,0.151292,0.09224444171837654,0.0,0.0,0.09224444171837654,0.0,-0.1591256200304162
114,0.2257,797.547,844.8,-2.84511e-06,-8.89787e-33,1.21886e-15,-3.0663e-15,0.0891498,0.0891498,-0.175137,0.0,0.0,0.0,0.152903,0.09324441207364731,0.0,0.0,0.09324441207364731,0.0,-0.1606579769651133
115,0.2281,798.895,846.229,-2.83604e-06,-4.57865e-33,-2.25656e-15,4.0235e-15,0.0900641,0.0900641,-0.176961,0.0,0.0,0.0,0.154514,0.09424442252472098,0.0,0.0,0.09424442252472098,0.0,-0.16218754142826985
116,0.2305,800.23,847.645,-2.82698e-06,-8.78853e-33,1.37909e-15,-3.05115e-15,0.0909776,0.0909776,-0.178782,0.0,0.0,0.0,0.156122,0.0952444715075269,0.0,0.0,0.0952444715075269,0.0,-0.16371180964790366
117,0.2329,801.553,849.049,-2.81791e-06,-8.43285e-33,8.9081e-16,-1.952e-15,0.0918902,0.0918902,-0.180602,0.0,0.0,0.0,0.15773,0.09624444783201991,0.0,0.0,0.09624444783201991,0.0,-0.16523246993373153
118,0.2353,802.864,850.439,-2.80885e-06,-8.08991e-33,5.47887e-16,-1.19072e-15,0.092802,0.092802,-0.182421,0.0,0.0,0.0,0.159335,0.09724445935552417,0.0,0.0,0.09724445935552417,0.0,-0.16674953188477815
119,0.2378,804.163,851.816,-2.7998e-06,-1.0984e-32,3.06833e-16,-9.66477e-15,0.0937129,0.0937129,-0.184237,0.0,0.0,0.0,0.16094,0.09824439468495627,0.0,0.0,0.09824439468495627,0.0,-0.16826134159617978
120,0.2402,805.45,853.181,-2.79075e-06,-8.39814e-33,1.37224e-16,-5.24041e-16,0.0946231,0.0946231,-0.186053,0.0,0.0,0.0,0.162543,0.09924447179904927,0.0,0.0,0.09924447179904927,0.0,-0.16977040835250257
121,0.242,806.415,854.204,-1.18021e-06,-1.03065e-32,3.99463e-17,-6.75e-15,0.0953102,0.0953102,-0.187423,0.0,0.0,0.0,0.163753,0.10000002221524285,0.0,0.0,0.10000002221524285,0.0,-0.17090704411977975
