,Time,S11,S22,S33,S12,S13,S23,LE11,LE22,LE33,LE12,LE13,LE23,SDV_EPBAR,E11,E12,E13,E22,E23,E33
0,2.42e-07,0.029678,0.029678,1.04083e-17,0.0,0.0,0.0,1e-07,1e-07,-8.57143e-08,0.0,0.0,0.0,0.0,1.0000000494336803e-07,0.0,0.0,1.0000000494336803e-07,0.0,-8.571429632731054e-08
1,4.84e-07,0.059356,0.059356,3.46945e-18,0.0,0.0,0.0,2e-07,2e-07,-1.71429e-07,0.0,0.0,0.0,0.0,2.0000002010078788e-07,0.0,0.0,2.0000002010078788e-07,0.0,-1.7142898534050488e-07
2,8.47e-07,0.103873,0.103873,3.46945e-18,0.0,0.0,0.0,3.5e-07,3.5e-07,-3e-07,0.0,0.0,0.0,0.0,3.5000006115559756e-07,0.0,0.0,3.5000006115559756e-07,0.0,-2.9999995498908305e-07
3,1.3915e-06,0.170648,0.170648,-1.73472e-17,0.0,0.0,0.0,5.75e-07,5.75e-07,-4.92857e-07,0.0,0.0,0.0,0.0,5.750001652593539e-07,0.0,0.0,5.750001652593539e-07,0.0,-4.928568785311782e-07
4,2.2083e-06,0.270812,0.270812,-3.46945e-18,0.0,0.0,0.0,9.125e-07,9.125e-07,-7.82142e-07,0.0,0.0,0.0,0.0,9.125004163390571e-07,0.0,0.0,9.125004163390571e-07,0.0,-7.821416940778647e-07
5,3.4334e-06,0.421056,0.421056,5.20417e-17,0.0,0.0,0.0,1.41875e-06,1.41875e-06,-1.21607e-06,0.0,0.0,0.0,0.0,1.4187510064544995e-06,0.0,0.0,1.4187510064544995e-06,0.0,-1.2160692606233425e-06
6,5.2711e-06,0.646423,0.646423,2.42861e-17,0.0,0.0,0.0,2.17812e-06,2.17812e-06,-1.86696e-06,0.0,0.0,0.0,0.0,2.178122372020752e-06,0.0,0.0,2.178122372020752e-06,0.0,-1.8669582572128363e-06
7,8.0276e-06,0.984473,0.984473,1.35308e-16,0.0,0.0,0.0,3.31718e-06,3.31718e-06,-2.8433e-06,0.0,0.0,0.0,0.0,3.317185501838793e-06,0.0,0.0,3.317185501838793e-06,0.0,-2.8432959577884276e-06
8,1.2162e-05,1.49155,1.49155,4.68375e-16,0.0,0.0,0.0,5.02577e-06,5.02577e-06,-4.3078e-06,0.0,0.0,0.0,0.0,5.025782629175524e-06,0.0,0.0,5.025782629175524e-06,0.0,-4.307790721469473e-06
9,1.8365e-05,2.25216,2.25216,3.57353e-16,0.0,0.0,0.0,7.58864e-06,7.58864e-06,-6.50455e-06,0.0,0.0,0.0,0.0,7.5886687938009345e-06,0.0,0.0,7.5886687938009345e-06,0.0,-6.50452884543018e-06
10,2.7668e-05,3.39307,3.39307,-3.08781e-16,0.0,0.0,0.0,1.14329e-05,1.14329e-05,-9.79967e-06,0.0,0.0,0.0,0.0,1.1432965355773206e-05,0.0,0.0,1.1432965355773206e-05,0.0,-9.799621983441753e-06
11,4.1623e-05,5.10443,5.10443,-7.5287e-16,0.0,0.0,-1.23207e-38,1.71994e-05,1.71994e-05,-1.47423e-05,0.0,0.0,0.0,0.0,1.7199547910573543e-05,0.0,0.0,1.7199547910573543e-05,0.0,-1.4742191332794974e-05
12,6.2555e-05,7.67145,7.67145,-1.64105e-15,0.0,0.0,-2.77213e-38,2.58489e-05,2.58489e-05,-2.21562e-05,0.0,0.0,0.0,0.0,2.5849234085661976e-05,0.0,0.0,2.5849234085661976e-05,0.0,-2.2155954553237933e-05
13,9.3954e-05,11.5219,11.5219,-8.30239e-15,0.0,0.0,-6.23724e-38,3.88231e-05,3.88231e-05,-3.3277e-05,0.0,0.0,0.0,0.0,3.882385362641294e-05,0.0,0.0,3.8823853626190896e-05,0.0,-3.327644632677984e-05
14,0.00014105,17.2976,17.2976,-4.47177e-14,0.0,0.0,-1.40336e-37,5.82842e-05,5.82842e-05,-4.99578e-05,0.0,0.0,0.0,0.0,5.828589855694233e-05,0.0,0.0,5.828589855694233e-05,0.0,-4.995655212991501e-05
15,0.0002117,25.9608,25.9608,-2.25018e-13,0.0,0.0,-3.1575e-37,8.7475e-05,8.7475e-05,-7.49785e-05,0.0,0.0,0.0,0.0,8.747882604942525e-05,0.0,0.0,8.747882604942525e-05,0.0,-7.4975689182466e-05
16,0.00031767,38.9552,38.9552,-1.14339e-12,0.0,0.0,-7.10416e-37,0.00013126,0.00013126,-0.000112508,0.0,0.0,0.0,0.0,0.0001312686149708142,0.0,0.0,0.0001312686149708142,0.0,-0.00011250167121223953
17,0.00047662,58.4457,58.4457,-5.85252e-12,0.0,0.0,-1.59836e-36,0.000196933,0.000196933,-0.0001688,0.0,0.0,0.0,0.0,0.00019695239257622177,0.0,0.0,0.00019695239257622177,0.0,-0.00016878575408152408
18,0.00071506,87.6791,87.6791,-2.95989e-11,0.0,0.0,-3.59607e-36,0.000295435,0.000295435,-0.00025323,0.0,0.0,0.0,0.0,0.00029547864521761724,0.0,0.0,0.00029547864521761724,0.0,-0.00025319793998968
19,0.0010727,131.524,131.524,-1.49709e-10,0.0,0.0,-8.09034e-36,0.000443169,0.000443169,-0.000379859,0.0,0.0,0.0,0.0,0.0004432672138892091,0.0,0.0,0.0004432672138892091,0.0,-0.0003797868627043455
20,0.0016092,197.279,197.279,-7.57628e-10,0.0,0.0,-1.82005e-35,0.00066473,0.00066473,-0.000569769,0.0,0.0,0.0,0.0,0.0006649509819482979,0.0,0.0,0.0006649509819480759,0.0,-0.0005696067124669746
21,0.0024139,295.884,295.884,-3.83263e-09,0.0,0.0,-4.09417e-35,0.00099698,0.00099698,-0.000854554,0.0,0.0,0.0,0.0,0.0009974771497625046,0.0,0.0,0.0009974771497625046,0.0,-0.0008541889727163854
22,0.003621,430.518,431.871,0.00178,0.0,0.0,8.42697e-33,0.00149515,0.00149515,-0.00132982,0.0,0.0,0.0,7.63649e-05,0.0014962682940309335,0.0,0.0,0.0014962682940309335,0.0,-0.0013289361812005573
23,0.0054316,451.218,465.739,0.178081,4.46339e-34,-2.74832e-15,-5.40379e-15,0.00224193,0.00224193,-0.00271799,0.0,0.0,0.0,0.0012611,0.0022444450041991804,0.0,0.0,0.0022444450041989583,0.0,-0.0027142996094187133
24,0.0078516,473.257,498.351,0.000137938,3.0782e-34,-1.56593e-15,-5.94595e-16,0.0032392,0.0032392,-0.00460763,0.0,0.0,0.0,0.00289852,0.003244451877416177,0.0,0.0,0.003244451877416177,0.0,-0.004597031157654641
25,0.010272,491.605,523.285,1.69974e-05,3.98018e-34,-8.97786e-16,-2.77729e-15,0.00423547,0.00423547,-0.00651683,0.0,0.0,0.0,0.00456995,0.004244452279975608,0.0,0.0,0.004244452279975608,0.0,-0.006495641515610995
26,0.012692,507.407,543.372,2.26064e-06,2.63332e-34,2.00306e-15,8.96402e-16,0.00523074,0.00523074,-0.00843829,0.0,0.0,0.0,0.00626258,0.0052444442044314865,0.0,0.0,0.0052444442044314865,0.0,-0.008402787561077596
27,0.015112,521.326,560.225,4.25549e-07,2.47364e-34,1.17847e-15,5.24645e-16,0.00622503,0.00622503,-0.0103676,0.0,0.0,0.0,0.0079693,0.006244445766251383,0.0,0.0,0.006244445766251383,0.0,-0.010314041685315689
28,0.017532,533.768,574.787,1.78467e-07,2.32592e-34,6.9872e-16,3.12578e-16,0.00721833,0.00721833,-0.0123022,0.0,0.0,0.0,0.00968589,0.007244444941601369,0.0,0.0,0.007244444941601147,0.0,-0.012226837296495208
29,0.019952,545.016,587.65,-2.52074e-08,2.18907e-34,4.17194e-16,1.90591e-16,0.00821065,0.00821065,-0.0142404,0.0,0.0,0.0,0.0114096,0.008244449829572176,0.0,0.0,0.008244449829572176,0.0,-0.014139485094708637
30,0.022372,555.276,599.201,-3.03019e-07,2.06207e-34,2.50703e-16,1.19905e-16,0.00920198,0.00920198,-0.0161811,0.0,0.0,0.0,0.0131387,0.009244448382409898,0.0,0.0,0.009244448382409898,0.0,-0.01605088926503584
31,0.024792,564.707,609.707,-6.13346e-07,1.94402e-34,1.51543e-16,7.86896e-17,0.0101923,0.0101923,-0.0181234,0.0,0.0,0.0,0.0148717,0.010244418407964417,0.0,0.0,0.010244418407964417,0.0,-0.017960158835441886
32,0.027212,573.433,619.359,-9.20138e-07,1.83412e-34,9.21029e-17,5.45361e-17,0.0111817,0.0111817,-0.0200668,0.0,0.0,0.0,0.0166078,0.011244448869027979,0.0,0.0,0.011244448869027979,0.0,-0.01986680177772937
33,0.029632,581.554,628.299,-1.20497e-06,1.73165e-34,5.62597e-17,4.03305e-17,0.0121701,0.0121701,-0.0220107,0.0,0.0,0.0,0.0183461,0.012244457004898734,0.0,0.0,0.012244457004898956,0.0,-0.021770232063305972
34,0.032052,589.151,636.634,-1.45609e-06,1.63598e-34,3.45271e-17,3.19616e-17,0.0131575,0.0131575,-0.0239549,0.0,0.0,0.0,0.0200862,0.013244440792496093,0.0,0.0,0.013244440792496315,0.0,-0.02367025876367823
35,0.034472,596.289,644.448,-1.68201e-06,1.54655e-34,2.12829e-17,2.70367e-17,0.0141439,0.0141439,-0.025899,0.0,0.0,0.0,0.0218274,0.014244398206812336,0.0,0.0,0.014244398206812114,0.0,-0.025566497577436564
36,0.036892,603.023,651.807,-1.87967e-06,1.46285e-34,1.31733e-17,2.41539e-17,0.0151294,0.0151294,-0.0278428,0.0,0.0,0.0,0.0235696,0.015244428745356142,0.0,0.0,0.015244428745356142,0.0,-0.027458761732109482
37,0.039312,609.398,658.766,-2.05182e-06,1.38444e-34,8.18553e-18,2.24871e-17,0.0161139,0.0161139,-0.0297861,0.0,0.0,0.0,0.0253123,0.016244429054838472,0.0,0.0,0.01624442905483825,0.0,-0.02934686594978364
38,0.041732,615.453,665.37,-2.2015e-06,1.3109e-34,5.10503e-18,2.15467e-17,0.0170975,0.0170975,-0.0317288,0.0,0.0,0.0,0.0270553,0.017244498828943522,0.0,0.0,0.017244498828943522,0.0,-0.031230723315964326
39,0.044152,621.22,671.655,-2.33161e-06,1.24188e-34,3.19496e-18,2.10413e-17,0.01808,0.01808,-0.0336707,0.0,0.0,0.0,0.0287984,0.01824443268611331,0.0,0.0,0.01824443268611331,0.0,-0.03311015095348602
40,0.046572,626.727,677.653,-2.4448e-06,1.17703e-34,2.0062e-18,2.07966e-17,0.0190616,0.0190616,-0.0356117,0.0,0.0,0.0,0.0305415,0.019244432140675505,0.0,0.0,0.019244432140675505,0.0,-0.0349850639587721
41,0.048992,631.997,683.391,-2.54338e-06,1.11606e-34,1.26375e-18,2.07078e-17,0.0200423,0.0200423,-0.0375518,0.0,0.0,0.0,0.0322843,0.02024449545617002,0.0,0.0,0.020244495456169798,0.0,-0.03685547445779769
42,0.051412,637.052,688.892,-2.62936e-06,1.05869e-34,7.98471e-19,2.07118e-17,0.0210219,0.0210219,-0.0394909,0.0,0.0,0.0,0.0340268,0.02124441664535559,0.0,0.0,0.02124441664535537,0.0,-0.038721298413018856
43,0.053832,641.909,694.177,-2.70444e-06,1.00467e-34,5.0596e-19,2.71098e-15,0.0220006,0.0220006,-0.0414288,0.0,0.0,0.0,0.0357688,0.022244397816892914,0.0,0.0,0.022244397816892914,0.0,-0.040582356554111576
44,0.056252,646.585,699.263,-2.77009e-06,9.53778e-35,3.21499e-19,4.39141e-15,0.0229784,0.0229784,-0.0433655,0.0,0.0,0.0,0.0375102,0.02324443722866909,0.0,0.0,0.02324443722866909,0.0,-0.04243866257002238
45,0.058672,651.092,704.165,-2.82754e-06,6.47427e-34,-2.75147e-15,-5.37319e-15,0.0239552,0.0239552,-0.045301,0.0,0.0,0.0,0.039251,0.024244430712260456,0.0,0.0,0.024244430712260456,0.0,-0.04429023010611277
46,0.061092,655.445,708.897,-2.87786e-06,5.03535e-34,1.00928e-15,-6.46317e-16,0.0249311,0.0249311,-0.0472352,0.0,0.0,0.0,0.0409911,0.02524447874626201,0.0,0.0,0.02524447874626201,0.0,-0.04613697737801137
47,0.063512,659.652,713.471,-2.92195e-06,4.78535e-34,6.46288e-16,2.32043e-15,0.025906,0.025906,-0.0491681,0.0,0.0,0.0,0.0427303,0.026244476958517948,0.0,0.0,0.026244476958517948,0.0,-0.04797891849696978
48,0.065932,663.726,717.899,-2.96058e-06,4.54925e-34,4.14841e-16,-1.26148e-15,0.0268799,0.0268799,-0.0510996,0.0,0.0,0.0,0.0444687,0.02724442329946286,0.0,0.0,0.02724442329946264,0.0,-0.04981597250985659
49,0.068352,667.674,722.189,-2.9944e-06,-1.24978e-34,-2.51177e-15,7.40785e-15,0.0278529,0.0278529,-0.0530298,0.0,0.0,0.0,0.0462062,0.028244418542125116,0.0,0.0,0.028244418542124894,0.0,-0.05164824882097829
50,0.070772,671.504,726.351,-3.024e-06,-1.18886e-34,1.17339e-15,-7.96012e-16,0.028825,0.028825,-0.0549585,0.0,0.0,0.0,0.0479428,0.02924446093324229,0.0,0.0,0.02924446093324229,0.0,-0.05347557209782272
51,0.073192,675.224,730.393,-3.04984e-06,7.79307e-34,-2.0327e-15,-1.14864e-14,0.0297961,0.0297961,-0.0568858,0.0,0.0,0.0,0.0496783,0.030244445693269784,0.0,0.0,0.030244445693269784,0.0,-0.05529805183099257
52,0.075612,678.84,734.321,-3.07237e-06,-4.86828e-34,-4.10502e-15,6.47078e-15,0.0307663,0.0307663,-0.0588116,0.0,0.0,0.0,0.0514128,0.03124447388971663,0.0,0.0,0.03124447388971663,0.0,-0.05711560815605943
53,0.078032,682.359,738.143,-3.09194e-06,-2.39938e-34,-2.64745e-15,1.36553e-15,0.0317355,0.0317355,-0.060736,0.0,0.0,0.0,0.0531462,0.032244440539372476,0.0,0.0,0.032244440539372476,0.0,-0.05892835009999564
54,0.080452,685.785,741.864,-3.10887e-06,2.18736e-34,3.91121e-15,6.39848e-15,0.0327038,0.0327038,-0.0626588,0.0,0.0,0.0,0.0548785,0.03324444690609507,0.0,0.0,0.03324444690609485,0.0,-0.06073610413672981
55,0.082872,689.124,745.491,-3.12345e-06,6.55716e-34,-3.0792e-15,-1.45134e-15,0.0336712,0.0336712,-0.0645801,0.0,0.0,0.0,0.0566096,0.03424449122747819,0.0,0.0,0.03424449122747819,0.0,-0.06253897937316244
56,0.085292,692.38,749.027,-3.13592e-06,6.25102e-34,8.25493e-16,1.84144e-15,0.0346376,0.0346376,-0.0664999,0.0,0.0,0.0,0.0583396,0.03524446821485494,0.0,0.0,0.03524446821485494,0.0,-0.06433699057737285
57,0.087712,695.558,752.477,-3.14648e-06,4.84508e-34,5.4792e-16,3.95528e-15,0.0356031,0.0356031,-0.0684181,0.0,0.0,0.0,0.0600684,0.03624447942664566,0.0,0.0,0.03624447942664566,0.0,-0.06613005908024816
58,0.090132,698.662,755.847,-3.15534e-06,5.7444e-34,-2.46199e-15,-2.50535e-16,0.0365676,0.0365676,-0.0703347,0.0,0.0,0.0,0.061796,0.037244419370573656,0.0,0.0,0.037244419370573434,0.0,-0.06791820008611593
59,0.092552,701.695,759.14,-3.16266e-06,6.59359e-34,1.23489e-15,-5.74733e-15,0.0375313,0.0375313,-0.0722498,0.0,0.0,0.0,0.0635224,0.038244493625901876,0.0,0.0,0.038244493625901876,0.0,-0.06970152177640254
60,0.094972,704.66,762.359,-3.16858e-06,6.28525e-34,8.19859e-16,-3.70942e-15,0.038494,0.038494,-0.0741633,0.0,0.0,0.0,0.0652475,0.03924449287232035,0.0,0.0,0.03924449287232035,0.0,-0.07147994586459816
61,0.097392,707.561,765.507,-3.17323e-06,4.87577e-34,5.47966e-16,4.03067e-16,0.0394557,0.0394557,-0.0760752,0.0,0.0,0.0,0.0669713,0.04024441503662213,0.0,0.0,0.04024441503662213,0.0,-0.07325348739882531
62,0.099812,710.4,768.589,-3.17674e-06,4.6522e-34,3.69551e-16,2.61595e-16,0.0404166,0.0404166,-0.0779855,0.0,0.0,0.0,0.0686939,0.041244466292708726,0.0,0.0,0.041244466292708726,0.0,-0.07502216137503848
63,0.1022,713.181,771.607,-3.17921e-06,5.56029e-34,3.10499e-15,2.97777e-15,0.0413765,0.0413765,-0.0798942,0.0,0.0,0.0,0.0704151,0.042244436714925504,0.0,0.0,0.042244436714925504,0.0,-0.07678598273721826
64,0.1047,715.905,774.564,-3.18073e-06,5.30756e-34,2.05399e-15,1.93079e-15,0.0423355,0.0423355,-0.0818013,0.0,0.0,0.0,0.0721351,0.043244428549180425,0.0,0.0,0.0432444285491802,0.0,-0.0785449663775668
65,0.1071,718.576,777.463,-3.18138e-06,8.42691e-34,-1.50069e-15,-4.38224e-15,0.0432936,0.0432936,-0.0837067,0.0,0.0,0.0,0.0738537,0.044244440015168696,0.0,0.0,0.04424444001516892,0.0,-0.08029903516660963
66,0.1095,721.195,780.305,-3.18123e-06,1.25285e-33,4.74403e-15,2.78784e-15,0.0442508,0.0442508,-0.0856106,0.0,0.0,0.0,0.0755711,0.04524446933082715,0.0,0.0,0.04524446933082693,0.0,-0.08204838800869174
67,0.1119,723.764,783.093,-3.18037e-06,2.54098e-33,-5.4658e-15,-6.6602e-15,0.045207,0.045207,-0.0875127,0.0,0.0,0.0,0.077287,0.046244410087888266,0.0,0.0,0.046244410087888266,0.0,-0.08379276425490412
68,0.1143,726.286,785.829,-3.17884e-06,2.20276e-33,-7.46552e-16,-1.51738e-15,0.0461624,0.0461624,-0.0894133,0.0,0.0,0.0,0.0790016,0.04724446964966855,0.0,0.0,0.047244469649668774,0.0,-0.0855324539763318
69,0.1168,728.762,788.516,-3.17671e-06,2.21623e-33,-4.89237e-16,-3.82085e-15,0.0471168,0.0471168,-0.0913122,0.0,0.0,0.0,0.0807149,0.048244436879960606,0.0,0.0,0.048244436879960606,0.0,-0.08726728873931855
70,0.1192,731.193,791.154,-3.17402e-06,1.66979e-33,-3.18218e-16,8.85623e-15,0.0480703,0.0480703,-0.0932095,0.0,0.0,0.0,0.0824268,0.04924441461414841,0.0,0.0,0.04924441461414841,0.0,-0.0889973747473124
71,0.1216,733.583,793.746,-3.17081e-06,1.03525e-33,5.56761e-15,-2.71441e-15,0.0490229,0.0490229,-0.0951051,0.0,0.0,0.0,0.0841373,0.05024440106143513,0.0,0.0,0.05024440106143513,0.0,-0.09072263560488592
72,0.124,735.931,796.294,-3.16714e-06,1.55025e-33,-2.0628e-15,-4.6255e-15,0.0499747,0.0499747,-0.0969991,0.0,0.0,0.0,0.0858464,0.05124449955373711,0.0,0.0,0.05124449955373689,0.0,-0.09244317706595417
73,0.1264,738.24,798.799,-3.16303e-06,6.97111e-34,-4.26734e-15,5.51269e-15,0.0509255,0.0509255,-0.0988915,0.0,0.0,0.0,0.0875542,0.052244498147909324,0.0,0.0,0.052244498147909324,0.0,-0.09415901356112333
74,0.1289,740.511,801.263,-3.15852e-06,7.78621e-34,5.13039e-17,-2.07281e-15,0.0518753,0.0518753,-0.100782,0.0,0.0,0.0,0.0892605,0.05324439474797682,0.0,0.0,0.05324439474797682,0.0,-0.09586988823214926
75,0.1313,742.746,803.687,-3.15365e-06,1.83891e-34,-2.85829e-15,4.35067e-15,0.0528243,0.0528243,-0.102671,0.0,0.0,0.0,0.0909655,0.05424439810513504,0.0,0.0,0.05424439810513526,0.0,-0.0975761779152905
76,0.1337,744.944,806.072,-3.14843e-06,4.00547e-34,-1.90564e-15,1.26835e-17,0.0537724,0.0537724,-0.104559,0.0,0.0,0.0,0.092669,0.05524440119553553,0.0,0.0,0.05524440119553553,0.0,-0.0992783467383962
77,0.1361,747.109,808.42,-3.1429e-06,3.82922e-34,1.64162e-15,-2.85561e-15,0.0547196,0.0547196,-0.106444,0.0,0.0,0.0,0.0943712,0.05624440221806659,0.0,0.0,0.05624440221806659,0.0,-0.1009746078264524
78,0.1385,749.24,810.731,-3.13709e-06,3.66117e-34,1.1149e-15,-1.88772e-15,0.0556659,0.0556659,-0.108328,0.0,0.0,0.0,0.0960719,0.057244399369914545,0.0,0.0,0.057244399369914545,0.0,-0.10266677714128936
79,0.141,751.339,813.008,-3.131e-06,3.5009e-34,7.60729e-16,-1.24666e-15,0.0566114,0.0566114,-0.110211,0.0,0.0,0.0,0.0977712,0.05824449667101317,0.0,0.0,0.05824449667101317,0.0,-0.10435486576570596
80,0.1434,753.406,815.251,-3.12467e-06,3.34803e-34,5.22293e-16,-8.21527e-16,0.0575559,0.0575559,-0.112091,0.0,0.0,0.0,0.0994691,0.05924448076626909,0.0,0.0,0.05924448076626909,0.0,-0.1060370968253973
81,0.1458,755.444,817.46,-3.11811e-06,4.32303e-34,3.61589e-16,-3.4172e-15,0.0584995,0.0584995,-0.11397,0.0,0.0,0.0,0.101166,0.06024445557223701,0.0,0.0,0.06024445557223701,0.0,-0.10771527597739505
82,0.1482,757.452,819.638,-3.11133e-06,3.01205e-34,2.53156e-16,6.18072e-16,0.0594422,0.0594422,-0.115848,0.0,0.0,0.0,0.102861,0.06124441927934421,0.0,0.0,0.06124441927934399,0.0,-0.10938941418129522
83,0.1506,759.432,821.786,-3.10437e-06,2.88137e-34,1.79913e-16,4.20929e-16,0.0603841,0.0603841,-0.117724,0.0,0.0,0.0,0.104554,0.062244476300782114,0.0,0.0,0.06224447630078189,0.0,-0.11105863342309141
84,0.1531,761.384,823.903,-3.09722e-06,3.87797e-34,1.3039e-16,-2.59833e-15,0.061325,0.061325,-0.119598,0.0,0.0,0.0,0.106247,0.06324441247473667,0.0,0.0,0.06324441247473667,0.0,-0.11272294959273277
85,0.1555,763.31,825.991,-3.08991e-06,4.83005e-34,9.68745e-17,-4.61404e-15,0.0622651,0.0622651,-0.12147,0.0,0.0,0.0,0.107937,0.06424443853550321,0.0,0.0,0.06424443853550321,0.0,-0.1143823785210123
86,0.1579,765.209,828.051,-3.08244e-06,2.37471e-34,7.41731e-17,2.72134e-15,0.0632043,0.0632043,-0.123341,0.0,0.0,0.0,0.109627,0.06524444644238003,0.0,0.0,0.06524444644238026,0.0,-0.11603781994242413
87,0.1603,767.083,830.083,-3.07482e-06,2.27231e-34,5.87861e-17,1.83368e-15,0.0641426,0.0641426,-0.12521,0.0,0.0,0.0,0.111315,0.06624443437745042,0.0,0.0,0.06624443437745042,0.0,-0.11768840230725264
88,0.1627,768.933,832.089,-3.06708e-06,3.29646e-34,4.83515e-17,-1.66107e-15,0.06508,0.06508,-0.127077,0.0,0.0,0.0,0.113001,0.06724440052114344,0.0,0.0,0.06724440052114322,0.0,-0.11933414128476494
89,0.1652,770.758,834.068,-3.05922e-06,7.6418e-34,4.12738e-17,-1.27151e-14,0.0660166,0.0660166,-0.128943,0.0,0.0,0.0,0.114686,0.06824444987667944,0.0,0.0,0.06824444987667944,0.0,-0.12097593151046038
90,0.1676,772.56,836.022,-3.05124e-06,5.72703e-35,3.6474e-17,8.93274e-15,0.0669523,0.0669523,-0.130807,0.0,0.0,0.0,0.11637,0.0692444739967506,0.0,0.0,0.0692444739967506,0.0,-0.12261290623970544
91,0.17,774.34,837.952,-3.04316e-06,2.07719e-33,-2.91996e-15,-1.1441e-14,0.0678871,0.0678871,-0.13267,0.0,0.0,0.0,0.118052,0.07024447105684795,0.0,0.0,0.07024447105684795,0.0,-0.12424595673651462
92,0.1724,776.097,839.857,-3.03498e-06,1.53888e-33,-1.98178e-15,-1.84063e-15,0.068821,0.068821,-0.134531,0.0,0.0,0.0,0.119732,0.07124443923082846,0.0,0.0,0.07124443923082824,0.0,-0.12587421944264676
93,0.1748,777.833,841.74,-3.02671e-06,1.47321e-33,-1.34104e-15,-1.20979e-15,0.0697541,0.0697541,-0.13639,0.0,0.0,0.0,0.121412,0.07224448391536265,0.0,0.0,0.07224448391536265,0.0,-0.12749770976689778
94,0.1773,779.548,843.599,-3.01837e-06,1.18584e-33,-9.02988e-16,2.13379e-15,0.0706863,0.0706863,-0.138247,0.0,0.0,0.0,0.12309,0.07324449625660368,0.0,0.0,0.07324449625660345,0.0,-0.12911644306082048
95,0.1797,781.242,845.436,-3.00995e-06,1.13557e-33,-6.03202e-16,1.46769e-15,0.0716176,0.0716176,-0.140103,0.0,0.0,0.0,0.124766,0.07424447442352577,0.0,0.0,0.07424447442352555,0.0,-0.13073130388808774
96,0.1821,782.917,847.252,-3.00146e-06,7.50231e-34,2.56966e-15,-1.90617e-15,0.072548,0.072548,-0.141957,0.0,0.0,0.0,0.126441,0.07524441658348935,0.0,0.0,0.07524441658348935,0.0,-0.1323414349979296
97,0.1845,784.572,849.046,-2.99291e-06,8.30873e-34,1.7753e-15,-4.18618e-15,0.0734776,0.0734776,-0.14381,0.0,0.0,0.0,0.128114,0.07624442852668256,0.0,0.0,0.07624442852668256,0.0,-0.13394771763839997
98,0.1869,786.208,850.82,-2.9843e-06,4.58666e-34,1.23019e-15,5.99105e-15,0.0744063,0.0744063,-0.145661,0.0,0.0,0.0,0.129786,0.07724440099279839,0.0,0.0,0.07724440099279839,0.0,-0.13554929769343238
99,0.1894,787.825,852.574,-2.97564e-06,-1.05159e-35,3.83148e-15,-1.78144e-15,0.0753342,0.0753342,-0.14751,0.0,0.0,0.0,0.131457,0.07824443996881003,0.0,0.0,0.07824443996880981,0.0,-0.13714619025986496
100,0.1918,789.425,854.307,-2.96693e-06,-1.00928e-35,2.64189e-15,-4.11333e-15,0.0762612,0.0762612,-0.149358,0.0,0.0,0.0,0.133126,0.07924443599120679,0.0,0.0,0.07924443599120679,0.0,-0.13873927163969135
101,0.1942,791.006,856.022,-2.95818e-06,5.52229e-34,-1.15778e-15,-2.75702e-15,0.0771874,0.0771874,-0.151204,0.0,0.0,0.0,0.134794,0.08024449524377042,0.0,0.0,0.0802444952437702,0.0,-0.14032769238082665
102,0.1966,792.571,857.718,-2.94939e-06,7.53367e-34,-7.91446e-16,-7.71772e-15,0.0781126,0.0781126,-0.153048,0.0,0.0,0.0,0.13646,0.08124439993535426,0.0,0.0,0.08124439993535404,0.0,-0.14191146742670357
103,0.199,794.118,859.396,-2.94056e-06,8.3291e-34,-3.52517e-15,6.84991e-16,0.0790371,0.0790371,-0.15489,0.0,0.0,0.0,0.138125,0.0822444725954512,0.0,0.0,0.0822444725954512,0.0,-0.14349061166536137
104,0.2015,795.649,861.055,-2.93171e-06,2.33914e-34,5.66231e-16,-5.38408e-15,0.0799607,0.0799607,-0.156731,0.0,0.0,0.0,0.139788,0.08324449532975087,0.0,0.0,0.08324449532975109,0.0,-0.14506599486409977
105,0.2039,797.164,862.697,-2.92283e-06,2.2245e-34,4.00419e-16,-3.61816e-15,0.0808834,0.0808834,-0.158571,0.0,0.0,0.0,0.14145,0.08424446629124893,0.0,0.0,0.08424446629124893,0.0,-0.14663762708849337
106,0.2063,798.663,864.322,-2.91392e-06,2.11467e-34,2.85822e-16,-2.41485e-15,0.0818053,0.0818053,-0.160409,0.0,0.0,0.0,0.143111,0.0852444921558182,0.0,0.0,0.08524449215581842,0.0,-0.1482046665794593
107,0.2087,800.146,865.93,-2.90499e-06,8.84815e-35,2.06558e-16,1.35964e-15,0.0827263,0.0827263,-0.162245,0.0,0.0,0.0,0.14477,0.08624446274886743,0.0,0.0,0.08624446274886721,0.0,-0.149767128033097
108,0.2111,801.614,867.522,-2.89604e-06,8.31331e-35,1.51691e-16,9.79531e-16,0.0836465,0.0836465,-0.164079,0.0,0.0,0.0,0.146428,0.08724448494313486,0.0,0.0,0.08724448494313486,0.0,-0.151325026091092
109,0.2136,803.068,869.097,-2.88708e-06,1.09067e-33,-2.88774e-15,-2.23887e-15,0.0845658,0.0845658,-0.165912,0.0,0.0,0.0,0.148084,0.08824444836090461,0.0,0.0,0.08824444836090461,0.0,-0.15287922246213237
110,0.216,804.507,870.657,-2.8781e-06,2.56438e-34,1.01229e-15,1.4836e-15,0.0854843,0.0854843,-0.167743,0.0,0.0,0.0,0.149739,0.08924446007179787,0.0,0.0,0.08924446007179787,0.0,-0.15442888146004785
111,0.2184,805.931,872.202,-2.86911e-06,1.32049e-34,7.12795e-16,4.03068e-15,0.0864019,0.0864019,-0.169573,0.0,0.0,0.0,0.151392,0.09024440949499302,0.0,0.0,0.0902444094949928,0.0,-0.15597486160370033
112,0.2208,807.342,873.731,-2.86012e-06,3.50393e-34,5.04753e-16,-3.1238e-15,0.0873187,0.0873187,-0.171401,0.0,0.0,0.0,0.153044,0.09124440389700861,0.0,0.0,0.09124440389700861,0.0,-0.157516330225123
113,0.2232,808.739,875.245,-2.85111e-06,4.47133e-34,3.60126e-16,-5.05829e-15,0.0882347,0.0882347,-0.173227,0.0,0.0,0.0,0.154694,0.09224444171837654,0.0,0.0,0.09224444171837654,0.0,-0.15905330172409615
114,0.2257,810.123,876.745,-2.84211e-06,-2.47322e-34,3.27293e-15,2.52829e-15,0.0891498,0.0891498,-0.175052,0.0,0.0,0.0,0.156343,0.09324441207364731,0.0,0.0,0.09324441207364709,0.0,-0.1605866298609463
115,0.2281,811.493,878.231,-2.8331e-06,6.62991e-34,-7.30772e-16,-1.1841e-15,0.0900641,0.0900641,-0.176875,0.0,0.0,0.0,0.157991,0.09424442252472098,0.0,0.0,0.09424442252472098,0.0,-0.16211548645851337
116,0.2305,812.851,879.702,-2.82409e-06,6.3524e-34,-5.02302e-16,-7.58592e-16,0.0909776,0.0909776,-0.178696,0.0,0.0,0.0,0.159637,0.0952444715075269,0.0,0.0,0.09524447150752668,0.0,-0.1636398857708511
117,0.2329,814.196,881.16,-2.81508e-06,-2.92302e-34,2.67744e-15,-3.44399e-15,0.0918902,0.0918902,-0.180516,0.0,0.0,0.0,0.161282,0.09624444783201991,0.0,0.0,0.09624444783201969,0.0,-0.16516067683908708
118,0.2353,815.529,882.605,-2.80607e-06,6.1963e-34,-1.14915e-15,-2.31097e-15,0.092802,0.092802,-0.182334,0.0,0.0,0.0,0.162925,0.09724445935552417,0.0,0.0,0.09724445935552417,0.0,-0.16667703594052408
119,0.2378,816.849,884.036,-2.79706e-06,4.80823e-34,-7.96434e-16,1.45229e-15,0.0937129,0.0937129,-0.184151,0.0,0.0,0.0,0.164567,0.09824439468495627,0.0,0.0,0.0982443946849565,0.0,-0.16818980899569935
120,0.2402,818.158,885.454,-2.78806e-06,-4.40899e-34,2.47732e-15,-1.92437e-15,0.0946231,0.0946231,-0.185966,0.0,0.0,0.0,0.166207,0.09924447179904927,0.0,0.0,0.09924447179904927,0.0,-0.1696981752359341
121,0.242,819.139,886.518,-1.17923e-06,4.81969e-34,-1.39586e-15,-1.38583e-15,0.0953102,0.0953102,-0.187336,0.0,0.0,0.0,0.167446,0.10000002221524285,0.0,0.0,0.10000002221524285,0.0,-0.17083490989482508
