,Time,S11,S22,S33,S12,S13,S23,LE11,LE22,LE33,LE12,LE13,LE23,SDV_EPBAR,E11,E12,E13,E22,E23,E33
0,2.42e-07,0.029678,0.029678,1.04083e-17,0.0,0.0,0.0,1e-07,1e-07,-8.57143e-08,0.0,0.0,0.0,0.0,1.0000000494336803e-07,0.0,0.0,1.0000000494336803e-07,0.0,-8.571429632731054e-08
1,4.84e-07,0.059356,0.059356,3.46945e-18,0.0,0.0,0.0,2e-07,2e-07,-1.71429e-07,0.0,0.0,0.0,0.0,2.0000002010078788e-07,0.0,0.0,2.0000002010078788e-07,0.0,-1.7142898534050488e-07
2,8.47e-07,0.103873,0.103873,3.46945e-18,0.0,0.0,0.0,3.5e-07,3.5e-07,-3e-07,0.0,0.0,0.0,0.0,3.5000006115559756e-07,0.0,0.0,3.5000006115559756e-07,0.0,-2.9999995498908305e-07
3,1.3915e-06,0.170648,0.170648,-1.73472e-17,0.0,0.0,0.0,5.75e-07,5.75e-07,-4.92857e-07,0.0,0.0,0.0,0.0,5.750001652593539e-07,0.0,0.0,5.750001652593539e-07,0.0,-4.928568785311782e-07
4,2.2083e-06,0.270812,0.270812,-3.46945e-18,0.0,0.0,0.0,9.125e-07,9.125e-07,-7.82142e-07,0.0,0.0,0.0,0.0,9.125004163390571e-07,0.0,0.0,9.125004163390571e-07,0.0,-7.821416940778647e-07
5,3.4334e-06,0.421056,0.421056,5.20417e-17,0.0,0.0,0.0,1.41875e-06,1.41875e-06,-1.21607e-06,0.0,0.0,0.0,0.0,1.4187510064544995e-06,0.0,0.0,1.4187510064544995e-06,0.0,-1.2160692606233425e-06
6,5.2711e-06,0.646423,0.646423,2.42861e-17,0.0,0.0,0.0,2.17812e-06,2.17812e-06,-1.86696e-06,0.0,0.0,0.0,0.0,2.178122372020752e-06,0.0,0.0,2.178122372020752e-06,0.0,-1.8669582572128363e-06
7,8.0276e-06,0.984473,0.984473,1.35308e-16,0.0,0.0,0.0,3.31718e-06,3.31718e-06,-2.8433e-06,0.0,0.0,0.0,0.0,3.317185501838793e-06,0.0,0.0,3.317185501838793e-06,0.0,-2.8432959577884276e-06
8,1.2162e-05,1.49155,1.49155,4.68375e-16,0.0,0.0,0.0,5.02577e-06,5.02577e-06,-4.3078e-06,0.0,0.0,0.0,0.0,5.025782629175524e-06,0.0,0.0,5.025782629175524e-06,0.0,-4.307790721469473e-06
9,1.8365e-05,2.25216,2.25216,3.57353e-16,0.0,0.0,0.0,7.58864e-06,7.58864e-06,-6.50455e-06,0.0,0.0,0.0,0.0,7.5886687938009345e-06,0.0,0.0,7.5886687938009345e-06,0.0,-6.50452884543018e-06
10,2.7668e-05,3.39307,3.39307,-3.08781e-16,0.0,0.0,0.0,1.14329e-05,1.14329e-05,-9.79967e-06,0.0,0.0,0.0,0.0,1.1432965355773206e-05,0.0,0.0,1.1432965355773206e-05,0.0,-9.799621983441753e-06
11,4.1623e-05,5.10443,5.10443,-7.5287e-16,0.0,0.0,-1.23207e-38,1.71994e-05,1.71994e-05,-1.47423e-05,0.0,0.0,0.0,0.0,1.7199547910573543e-05,0.0,0.0,1.7199547910573543e-05,0.0,-1.4742191332794974e-05
12,6.2555e-05,7.67145,7.67145,-1.64105e-15,0.0,0.0,-2.77213e-38,2.58489e-05,2.58489e-05,-2.21562e-05,0.0,0.0,0.0,0.0,2.5849234085661976e-05,0.0,0.0,2.5849234085661976e-05,0.0,-2.2155954553237933e-05
13,9.3954e-05,11.5219,11.5219,-8.30239e-15,0.0,0.0,-6.23724e-38,3.88231e-05,3.88231e-05,-3.3277e-05,0.0,0.0,0.0,0.0,3.882385362641294e-05,0.0,0.0,3.882385362641294e-05,0.0,-3.327644632677984e-05
14,0.00014105,17.2976,17.2976,-4.47177e-14,0.0,0.0,-1.40336e-37,5.82842e-05,5.82842e-05,-4.99578e-05,0.0,0.0,0.0,0.0,5.828589855694233e-05,0.0,0.0,5.828589855694233e-05,0.0,-4.995655212991501e-05
15,0.0002117,25.9608,25.9608,-2.25018e-13,0.0,0.0,-3.1575e-37,8.7475e-05,8.7475e-05,-7.49785e-05,0.0,0.0,0.0,0.0,8.747882604942525e-05,0.0,0.0,8.747882604942525e-05,0.0,-7.4975689182466e-05
16,0.00031767,38.9552,38.9552,-1.14339e-12,0.0,0.0,-7.10416e-37,0.00013126,0.00013126,-0.000112508,0.0,0.0,0.0,0.0,0.0001312686149708142,0.0,0.0,0.0001312686149708142,0.0,-0.00011250167121223953
17,0.00047662,58.4457,58.4457,-5.85252e-12,0.0,0.0,-1.59836e-36,0.000196933,0.000196933,-0.0001688,0.0,0.0,0.0,0.0,0.00019695239257622177,0.0,0.0,0.00019695239257622177,0.0,-0.00016878575408152408
18,0.00071506,87.6791,87.6791,-2.95989e-11,0.0,0.0,-3.59607e-36,0.000295435,0.000295435,-0.00025323,0.0,0.0,0.0,0.0,0.00029547864521761724,0.0,0.0,0.00029547864521761724,0.0,-0.00025319793998968
19,0.0010727,131.524,131.524,-1.49709e-10,0.0,0.0,-8.09034e-36,0.000443169,0.000443169,-0.000379859,0.0,0.0,0.0,0.0,0.0004432672138892091,0.0,0.0,0.0004432672138892091,0.0,-0.0003797868627043455
20,0.0016092,197.279,197.279,-7.57628e-10,0.0,0.0,-1.82005e-35,0.00066473,0.00066473,-0.000569769,0.0,0.0,0.0,0.0,0.0006649509819482979,0.0,0.0,0.0006649509819482979,0.0,-0.0005696067124669746
21,0.0024139,295.884,295.884,-3.83263e-09,0.0,0.0,-4.09417e-35,0.00099698,0.00099698,-0.000854554,0.0,0.0,0.0,0.0,0.0009974771497625046,0.0,0.0,0.0009974771497625046,0.0,-0.0008541889727163854
22,0.003621,394.224,399.842,0.0170286,0.0,0.0,2.85909e-32,0.00149515,0.00149515,-0.00146135,0.0,0.0,0.0,0.000258985,0.0014962682940309335,0.0,0.0,0.0014962682940309335,0.0,-0.0014602827480282299
23,0.0054316,407.847,431.526,0.0659138,2.27014e-34,-2.82234e-15,-2.77688e-15,0.00224193,0.00224193,-0.00286759,0.0,0.0,0.0,0.00136301,0.0022444450041991804,0.0,0.0,0.0022444450041991804,0.0,-0.0028634823910468343
24,0.0078516,422.399,463.588,5.07136e-05,3.29437e-34,8.92371e-16,3.40734e-15,0.0032392,0.0032392,-0.00477249,0.0,0.0,0.0,0.00287695,0.003244451877416177,0.0,0.0,0.003244451877416177,0.0,-0.004761119764902566
25,0.010272,434.595,488.615,6.82545e-06,3.14797e-34,5.32726e-16,-8.13189e-15,0.00423547,0.00423547,-0.00669336,0.0,0.0,0.0,0.00441683,0.004244452279975608,0.0,0.0,0.004244452279975608,0.0,-0.006671009360715852
26,0.012692,445.363,508.914,8.4162e-07,-2.59649e-34,-2.2803e-15,5.42796e-15,0.00523074,0.00523074,-0.0086241,0.0,0.0,0.0,0.0059733,0.0052444442044314865,0.0,0.0,0.0052444442044314865,0.0,-0.008587019122557327
27,0.015112,455.138,525.897,2.50754e-07,6.47842e-34,3.86749e-15,8.37676e-15,0.00622503,0.00622503,-0.0105612,0.0,0.0,0.0,0.00754097,0.006244445766251383,0.0,0.0,0.006244445766251383,0.0,-0.010505626340852503
28,0.017532,464.14,540.46,6.12183e-08,5.06408e-34,-2.83787e-16,-1.79553e-16,0.00721833,0.00721833,-0.0125024,0.0,0.0,0.0,0.00911654,0.007244444941601369,0.0,0.0,0.007244444941601369,0.0,-0.012424569689995502
29,0.019952,472.497,553.203,-2.15398e-07,4.83538e-34,-1.74708e-16,-1.1626e-16,0.00821065,0.00821065,-0.0144464,0.0,0.0,0.0,0.0106978,0.008244449829572176,0.0,0.0,0.008244449829572176,0.0,-0.014342551444226914
30,0.022372,480.296,564.538,-5.46073e-07,4.61818e-34,-1.08208e-16,-7.84777e-17,0.00920198,0.00920198,-0.0163922,0.0,0.0,0.0,0.0122833,0.009244448382409898,0.0,0.0,0.009244448382409898,0.0,-0.01625857899988914
31,0.024792,487.603,574.758,-8.79433e-07,4.41215e-34,-6.73936e-17,-2.69858e-15,0.0101923,0.0101923,-0.0183392,0.0,0.0,0.0,0.0138719,0.010244418407964417,0.0,0.0,0.010244418407964417,0.0,-0.018172060168188953
32,0.027212,494.469,584.077,-1.18909e-06,4.21683e-34,-4.21895e-17,9.96693e-16,0.0111817,0.0111817,-0.0202867,0.0,0.0,0.0,0.0154628,0.011244448869027979,0.0,0.0,0.011244448869027979,0.0,-0.0200823093720901
33,0.029632,500.941,592.654,-1.46543e-06,1.07601e-33,-5.45962e-15,-4.73133e-15,0.0121701,0.0121701,-0.0222345,0.0,0.0,0.0,0.0170554,0.012244457004898734,0.0,0.0,0.012244457004898734,0.0,-0.02198913538917424
34,0.032052,507.056,600.609,-1.70718e-06,1.25375e-33,2.02392e-15,2.43374e-15,0.0131575,0.0131575,-0.0241823,0.0,0.0,0.0,0.0186493,0.013244440792496093,0.0,0.0,0.013244440792496093,0.0,-0.02389225090537217
35,0.034472,512.85,608.037,-1.91664e-06,1.08728e-33,4.02405e-15,-1.1836e-15,0.0141439,0.0141439,-0.0261297,0.0,0.0,0.0,0.020244,0.014244398206812336,0.0,0.0,0.014244398206812336,0.0,-0.025791273457550834
36,0.036892,518.352,615.01,-2.09735e-06,1.15278e-33,2.5549e-15,1.96324e-15,0.0151294,0.0151294,-0.0280766,0.0,0.0,0.0,0.0218392,0.015244428745356142,0.0,0.0,0.015244428745356142,0.0,-0.027686115294949465
37,0.039312,523.589,621.588,-2.25308e-06,1.21625e-33,-1.13574e-15,-4.20332e-15,0.0161139,0.0161139,-0.0300229,0.0,0.0,0.0,0.0234347,0.016244429054838472,0.0,0.0,0.016244429054838472,0.0,-0.02957668939975633
38,0.041732,528.584,627.817,-2.38732e-06,1.16502e-33,-7.28578e-16,-5.36805e-15,0.0170975,0.0170975,-0.0319683,0.0,0.0,0.0,0.0250303,0.017244498828943522,0.0,0.0,0.017244498828943522,0.0,-0.031462715775524064
39,0.044152,533.358,633.738,-2.5032e-06,1.11633e-33,-4.68935e-16,-3.38185e-15,0.01808,0.01808,-0.0339129,0.0,0.0,0.0,0.0266259,0.01824443268611331,0.0,0.0,0.01824443268611331,0.0,-0.03334430331792915
40,0.046572,537.93,639.382,-2.60338e-06,1.07035e-33,2.48573e-15,6.11123e-16,0.0190616,0.0190616,-0.0358564,0.0,0.0,0.0,0.0282212,0.019244432140675505,0.0,0.0,0.019244432140675505,0.0,-0.035221174224352336
41,0.048992,542.316,644.777,-2.69015e-06,2.59966e-33,-1.23829e-14,-2.35379e-15,0.0200423,0.0200423,-0.0377989,0.0,0.0,0.0,0.0298161,0.02024449545617002,0.0,0.0,0.02024449545617002,0.0,-0.03709343806844423
42,0.051412,546.531,649.946,-2.76543e-06,2.03968e-33,-2.39946e-15,-9.76552e-15,0.0210219,0.0210219,-0.0397401,0.0,0.0,0.0,0.0314106,0.02124441664535559,0.0,0.0,0.02124441664535559,0.0,-0.03896081921992223
43,0.053832,550.588,654.91,-2.83082e-06,1.39237e-33,1.26647e-15,-3.44919e-15,0.0220006,0.0220006,-0.0416802,0.0,0.0,0.0,0.0330046,0.022244397816892914,0.0,0.0,0.022244397816892914,0.0,-0.04082352383367682
44,0.056252,554.498,659.685,-2.88771e-06,2.12166e-33,-1.98486e-15,-4.95809e-15,0.0229784,0.0229784,-0.043619,0.0,0.0,0.0,0.0345979,0.02324443722866909,0.0,0.0,0.02324443722866909,0.0,-0.042681373604137596
45,0.058672,558.273,664.287,-2.93722e-06,1.47185e-33,1.54443e-15,-3.71072e-16,0.0239552,0.0239552,-0.0455565,0.0,0.0,0.0,0.0361905,0.024244430712260456,0.0,0.0,0.024244430712260456,0.0,-0.04453438276049071
46,0.061092,561.921,668.728,-2.98034e-06,1.41196e-33,1.02176e-15,-2.07038e-16,0.0249311,0.0249311,-0.0474926,0.0,0.0,0.0,0.0377823,0.02524447874626201,0.0,0.0,0.02524447874626201,0.0,-0.04638247012376251
47,0.063512,565.452,673.021,-3.01789e-06,1.46724e-33,6.80365e-16,-2.89706e-15,0.025906,0.025906,-0.0494274,0.0,0.0,0.0,0.0393734,0.026244476958517948,0.0,0.0,0.026244476958517948,0.0,-0.04822574556089165
48,0.065932,568.873,677.177,-3.05056e-06,1.52038e-33,4.56837e-16,-4.64106e-15,0.0268799,0.0268799,-0.0513607,0.0,0.0,0.0,0.0409635,0.02724442329946286,0.0,0.0,0.02724442329946286,0.0,-0.050064033173705114
49,0.068352,572.19,681.203,-3.07895e-06,1.57149e-33,3.10147e-16,-5.77752e-15,0.0278529,0.0278529,-0.0532926,0.0,0.0,0.0,0.0425528,0.028244418542125116,0.0,0.0,0.028244418542125116,0.0,-0.051897442915649794
50,0.070772,575.411,685.109,-3.10358e-06,1.50813e-33,2.13675e-16,-3.70796e-15,0.028825,0.028825,-0.0552229,0.0,0.0,0.0,0.0441411,0.02924446093324229,0.0,0.0,0.02924446093324229,0.0,-0.05372580007496375
51,0.073192,578.541,688.902,-3.12488e-06,1.44757e-33,1.50101e-16,-2.36424e-15,0.0297961,0.0297961,-0.0571518,0.0,0.0,0.0,0.0457284,0.030244445693269784,0.0,0.0,0.030244445693269784,0.0,-0.055549309130503266
52,0.075612,581.585,692.589,-3.14324e-06,1.38965e-33,1.0813e-16,-1.48976e-15,0.0307663,0.0307663,-0.0590792,0.0,0.0,0.0,0.0473147,0.03124447388971663,0.0,0.0,0.03124447388971663,0.0,-0.05736789026246547
53,0.078032,584.548,696.177,-3.15897e-06,1.67202e-33,8.03762e-17,-9.41586e-15,0.0317355,0.0317355,-0.0610051,0.0,0.0,0.0,0.0489,0.032244440539372476,0.0,0.0,0.032244440539372476,0.0,-0.059181558410277724
54,0.080452,587.435,699.67,-3.17237e-06,1.49256e-33,6.19992e-17,-3.26645e-15,0.0327038,0.0327038,-0.0629294,0.0,0.0,0.0,0.0504841,0.03324444690609507,0.0,0.0,0.03324444690609507,0.0,-0.06099023456155317
55,0.082872,590.25,703.074,-3.18369e-06,1.43316e-33,4.98195e-17,-2.07602e-15,0.0336712,0.0336712,-0.0648521,0.0,0.0,0.0,0.0520672,0.03424449122747819,0.0,0.0,0.03424449122747819,0.0,-0.06279393409535883
56,0.085292,592.996,706.393,-3.19314e-06,1.37627e-33,4.17436e-17,-1.29484e-15,0.0346376,0.0346376,-0.0667733,0.0,0.0,0.0,0.0536492,0.03524446821485494,0.0,0.0,0.03524446821485494,0.0,-0.06459276587807217
57,0.087712,595.677,709.633,-3.20091e-06,1.32178e-33,3.63905e-17,-7.81141e-16,0.0356031,0.0356031,-0.0686929,0.0,0.0,0.0,0.0552301,0.03624447942664566,0.0,0.0,0.03624447942664566,0.0,-0.06638665128262966
58,0.090132,598.295,712.797,-3.20717e-06,1.26958e-33,3.28472e-17,-4.42596e-16,0.0365676,0.0365676,-0.0706109,0.0,0.0,0.0,0.0568098,0.037244419370573656,0.0,0.0,0.037244419370573656,0.0,-0.06817560552992386
59,0.092552,600.855,715.888,-3.21207e-06,1.10682e-33,3.05089e-17,2.64426e-15,0.0375313,0.0375313,-0.0725272,0.0,0.0,0.0,0.0583883,0.038244493625901876,0.0,0.0,0.038244493625901876,0.0,-0.06995955078398386
60,0.094972,603.359,718.911,-3.21575e-06,4.83097e-35,2.94106e-15,-1.04591e-15,0.038494,0.038494,-0.074442,0.0,0.0,0.0,0.0599657,0.03924449287232035,0.0,0.0,0.03924449287232035,0.0,-0.07173868834624608
61,0.097392,605.809,721.868,-3.21831e-06,8.35557e-34,-9.30568e-16,2.25156e-15,0.0394557,0.0394557,-0.0763551,0.0,0.0,0.0,0.0615418,0.04024441503662213,0.0,0.0,0.04024441503662213,0.0,-0.07351284744857023
62,0.099812,608.208,724.762,-3.21986e-06,6.89589e-34,-6.2097e-16,4.44347e-15,0.0404166,0.0404166,-0.0782666,0.0,0.0,0.0,0.0631168,0.041244466292708726,0.0,0.0,0.041244466292708726,0.0,-0.07528213610431578
63,0.1022,610.557,727.596,-3.22049e-06,5.49382e-34,-4.12202e-16,5.90448e-15,0.0413765,0.0413765,-0.0801765,0.0,0.0,0.0,0.0646905,0.042244436714925504,0.0,0.0,0.042244436714925504,0.0,-0.07704656927077169
64,0.1047,612.86,730.374,-3.22029e-06,5.27498e-34,-2.71196e-16,3.99529e-15,0.0423355,0.0423355,-0.0820848,0.0,0.0,0.0,0.066263,0.043244428549180425,0.0,0.0,0.043244428549180425,0.0,-0.07880616185339051
65,0.1071,615.118,733.096,-3.21933e-06,5.06491e-34,-1.75805e-16,2.72352e-15,0.0432936,0.0432936,-0.0839913,0.0,0.0,0.0,0.0678343,0.044244440015168696,0.0,0.0,0.044244440015168696,0.0,-0.08056074481815134
66,0.1095,617.332,735.765,-3.21768e-06,1.50235e-33,-3.04945e-15,-1.0195e-15,0.0442508,0.0442508,-0.0858963,0.0,0.0,0.0,0.0694043,0.04524446933082715,0.0,0.0,0.04524446933082715,0.0,-0.08231060932413903
67,0.1119,619.505,738.384,-3.21539e-06,6.54504e-34,8.81828e-16,5.17149e-15,0.045207,0.045207,-0.0877996,0.0,0.0,0.0,0.0709731,0.046244410087888266,0.0,0.0,0.046244410087888266,0.0,-0.0840555864071989
68,0.1143,621.638,740.955,-3.21253e-06,8.55305e-34,6.09995e-16,-2.28839e-15,0.0461624,0.0461624,-0.0897012,0.0,0.0,0.0,0.0725406,0.04724446964966855,0.0,0.0,0.04724446964966855,0.0,-0.0857956912880028
69,0.1168,623.733,743.479,-3.20913e-06,1.27394e-33,-2.52518e-15,1.42497e-15,0.0471168,0.0471168,-0.0916012,0.0,0.0,0.0,0.0741068,0.048244436879960606,0.0,0.0,0.048244436879960606,0.0,-0.08753103038037002
70,0.1192,625.791,745.958,-3.20525e-06,1.22494e-33,-1.71024e-15,1.01026e-15,0.0480703,0.0480703,-0.0934995,0.0,0.0,0.0,0.0756718,0.04924441461414841,0.0,0.0,0.04924441461414841,0.0,-0.08926152720467817
71,0.1216,627.813,748.394,-3.20092e-06,1.17785e-33,-1.15434e-15,7.317e-16,0.0490229,0.0490229,-0.0953961,0.0,0.0,0.0,0.0772355,0.05024440106143513,0.0,0.0,0.05024440106143513,0.0,-0.09098719682240075
72,0.124,629.801,750.788,-3.19617e-06,1.13258e-33,-7.74632e-16,5.4439e-16,0.0499747,0.0499747,-0.0972911,0.0,0.0,0.0,0.0787979,0.05124449955373711,0.0,0.0,0.05124449955373711,0.0,-0.09270814497105406
73,0.1264,631.756,753.141,-3.19106e-06,1.08905e-33,-5.14912e-16,4.18314e-16,0.0509255,0.0509255,-0.0991844,0.0,0.0,0.0,0.080359,0.052244498147909324,0.0,0.0,0.052244498147909324,0.0,-0.09442429553360987
74,0.1289,633.679,755.456,-3.18559e-06,1.04718e-33,-3.37025e-16,3.33391e-16,0.0518753,0.0518753,-0.101076,0.0,0.0,0.0,0.0819188,0.05324439474797682,0.0,0.0,0.05324439474797682,0.0,-0.0961356634141427
75,0.1313,635.571,757.734,-3.17981e-06,1.00563e-33,-6.16011e-15,6.13506e-15,0.0528243,0.0528243,-0.102966,0.0,0.0,0.0,0.0834774,0.05424439810513504,0.0,0.0,0.05424439810513504,0.0,-0.09784235367994976
76,0.1337,637.434,759.975,-3.17373e-06,5.95811e-35,1.7415e-15,-4.5996e-15,0.0537724,0.0537724,-0.104854,0.0,0.0,0.0,0.0850346,0.05524440119553553,0.0,0.0,0.05524440119553553,0.0,-0.09954402043731092
77,0.1361,639.267,762.182,-3.16738e-06,-1.73036e-34,1.21826e-15,-1.32192e-16,0.0547196,0.0547196,-0.106741,0.0,0.0,0.0,0.0865905,0.05624440221806659,0.0,0.0,0.05624440221806659,0.0,-0.10124157872078754
78,0.1385,641.073,764.354,-3.16078e-06,1.18562e-33,-5.10753e-15,-3.98946e-17,0.0556659,0.0556659,-0.108626,0.0,0.0,0.0,0.0881451,0.057244399369914545,0.0,0.0,0.057244399369914545,0.0,-0.10293414260226907
79,0.141,642.851,766.494,-3.15396e-06,1.13727e-33,-3.49737e-15,2.29107e-17,0.0566114,0.0566114,-0.110509,0.0,0.0,0.0,0.0896984,0.05824449667101317,0.0,0.0,0.05824449667101317,0.0,-0.10462172825122262
80,0.1434,644.603,768.602,-3.14692e-06,-2.66803e-34,3.59233e-15,-2.88102e-15,0.0575559,0.0575559,-0.112391,0.0,0.0,0.0,0.0912504,0.05924448076626909,0.0,0.0,0.05924448076626909,0.0,-0.10630524547204157
81,0.1458,646.33,770.679,-3.13968e-06,2.67936e-33,-3.47958e-15,-7.80942e-15,0.0584995,0.0584995,-0.114271,0.0,0.0,0.0,0.092801,0.06024445557223701,0.0,0.0,0.06024445557223701,0.0,-0.107983813262437
82,0.1482,648.032,772.726,-3.13226e-06,1.6721e-33,-2.37968e-15,6.42143e-16,0.0594422,0.0594422,-0.116149,0.0,0.0,0.0,0.0943504,0.06124441927934421,0.0,0.0,0.06124441927934421,0.0,-0.10965744762656948
83,0.1506,649.711,774.745,-3.12468e-06,3.62962e-34,1.38074e-15,6.4112e-15,0.0603841,0.0603841,-0.118025,0.0,0.0,0.0,0.0958984,0.062244476300782114,0.0,0.0,0.062244476300782114,0.0,-0.1113261645089827
84,0.1531,651.366,776.735,-3.11695e-06,1.36408e-33,9.85179e-16,-4.4443e-15,0.061325,0.061325,-0.1199,0.0,0.0,0.0,0.0974451,0.06324441247473667,0.0,0.0,0.06324441247473667,0.0,-0.11299086680442072
85,0.1555,652.999,778.698,-3.10907e-06,1.31057e-33,7.10935e-16,-2.98176e-15,0.0622651,0.0622651,-0.121774,0.0,0.0,0.0,0.0989905,0.06424443853550321,0.0,0.0,0.06424443853550321,0.0,-0.11465156535946919
86,0.1579,654.609,780.634,-3.10106e-06,1.48404e-33,-5.49635e-15,3.95139e-15,0.0632043,0.0632043,-0.123645,0.0,0.0,0.0,0.100535,0.06524444644238003,0.0,0.0,0.06524444644238003,0.0,-0.11630650360317585
87,0.1603,656.199,782.545,-3.09293e-06,1.42427e-33,-7.78216e-16,-3.17185e-15,0.0641426,0.0641426,-0.125515,0.0,0.0,0.0,0.102077,0.06624443437745042,0.0,0.0,0.06624443437745042,0.0,-0.11795746631020265
88,0.1627,657.767,784.43,-3.0847e-06,-4.42919e-34,2.50528e-15,9.77282e-15,0.06508,0.06508,-0.127383,0.0,0.0,0.0,0.103619,0.06724440052114344,0.0,0.0,0.06724440052114344,0.0,-0.11960358381072289
89,0.1652,659.316,786.291,-3.07636e-06,2.47108e-34,1.77558e-15,8.14581e-16,0.0660166,0.0660166,-0.12925,0.0,0.0,0.0,0.105159,0.06824444987667944,0.0,0.0,0.06824444987667944,0.0,-0.12124575048015562
90,0.1676,660.844,788.128,-3.06792e-06,2.33208e-34,1.26702e-15,6.11806e-16,0.0669523,0.0669523,-0.131115,0.0,0.0,0.0,0.106698,0.0692444739967506,0.0,0.0,0.0692444739967506,0.0,-0.12288309985263113
91,0.17,662.354,789.943,-3.0594e-06,2.19795e-34,9.12248e-16,4.72417e-16,0.0678871,0.0678871,-0.132978,0.0,0.0,0.0,0.108235,0.07024447105684795,0.0,0.0,0.07024447105684795,0.0,-0.12451564744733834
92,0.1724,663.845,791.734,-3.05081e-06,2.06852e-34,6.64539e-16,3.76537e-16,0.068821,0.068821,-0.134839,0.0,0.0,0.0,0.109771,0.07124443923082846,0.0,0.0,0.07124443923082846,0.0,-0.1261434087257809
93,0.1748,665.318,793.504,-3.04214e-06,1.94358e-34,4.91433e-16,3.10553e-16,0.0697541,0.0697541,-0.136699,0.0,0.0,0.0,0.111306,0.07224448391536265,0.0,0.0,0.07224448391536265,0.0,-0.12776727132517396
94,0.1773,666.773,795.252,-3.0334e-06,1.82298e-34,3.70364e-16,2.65132e-16,0.0706863,0.0706863,-0.138558,0.0,0.0,0.0,0.112839,0.07324449625660368,0.0,0.0,0.07324449625660368,0.0,-0.12938724573503002
95,0.1797,668.211,796.98,-3.02461e-06,-1.69129e-34,2.85626e-16,3.22622e-15,0.0716176,0.0716176,-0.140414,0.0,0.0,0.0,0.114371,0.07424447442352577,0.0,0.0,0.07424447442352577,0.0,-0.13100160441866748
96,0.1821,669.633,798.687,-3.01576e-06,9.6466e-34,-2.81079e-15,-7.1622e-16,0.072548,0.072548,-0.142269,0.0,0.0,0.0,0.115902,0.07524441658348935,0.0,0.0,0.07524441658348935,0.0,-0.1326121022439244
97,0.1845,671.037,800.374,-3.00686e-06,9.25794e-34,-1.94412e-15,-4.46886e-16,0.0734776,0.0734776,-0.144122,0.0,0.0,0.0,0.117432,0.07624442852668256,0.0,0.0,0.07624442852668256,0.0,-0.13421788380238353
98,0.1869,672.426,802.042,-2.99792e-06,2.08515e-34,1.707e-15,-2.60239e-16,0.0744063,0.0744063,-0.145974,0.0,0.0,0.0,0.11896,0.07724440099279839,0.0,0.0,0.07724440099279839,0.0,-0.13581982842298657
99,0.1894,673.799,803.691,-2.98894e-06,-4.83717e-34,1.22881e-15,5.87572e-15,0.0753342,0.0753342,-0.147824,0.0,0.0,0.0,0.120487,0.07824443996881003,0.0,0.0,0.07824443996881003,0.0,-0.13741708382360796
100,0.1918,675.157,805.322,-2.97992e-06,1.1151e-33,-2.15521e-15,-1.88946e-15,0.0762612,0.0762612,-0.149672,0.0,0.0,0.0,0.122012,0.07924443599120679,0.0,0.0,0.07924443599120679,0.0,-0.13900966505440882
101,0.1942,676.5,806.935,-2.97087e-06,1.07178e-33,-1.48798e-15,-1.26581e-15,0.0771874,0.0771874,-0.151518,0.0,0.0,0.0,0.123536,0.08024449524377042,0.0,0.0,0.08024449524377042,0.0,-0.14059758710972914
102,0.1966,677.828,808.53,-2.96179e-06,1.02995e-33,-1.01769e-15,-8.32201e-16,0.0781126,0.0781126,-0.153363,0.0,0.0,0.0,0.125059,0.08124439993535426,0.0,0.0,0.08124439993535426,0.0,-0.14218172274701657
103,0.199,679.142,810.107,-2.95269e-06,9.89546e-34,-6.8592e-16,-5.30432e-16,0.0790371,0.0790371,-0.155207,0.0,0.0,0.0,0.12658,0.0822444725954512,0.0,0.0,0.0822444725954512,0.0,-0.1437620821111245
104,0.2015,680.442,811.668,-2.94357e-06,1.40395e-33,-4.51647e-16,-3.33644e-15,0.0799607,0.0799607,-0.157048,0.0,0.0,0.0,0.128101,0.08324449532975087,0.0,0.0,0.08324449532975087,0.0,-0.14533696599253487
105,0.2039,681.728,813.212,-2.93442e-06,1.35062e-33,-2.86067e-16,-2.27316e-15,0.0808834,0.0808834,-0.158888,0.0,0.0,0.0,0.129619,0.08424446629124893,0.0,0.0,0.08424446629124893,0.0,-0.14690810008847088
106,0.2063,683.001,814.741,-2.92526e-06,1.2991e-33,-1.68924e-16,-1.53139e-15,0.0818053,0.0818053,-0.160727,0.0,0.0,0.0,0.131137,0.0852444921558182,0.0,0.0,0.0852444921558182,0.0,-0.14847549443157626
107,0.2087,684.261,816.253,-2.91609e-06,1.24932e-33,-8.5963e-17,-1.01346e-15,0.0827263,0.0827263,-0.162563,0.0,0.0,0.0,0.132653,0.08624446274886743,0.0,0.0,0.08624446274886743,0.0,-0.1500374591014645
108,0.2111,685.508,817.75,-2.9069e-06,1.20122e-33,-2.7146e-17,-6.51476e-16,0.0836465,0.0836465,-0.164399,0.0,0.0,0.0,0.134168,0.08724448494313486,0.0,0.0,0.08724448494313486,0.0,-0.15159655863521881
109,0.2136,686.743,819.232,-2.89771e-06,1.15474e-33,1.46041e-17,-3.98253e-16,0.0845658,0.0845658,-0.166232,0.0,0.0,0.0,0.135682,0.08824444836090461,0.0,0.0,0.08824444836090461,0.0,-0.15315025774298696
110,0.216,687.965,820.699,-2.88851e-06,1.10982e-33,4.42796e-17,-2.20937e-16,0.0854843,0.0854843,-0.168064,0.0,0.0,0.0,0.137194,0.08924446007179787,0.0,0.0,0.08924446007179787,0.0,-0.15470026622951327
111,0.2184,689.176,822.152,-2.87931e-06,1.5201e-33,6.54056e-17,-3.13007e-15,0.0864019,0.0864019,-0.169894,0.0,0.0,0.0,0.138705,0.09024440949499302,0.0,0.0,0.09024440949499302,0.0,-0.15624575019318065
112,0.2208,690.374,823.59,-2.87011e-06,3.05114e-33,-2.99653e-15,-5.16872e-15,0.0873187,0.0873187,-0.171722,0.0,0.0,0.0,0.140214,0.09124440389700861,0.0,0.0,0.09124440389700861,0.0,-0.15778672408258476
113,0.2232,691.561,825.014,-2.8609e-06,1.58124e-33,9.85539e-16,-5.21988e-16,0.0882347,0.0882347,-0.173549,0.0,0.0,0.0,0.141723,0.09224444171837654,0.0,0.0,0.09224444171837654,0.0,-0.15932404296926117
114,0.2257,692.737,826.425,-2.8517e-06,2.42986e-33,-2.34464e-15,-3.00572e-16,0.0891498,0.0891498,-0.175375,0.0,0.0,0.0,0.14323,0.09324441207364731,0.0,0.0,0.09324441207364731,0.0,-0.1608577165966366
115,0.2281,693.901,827.823,-2.8425e-06,2.34225e-33,-1.63154e-15,-1.44894e-16,0.0900641,0.0900641,-0.177198,0.0,0.0,0.0,0.144735,0.09424442252472098,0.0,0.0,0.09424442252472098,0.0,-0.1623860794532661
116,0.2305,695.055,829.207,-2.8333e-06,2.25753e-33,-1.1233e-15,-3.53198e-17,0.0909776,0.0909776,-0.17902,0.0,0.0,0.0,0.14624,0.0952444715075269,0.0,0.0,0.0952444715075269,0.0,-0.16391082255373235
117,0.2329,696.198,830.578,-2.82412e-06,3.08345e-33,-3.84911e-15,4.18937e-17,0.0918902,0.0918902,-0.180841,0.0,0.0,0.0,0.147743,0.09624444783201991,0.0,0.0,0.09624444783201991,0.0,-0.16543195553393863
118,0.2353,697.33,831.937,-2.81493e-06,1.61228e-33,3.8745e-16,3.14597e-15,0.092802,0.092802,-0.18266,0.0,0.0,0.0,0.149244,0.09724445935552417,0.0,0.0,0.09724445935552417,0.0,-0.16694865495050337
119,0.2378,698.453,833.284,-2.80576e-06,2.11951e-33,3.19701e-16,-7.70787e-16,0.0937129,0.0937129,-0.184477,0.0,0.0,0.0,0.150745,0.09824439468495627,0.0,0.0,0.09824439468495627,0.0,-0.16846093492203962
120,0.2402,699.565,834.618,-2.7966e-06,2.95039e-33,-2.82356e-15,-4.78172e-16,0.0946231,0.0946231,-0.186292,0.0,0.0,0.0,0.152244,0.09924447179904927,0.0,0.0,0.09924447179904927,0.0,-0.16996880951502302
121,0.242,700.398,835.618,-1.18269e-06,4.24388e-33,-2.13342e-15,-6.8968e-15,0.0953102,0.0953102,-0.187663,0.0,0.0,0.0,0.153376,0.10000002221524285,0.0,0.0,0.10000002221524285,0.0,-0.17110600255322406
