,Time,S11,S22,S33,S12,S13,S23,LE11,LE22,LE33,LE12,LE13,LE23,SDV_EPBAR,E11,E12,E13,E22,E23,E33
0,2.42e-07,0.029678,0.029678,1.04083e-17,0.0,0.0,0.0,1e-07,1e-07,-8.57143e-08,0.0,0.0,0.0,0.0,1.0000000494336803e-07,0.0,0.0,1.0000000494336803e-07,0.0,-8.571429632731054e-08
1,4.84e-07,0.059356,0.059356,3.46945e-18,0.0,0.0,0.0,2e-07,2e-07,-1.71429e-07,0.0,0.0,0.0,0.0,2.0000002010078788e-07,0.0,0.0,2.0000002010078788e-07,0.0,-1.7142898534050488e-07
2,8.47e-07,0.103873,0.103873,3.46945e-18,0.0,0.0,0.0,3.5e-07,3.5e-07,-3e-07,0.0,0.0,0.0,0.0,3.5000006115559756e-07,0.0,0.0,3.5000006115559756e-07,0.0,-2.9999995498908305e-07
3,1.3915e-06,0.170648,0.170648,-1.73472e-17,0.0,0.0,0.0,5.75e-07,5.75e-07,-4.92857e-07,0.0,0.0,0.0,0.0,5.750001652593539e-07,0.0,0.0,5.750001652593539e-07,0.0,-4.928568785311782e-07
4,2.2083e-06,0.270812,0.270812,-3.46945e-18,0.0,0.0,0.0,9.125e-07,9.125e-07,-7.82142e-07,0.0,0.0,0.0,0.0,9.125004163390571e-07,0.0,0.0,9.125004163390571e-07,0.0,-7.821416940778647e-07
5,3.4334e-06,0.421056,0.421056,5.20417e-17,0.0,0.0,0.0,1.41875e-06,1.41875e-06,-1.21607e-06,0.0,0.0,0.0,0.0,1.4187510064544995e-06,0.0,0.0,1.4187510064544995e-06,0.0,-1.2160692606233425e-06
6,5.2711e-06,0.646423,0.646423,2.42861e-17,0.0,0.0,0.0,2.17812e-06,2.17812e-06,-1.86696e-06,0.0,0.0,0.0,0.0,2.178122372020752e-06,0.0,0.0,2.178122372020752e-06,0.0,-1.8669582572128363e-06
7,8.0276e-06,0.984473,0.984473,1.35308e-16,0.0,0.0,0.0,3.31718e-06,3.31718e-06,-2.8433e-06,0.0,0.0,0.0,0.0,3.317185501838793e-06,0.0,0.0,3.317185501838793e-06,0.0,-2.8432959577884276e-06
8,1.2162e-05,1.49155,1.49155,4.68375e-16,0.0,0.0,0.0,5.02577e-06,5.02577e-06,-4.3078e-06,0.0,0.0,0.0,0.0,5.025782629175524e-06,0.0,0.0,5.025782629175524e-06,0.0,-4.307790721469473e-06
9,1.8365e-05,2.25216,2.25216,3.57353e-16,0.0,0.0,0.0,7.58864e-06,7.58864e-06,-6.50455e-06,0.0,0.0,0.0,0.0,7.5886687938009345e-06,0.0,0.0,7.5886687938009345e-06,0.0,-6.50452884543018e-06
10,2.7668e-05,3.39307,3.39307,-3.08781e-16,0.0,0.0,0.0,1.14329e-05,1.14329e-05,-9.79967e-06,0.0,0.0,0.0,0.0,1.1432965355773206e-05,0.0,0.0,1.1432965355773206e-05,0.0,-9.799621983441753e-06
11,4.1623e-05,5.10443,5.10443,-7.5287e-16,0.0,0.0,-1.23207e-38,1.71994e-05,1.71994e-05,-1.47423e-05,0.0,0.0,0.0,0.0,1.7199547910573543e-05,0.0,0.0,1.7199547910573543e-05,0.0,-1.4742191332794974e-05
12,6.2555e-05,7.67145,7.67145,-1.64105e-15,0.0,0.0,-2.77213e-38,2.58489e-05,2.58489e-05,-2.21562e-05,0.0,0.0,0.0,0.0,2.5849234085661976e-05,0.0,0.0,2.5849234085661976e-05,0.0,-2.2155954553237933e-05
13,9.3954e-05,11.5219,11.5219,-8.30239e-15,0.0,0.0,-6.23724e-38,3.88231e-05,3.88231e-05,-3.3277e-05,0.0,0.0,0.0,0.0,3.882385362641294e-05,0.0,0.0,3.882385362641294e-05,0.0,-3.327644632677984e-05
14,0.00014105,17.2976,17.2976,-4.47177e-14,0.0,0.0,-1.40336e-37,5.82842e-05,5.82842e-05,-4.99578e-05,0.0,0.0,0.0,0.0,5.828589855694233e-05,0.0,0.0,5.828589855694233e-05,0.0,-4.995655212991501e-05
15,0.0002117,25.9608,25.9608,-2.25018e-13,0.0,0.0,-3.1575e-37,8.7475e-05,8.7475e-05,-7.49785e-05,0.0,0.0,0.0,0.0,8.747882604942525e-05,0.0,0.0,8.747882604942525e-05,0.0,-7.4975689182466e-05
16,0.00031767,38.9552,38.9552,-1.14339e-12,0.0,0.0,-7.10416e-37,0.00013126,0.00013126,-0.000112508,0.0,0.0,0.0,0.0,0.0001312686149708142,0.0,0.0,0.0001312686149708142,0.0,-0.00011250167121223953
17,0.00047662,58.4457,58.4457,-5.85252e-12,0.0,0.0,-1.59836e-36,0.000196933,0.000196933,-0.0001688,0.0,0.0,0.0,0.0,0.00019695239257622177,0.0,0.0,0.00019695239257622177,0.0,-0.00016878575408152408
18,0.00071506,87.6791,87.6791,-2.95989e-11,0.0,0.0,-3.59607e-36,0.000295435,0.000295435,-0.00025323,0.0,0.0,0.0,0.0,0.00029547864521761724,0.0,0.0,0.00029547864521761724,0.0,-0.00025319793998968
19,0.0010727,131.524,131.524,-1.49709e-10,0.0,0.0,-8.09034e-36,0.000443169,0.000443169,-0.000379859,0.0,0.0,0.0,0.0,0.0004432672138892091,0.0,0.0,0.0004432672138892091,0.0,-0.0003797868627043455
20,0.0016092,197.279,197.279,-7.57628e-10,0.0,0.0,-1.82005e-35,0.00066473,0.00066473,-0.000569769,0.0,0.0,0.0,0.0,0.0006649509819482979,0.0,0.0,0.0006649509819482979,0.0,-0.0005696067124669746
21,0.0024139,295.884,295.884,-3.83263e-09,0.0,0.0,-4.09417e-35,0.00099698,0.00099698,-0.000854554,0.0,0.0,0.0,0.0,0.0009974771497625046,0.0,0.0,0.0009974771497625046,0.0,-0.0008541889727163854
22,0.003621,427.108,428.304,0.00260182,0.0,0.0,1.0656e-32,0.00149515,0.00149515,-0.00134326,0.0,0.0,0.0,9.67143e-05,0.0014962682940309335,0.0,0.0,0.0014962682940309335,0.0,-0.00134235823010187
23,0.0054316,449.022,459.343,0.157202,0.0,0.0,-2.70791e-15,0.00224193,0.00224193,-0.00273457,0.0,0.0,0.0,0.00127511,0.0022444450041991804,0.0,0.0,0.0022444450041991804,0.0,-0.0027308344692568154
24,0.0078516,472.072,489.71,0.000115266,1.10375e-34,2.48001e-15,9.13924e-16,0.0032392,0.0032392,-0.00462655,0.0,0.0,0.0,0.00290044,0.003244451877416177,0.0,0.0,0.003244451877416177,0.0,-0.0046158640036658705
25,0.010272,491.007,513.204,1.46783e-05,-1.17117e-34,-1.07378e-15,5.43188e-15,0.00423547,0.00423547,-0.0065374,0.0,0.0,0.0,0.0045579,0.004244452279975608,0.0,0.0,0.004244452279975608,0.0,-0.006516077690078115
26,0.012692,507.147,532.311,1.94842e-06,-1.10354e-34,-6.28586e-16,-1.85521e-15,0.00523074,0.00523074,-0.00846009,0.0,0.0,0.0,0.00623549,0.0052444442044314865,0.0,0.0,0.0052444442044314865,0.0,-0.008424404144687148
27,0.015112,521.256,548.455,3.86629e-07,-1.04093e-34,-3.71124e-16,-1.07457e-15,0.00622503,0.00622503,-0.0103904,0.0,0.0,0.0,0.00792652,0.006244445766251383,0.0,0.0,0.006244445766251383,0.0,-0.010336606267928095
28,0.017532,533.806,562.475,1.63945e-07,-9.82852e-35,-2.20815e-16,1.8941e-15,0.00721833,0.00721833,-0.0123259,0.0,0.0,0.0,0.00962698,0.007244444941601369,0.0,0.0,0.007244444941601369,0.0,-0.012250247243042356
29,0.019952,545.112,574.902,-4.6375e-08,1.80706e-35,-2.72003e-15,-1.43332e-15,0.00821065,0.00821065,-0.0142648,0.0,0.0,0.0,0.0113343,0.008244449829572176,0.0,0.0,0.008244449829572176,0.0,-0.014163539797803715
30,0.022372,555.402,586.09,-3.306e-07,1.28145e-34,9.7175e-16,1.708e-15,0.00920198,0.00920198,-0.0162061,0.0,0.0,0.0,0.0130467,0.009244448382409898,0.0,0.0,0.009244448382409898,0.0,-0.01607548768532263
31,0.024792,564.848,596.283,-6.44027e-07,1.21305e-34,5.89425e-16,-6.70606e-15,0.0101923,0.0101923,-0.018149,0.0,0.0,0.0,0.0147629,0.010244418407964417,0.0,0.0,0.010244418407964417,0.0,-0.017985298733583566
32,0.027212,573.579,605.659,-9.51466e-07,1.15238e-34,2.99327e-15,-1.41433e-15,0.0111817,0.0111817,-0.0200929,0.0,0.0,0.0,0.016482,0.011244448869027979,0.0,0.0,0.011244448869027979,0.0,-0.019892382920367657
33,0.029632,581.701,614.35,-1.23551e-06,2.20532e-34,1.82683e-15,1.75591e-15,0.0121701,0.0121701,-0.0220373,0.0,0.0,0.0,0.0182033,0.012244457004898734,0.0,0.0,0.012244457004898734,0.0,-0.021796252629057933
34,0.032052,589.296,622.459,-1.48986e-06,4.31904e-34,-1.54234e-15,-4.16217e-15,0.0131575,0.0131575,-0.0239819,0.0,0.0,0.0,0.0199262,0.013244440792496093,0.0,0.0,0.013244440792496093,0.0,-0.023696619310822564
35,0.034472,596.43,630.064,-1.71385e-06,4.09909e-34,-9.53899e-16,1.10596e-16,0.0141439,0.0141439,-0.0259264,0.0,0.0,0.0,0.0216502,0.014244398206812336,0.0,0.0,0.014244398206812336,0.0,-0.025593196689623565
36,0.036892,603.16,637.229,-1.90945e-06,3.89245e-34,-5.9239e-16,-2.55974e-15,0.0151294,0.0151294,-0.0278706,0.0,0.0,0.0,0.0233751,0.015244428745356142,0.0,0.0,0.015244428745356142,0.0,-0.027485798002727435
37,0.039312,609.531,644.007,-2.07955e-06,3.69811e-34,-3.69312e-16,-1.55241e-15,0.0161139,0.0161139,-0.0298142,0.0,0.0,0.0,0.0251005,0.016244429054838472,0.0,0.0,0.016244429054838472,0.0,-0.029374140919635416
38,0.041732,615.582,650.439,-2.22727e-06,3.51518e-34,-2.31084e-16,-3.59438e-15,0.0170975,0.0170975,-0.0317573,0.0,0.0,0.0,0.0268261,0.017244498828943522,0.0,0.0,0.017244498828943522,0.0,-0.03125833284691204
39,0.044152,621.345,656.563,-2.35556e-06,-2.22658e-34,2.56666e-15,-4.85945e-15,0.01808,0.01808,-0.0336995,0.0,0.0,0.0,0.0285519,0.01824443268611331,0.0,0.0,0.01824443268611331,0.0,-0.03313799698015374
40,0.046572,626.847,662.408,-2.46707e-06,3.47308e-34,4.32966e-15,5.04473e-15,0.0190616,0.0190616,-0.0356409,0.0,0.0,0.0,0.0302775,0.019244432140675505,0.0,0.0,0.019244432140675505,0.0,-0.03501324198350342
41,0.048992,632.114,668.0,-2.56411e-06,1.08376e-34,2.72015e-15,4.58744e-16,0.0200423,0.0200423,-0.0375812,0.0,0.0,0.0,0.0320029,0.02024449545617002,0.0,0.0,0.02024449545617002,0.0,-0.036883790490600865
42,0.051412,637.165,673.363,-2.64868e-06,9.97486e-34,-3.76693e-15,-5.08051e-15,0.0210219,0.0210219,-0.0395205,0.0,0.0,0.0,0.0337279,0.02124441664535559,0.0,0.0,0.02124441664535559,0.0,-0.03874975184147311
43,0.053832,642.018,678.514,-2.72248e-06,9.50104e-34,-2.39458e-15,-3.14344e-15,0.0220006,0.0220006,-0.0414587,0.0,0.0,0.0,0.0354524,0.022244397816892914,0.0,0.0,0.022244397816892914,0.0,-0.04061104271279048
44,0.056252,646.69,683.472,-2.78696e-06,9.05297e-34,-1.52641e-15,-1.93841e-15,0.0229784,0.0229784,-0.0433957,0.0,0.0,0.0,0.0371764,0.02324443722866909,0.0,0.0,0.02324443722866909,0.0,-0.042467580485750056
45,0.058672,651.195,688.252,-2.84336e-06,8.629e-34,-9.75587e-16,-1.18646e-15,0.0239552,0.0239552,-0.0453314,0.0,0.0,0.0,0.0388997,0.024244430712260456,0.0,0.0,0.024244430712260456,0.0,-0.04431928324150758
46,0.061092,655.544,692.866,-2.89271e-06,8.2276e-34,-6.25131e-16,-7.1581e-16,0.0249311,0.0249311,-0.0472659,0.0,0.0,0.0,0.0406222,0.02524447874626201,0.0,0.0,0.02524447874626201,0.0,-0.04616626052330719
47,0.063512,659.749,697.327,-2.93592e-06,7.84737e-34,-4.01556e-16,-3.14858e-15,0.025906,0.025906,-0.049199,0.0,0.0,0.0,0.0423439,0.026244476958517948,0.0,0.0,0.026244476958517948,0.0,-0.04800833549389305
48,0.065932,663.82,701.644,-2.97374e-06,2.7604e-33,-5.82033e-15,-7.42384e-15,0.0268799,0.0268799,-0.0511308,0.0,0.0,0.0,0.0440648,0.02724442329946286,0.0,0.0,0.02724442329946286,0.0,-0.04984561778904528
49,0.068352,667.766,705.828,-3.00682e-06,1.84781e-33,-9.52718e-16,-4.65637e-15,0.0278529,0.0278529,-0.0530611,0.0,0.0,0.0,0.0457848,0.028244418542125116,0.0,0.0,0.028244418542125116,0.0,-0.051677931766249685
50,0.070772,671.594,709.888,-3.03574e-06,8.68967e-34,4.97892e-15,2.58901e-15,0.028825,0.028825,-0.05499,0.0,0.0,0.0,0.0475038,0.02924446093324229,0.0,0.0,0.02924446093324229,0.0,-0.053505387147712136
51,0.073192,675.312,713.83,-3.06096e-06,9.43183e-34,3.21919e-15,4.44465e-15,0.0297961,0.0297961,-0.0569175,0.0,0.0,0.0,0.0492218,0.030244445693269784,0.0,0.0,0.030244445693269784,0.0,-0.05532799840809377
52,0.075612,678.926,717.662,-3.08291e-06,1.46158e-33,-7.22512e-16,1.12374e-16,0.0307663,0.0307663,-0.0588435,0.0,0.0,0.0,0.0509387,0.03124447388971663,0.0,0.0,0.03124447388971663,0.0,-0.057145685688419934
53,0.078032,682.442,721.39,-3.10195e-06,6.13156e-34,2.34085e-15,-2.65347e-15,0.0317355,0.0317355,-0.060768,0.0,0.0,0.0,0.0526546,0.032244440539372476,0.0,0.0,0.032244440539372476,0.0,-0.05895846391096904
54,0.080452,685.867,725.02,-3.11839e-06,4.76028e-34,1.51844e-15,-4.42551e-15,0.0327038,0.0327038,-0.0626911,0.0,0.0,0.0,0.0543694,0.03324444690609507,0.0,0.0,0.03324444690609507,0.0,-0.06076644187060909
55,0.082872,689.204,728.557,-3.13252e-06,1.2406e-33,-1.83809e-15,-2.78884e-15,0.0336712,0.0336712,-0.0646125,0.0,0.0,0.0,0.056083,0.03424449122747819,0.0,0.0,0.03424449122747819,0.0,-0.06256935261818142
56,0.085292,692.459,732.007,-3.14456e-06,1.18613e-33,-1.20327e-15,1.04201e-15,0.0346376,0.0346376,-0.0665325,0.0,0.0,0.0,0.0577955,0.03524446821485494,0.0,0.0,0.03524446821485494,0.0,-0.06436749269429276
57,0.087712,695.635,735.374,-3.15474e-06,1.13432e-33,-7.89136e-16,7.20822e-16,0.0356031,0.0356031,-0.0684509,0.0,0.0,0.0,0.0595068,0.03624447942664566,0.0,0.0,0.03624447942664566,0.0,-0.0661606895119684
58,0.090132,698.737,738.661,-3.16323e-06,1.08501e-33,-5.18452e-16,5.14442e-16,0.0365676,0.0365676,-0.0703677,0.0,0.0,0.0,0.0612168,0.037244419370573656,0.0,0.0,0.037244419370573656,0.0,-0.06794895827800007
59,0.092552,701.768,741.874,-3.1702e-06,1.03808e-33,-3.41206e-16,3.81651e-16,0.0375313,0.0375313,-0.0722829,0.0,0.0,0.0,0.0629257,0.038244493625901876,0.0,0.0,0.038244493625901876,0.0,-0.06973231414641523
60,0.094972,704.732,745.014,-3.17581e-06,9.93382e-34,-2.24935e-16,2.96118e-16,0.038494,0.038494,-0.0741965,0.0,0.0,0.0,0.0646333,0.03924449287232035,0.0,0.0,0.03924449287232035,0.0,-0.07151077221867497
61,0.097392,707.632,748.087,-3.18017e-06,9.50811e-34,-1.4853e-16,2.4099e-16,0.0394557,0.0394557,-0.0761086,0.0,0.0,0.0,0.0663397,0.04024441503662213,0.0,0.0,0.04024441503662213,0.0,-0.07328444021543135
62,0.099812,710.47,751.094,-3.1834e-06,9.10248e-34,-9.82367e-17,-2.60621e-15,0.0404166,0.0404166,-0.078019,0.0,0.0,0.0,0.0680447,0.041244466292708726,0.0,0.0,0.041244466292708726,0.0,-0.07505314761361004
63,0.1022,713.249,754.039,-3.1856e-06,1.43175e-33,-2.92619e-15,1.17359e-15,0.0413765,0.0413765,-0.0799279,0.0,0.0,0.0,0.0697485,0.042244436714925504,0.0,0.0,0.042244436714925504,0.0,-0.07681709452536345
64,0.1047,715.972,756.924,-3.18687e-06,1.36927e-33,-1.93316e-15,8.15107e-16,0.0423355,0.0423355,-0.0818351,0.0,0.0,0.0,0.071451,0.043244428549180425,0.0,0.0,0.043244428549180425,0.0,-0.07857611103135553
65,0.1071,718.642,759.753,-3.18729e-06,1.19755e-33,-1.27627e-15,3.407e-15,0.0432936,0.0432936,-0.0837407,0.0,0.0,0.0,0.0731522,0.044244440015168696,0.0,0.0,0.044244440015168696,0.0,-0.08033030446783285
66,0.1095,721.259,762.526,-3.18693e-06,-9.87271e-34,4.90723e-15,-6.21588e-15,0.0442508,0.0442508,-0.0856447,0.0,0.0,0.0,0.0748521,0.04524446933082715,0.0,0.0,0.04524446933082715,0.0,-0.08207968962496504
67,0.1119,723.828,765.247,-3.18586e-06,-1.58522e-34,3.83666e-16,-1.17944e-15,0.045207,0.045207,-0.087547,0.0,0.0,0.0,0.0765506,0.046244410087888266,0.0,0.0,0.046244410087888266,0.0,-0.08382418962414206
68,0.1143,726.348,767.917,-3.18414e-06,-1.51931e-34,2.56043e-16,-7.18049e-16,0.0461624,0.0461624,-0.0894477,0.0,0.0,0.0,0.0782478,0.04724446964966855,0.0,0.0,0.04724446964966855,0.0,-0.08556391111884909
69,0.1168,728.823,770.539,-3.18182e-06,-1.45638e-34,1.71111e-16,-4.15542e-16,0.0471168,0.0471168,-0.0913467,0.0,0.0,0.0,0.0799436,0.048244436879960606,0.0,0.0,0.048244436879960606,0.0,-0.0872987774746733
70,0.1192,731.254,773.114,-3.17896e-06,-1.3963e-34,1.14509e-16,-2.16852e-16,0.0480703,0.0480703,-0.0932441,0.0,0.0,0.0,0.0816381,0.04924441461414841,0.0,0.0,0.04924441461414841,0.0,-0.0890288948928446
71,0.1216,733.643,775.644,-3.17559e-06,-1.33893e-34,7.67331e-17,2.76385e-15,0.0490229,0.0490229,-0.0951399,0.0,0.0,0.0,0.0833312,0.05024440106143513,0.0,0.0,0.05024440106143513,0.0,-0.09075427790658752
72,0.124,735.99,778.131,-3.17175e-06,-1.28412e-34,5.14874e-17,-6.68648e-15,0.0499747,0.0499747,-0.097034,0.0,0.0,0.0,0.0850229,0.05124449955373711,0.0,0.0,0.05124449955373711,0.0,-0.09247485024637436
73,0.1264,738.298,780.576,-3.1675e-06,-1.23175e-34,3.45925e-17,-1.49291e-15,0.0509255,0.0509255,-0.0989264,0.0,0.0,0.0,0.0867133,0.052244498147909324,0.0,0.0,0.052244498147909324,0.0,-0.09419062685989477
74,0.1289,740.569,782.98,-3.16285e-06,-1.18171e-34,2.32711e-17,-3.78526e-15,0.0518753,0.0518753,-0.100817,0.0,0.0,0.0,0.0884023,0.05324439474797682,0.0,0.0,0.05324439474797682,0.0,-0.09590153223228781
75,0.1313,742.802,785.346,-3.15784e-06,-1.13387e-34,1.56746e-17,4.27596e-16,0.0528243,0.0528243,-0.102706,0.0,0.0,0.0,0.0900899,0.05424439810513504,0.0,0.0,0.05424439810513504,0.0,-0.09760776219633527
76,0.1337,745.0,787.674,-3.1525e-06,-1.08814e-34,1.05709e-17,8.95566e-15,0.0537724,0.0537724,-0.104594,0.0,0.0,0.0,0.0917761,0.05524440119553553,0.0,0.0,0.05524440119553553,0.0,-0.09930987144457482
77,0.1361,747.163,789.965,-3.14684e-06,-1.04441e-34,7.13761e-18,5.99653e-15,0.0547196,0.0547196,-0.10648,0.0,0.0,0.0,0.0934609,0.05624440221806659,0.0,0.0,0.05624440221806659,0.0,-0.10100697215800913
78,0.1385,749.294,792.222,-3.14091e-06,-1.00259e-34,4.82518e-18,-1.71833e-15,0.0556659,0.0556659,-0.108364,0.0,0.0,0.0,0.0951443,0.057244399369914545,0.0,0.0,0.057244399369914545,0.0,-0.10269908055584742
79,0.141,751.392,794.444,-3.13471e-06,-9.62574e-35,3.26576e-18,1.79108e-15,0.0566114,0.0566114,-0.110246,0.0,0.0,0.0,0.0968263,0.05824449667101317,0.0,0.0,0.05824449667101317,0.0,-0.10438621279682803
80,0.1434,753.459,796.633,-3.12827e-06,-9.43403e-35,-5.85127e-15,9.89312e-15,0.0575559,0.0575559,-0.112127,0.0,0.0,0.0,0.0985069,0.05924448076626909,0.0,0.0,0.05924448076626909,0.0,-0.10606927891063067
81,0.1458,755.496,798.79,-3.12161e-06,1.32358e-34,-3.95276e-15,3.74913e-15,0.0584995,0.0584995,-0.114006,0.0,0.0,0.0,0.100186,0.06024445557223701,0.0,0.0,0.06024445557223701,0.0,-0.10774739764926633
82,0.1482,757.503,800.916,-3.11474e-06,-3.25215e-34,2.65522e-16,2.54089e-15,0.0594422,0.0594422,-0.115884,0.0,0.0,0.0,0.101864,0.06124441927934421,0.0,0.0,0.06124441927934421,0.0,-0.10942147558527593
83,0.1506,759.483,803.012,-3.10768e-06,-3.13682e-34,1.88823e-16,1.73451e-15,0.0603841,0.0603841,-0.11776,0.0,0.0,0.0,0.10354,0.062244476300782114,0.0,0.0,0.062244476300782114,0.0,-0.11109063473626113
84,0.1531,761.434,805.078,-3.10045e-06,-3.02642e-34,1.36818e-16,1.19574e-15,0.061325,0.061325,-0.119634,0.0,0.0,0.0,0.105215,0.06324441247473667,0.0,0.0,0.06324441247473667,0.0,-0.11275489099159897
85,0.1555,763.359,807.117,-3.09304e-06,-2.92073e-34,1.01524e-16,8.35381e-16,0.0622651,0.0622651,-0.121506,0.0,0.0,0.0,0.106889,0.06424443853550321,0.0,0.0,0.06424443853550321,0.0,-0.11441426018151224
86,0.1579,765.258,809.127,-3.08549e-06,-3.94464e-34,7.75506e-17,3.49673e-15,0.0632043,0.0632043,-0.123377,0.0,0.0,0.0,0.108561,0.06524444644238003,0.0,0.0,0.06524444644238003,0.0,-0.11606964200810554
87,0.1603,767.131,811.111,-3.0778e-06,-1.05619e-33,3.01052e-15,-6.34041e-15,0.0641426,0.0641426,-0.125246,0.0,0.0,0.0,0.110232,0.06624443437745042,0.0,0.0,0.06624443437745042,0.0,-0.11772016495303861
88,0.1627,768.98,813.069,-3.06998e-06,-5.65418e-34,-8.94605e-16,-1.31199e-15,0.06508,0.06508,-0.127114,0.0,0.0,0.0,0.111901,0.06724440052114344,0.0,0.0,0.06724440052114344,0.0,-0.11936672531872916
89,0.1652,770.805,815.001,-3.06204e-06,-4.32605e-34,-6.03789e-16,-3.75553e-15,0.0660166,0.0660166,-0.12898,0.0,0.0,0.0,0.113569,0.06824444987667944,0.0,0.0,0.06824444987667944,0.0,-0.12100845479930988
90,0.1676,772.607,816.909,-3.054e-06,-7.55548e-34,-4.05226e-16,6.25961e-15,0.0669523,0.0669523,-0.130844,0.0,0.0,0.0,0.115235,0.0692444739967506,0.0,0.0,0.0692444739967506,0.0,-0.12264536896161049
91,0.17,774.386,818.793,-3.04585e-06,-5.02323e-34,-2.69507e-16,-1.58271e-15,0.0678871,0.0678871,-0.132707,0.0,0.0,0.0,0.1169,0.07024447105684795,0.0,0.0,0.07024447105684795,0.0,-0.12427835903666917
92,0.1724,776.143,820.653,-3.03761e-06,-5.9727e-34,-1.76641e-16,1.89159e-15,0.068821,0.068821,-0.134568,0.0,0.0,0.0,0.118564,0.07124443923082846,0.0,0.0,0.07124443923082846,0.0,-0.1259065614981958
93,0.1748,777.878,822.491,-3.02928e-06,-6.88348e-34,-1.1303e-16,4.23708e-15,0.0697541,0.0697541,-0.136427,0.0,0.0,0.0,0.120226,0.07224448391536265,0.0,0.0,0.07224448391536265,0.0,-0.12752999175441582
94,0.1773,779.592,824.306,-3.02087e-06,-6.63101e-34,-6.94076e-17,2.89555e-15,0.0706863,0.0706863,-0.138284,0.0,0.0,0.0,0.121886,0.07324449625660368,0.0,0.0,0.07324449625660368,0.0,-0.12914866515631473
95,0.1797,781.286,826.099,-3.01239e-06,-7.51524e-34,-3.94591e-17,4.91812e-15,0.0716176,0.0716176,-0.14014,0.0,0.0,0.0,0.123546,0.07424447442352577,0.0,0.0,0.07424447442352577,0.0,-0.1307634662348368
96,0.1821,782.96,827.872,-3.00385e-06,-1.06199e-33,2.95666e-15,4.22814e-16,0.072548,0.072548,-0.141995,0.0,0.0,0.0,0.125203,0.07524441658348935,0.0,0.0,0.07524441658348935,0.0,-0.13237440539695822
97,0.1845,784.615,829.624,-2.99524e-06,-4.58297e-34,-9.39658e-16,-2.6234e-15,0.0734776,0.0734776,-0.143847,0.0,0.0,0.0,0.12686,0.07624442852668256,0.0,0.0,0.07624442852668256,0.0,-0.13397976098004205
98,0.1869,786.251,831.355,-2.98658e-06,-7.80026e-34,2.34085e-15,1.18641e-15,0.0744063,0.0744063,-0.145698,0.0,0.0,0.0,0.128515,0.07724440099279839,0.0,0.0,0.07724440099279839,0.0,-0.13558128177770845
99,0.1894,787.868,833.067,-2.97787e-06,-7.50767e-34,1.61697e-15,-2.10851e-15,0.0753342,0.0753342,-0.147547,0.0,0.0,0.0,0.130168,0.07824443996881003,0.0,0.0,0.07824443996881003,0.0,-0.13717811526020918
100,0.1918,789.466,834.76,-2.96911e-06,1.08178e-33,-4.85488e-15,-7.29119e-15,0.0762612,0.0762612,-0.149395,0.0,0.0,0.0,0.131821,0.07924443599120679,0.0,0.0,0.07924443599120679,0.0,-0.13877113769711502
101,0.1942,791.048,836.434,-2.96032e-06,1.37216e-34,2.6352e-15,9.68462e-16,0.0771874,0.0771874,-0.151241,0.0,0.0,0.0,0.133471,0.08024449524377042,0.0,0.0,0.08024449524377042,0.0,-0.14035949966777017
102,0.1966,792.612,838.09,-2.95148e-06,1.93697e-33,-4.15823e-15,-5.20389e-15,0.0781126,0.0781126,-0.153086,0.0,0.0,0.0,0.13512,0.08124439993535426,0.0,0.0,0.08124439993535426,0.0,-0.1419440741714092
103,0.199,794.159,839.728,-2.94261e-06,9.60703e-34,3.12271e-15,2.3964e-15,0.0790371,0.0790371,-0.154928,0.0,0.0,0.0,0.136768,0.0822444725954512,0.0,0.0,0.0822444725954512,0.0,-0.14352315840372631
104,0.2015,795.689,841.348,-2.93371e-06,1.37615e-33,-8.3035e-16,1.67168e-15,0.0799607,0.0799607,-0.156769,0.0,0.0,0.0,0.138415,0.08324449532975087,0.0,0.0,0.08324449532975087,0.0,-0.14509848173904027
105,0.2039,797.203,842.951,-2.92479e-06,2.79095e-33,-3.56767e-15,-7.69325e-15,0.0808834,0.0808834,-0.158609,0.0,0.0,0.0,0.14006,0.08424446629124893,0.0,0.0,0.08424446629124893,0.0,-0.1466700542425442
106,0.2063,798.702,844.538,-2.91584e-06,1.55738e-33,3.54107e-15,7.05343e-16,0.0818053,0.0818053,-0.160447,0.0,0.0,0.0,0.141703,0.0852444921558182,0.0,0.0,0.0852444921558182,0.0,-0.14823703418714085
107,0.2087,800.185,846.108,-2.90687e-06,1.50021e-33,2.46295e-15,-2.43728e-15,0.0827263,0.0827263,-0.162283,0.0,0.0,0.0,0.143345,0.08624446274886743,0.0,0.0,0.08624446274886743,0.0,-0.14979943626837144
108,0.2111,801.653,847.662,-2.89789e-06,1.67025e-33,-1.29242e-15,4.30529e-15,0.0836465,0.0836465,-0.164117,0.0,0.0,0.0,0.144986,0.08724448494313486,0.0,0.0,0.08724448494313486,0.0,-0.15135727512736497
109,0.2136,803.106,849.2,-2.88889e-06,1.60801e-33,-8.92092e-16,2.98982e-15,0.0845658,0.0845658,-0.16595,0.0,0.0,0.0,0.146625,0.08824444836090461,0.0,0.0,0.08824444836090461,0.0,-0.15291141244006534
110,0.216,804.544,850.723,-2.87987e-06,1.88665e-33,-6.13696e-16,-6.82011e-15,0.0854843,0.0854843,-0.167782,0.0,0.0,0.0,0.148263,0.08924446007179787,0.0,0.0,0.08924446007179787,0.0,-0.1544618580906224
111,0.2184,805.969,852.231,-2.87085e-06,2.26693e-33,-3.43413e-15,-1.66299e-15,0.0864019,0.0864019,-0.169611,0.0,0.0,0.0,0.1499,0.09024440949499302,0.0,0.0,0.09024440949499302,0.0,-0.15600693394958076
112,0.2208,807.379,853.724,-2.86182e-06,1.50431e-33,6.34986e-16,1.87833e-15,0.0873187,0.0873187,-0.171439,0.0,0.0,0.0,0.151535,0.09124440389700861,0.0,0.0,0.09124440389700861,0.0,-0.1575483439963089
113,0.2232,808.776,855.202,-2.85279e-06,9.97284e-34,3.47105e-15,4.31197e-15,0.0882347,0.0882347,-0.173266,0.0,0.0,0.0,0.153168,0.09224444171837654,0.0,0.0,0.09224444171837654,0.0,-0.15908609800579732
114,0.2257,810.159,856.667,-2.84375e-06,1.41277e-33,-5.93535e-16,3.00651e-15,0.0891498,0.0891498,-0.17509,0.0,0.0,0.0,0.1548,0.09324441207364731,0.0,0.0,0.09324441207364731,0.0,-0.16061852696296286
115,0.2281,811.53,858.117,-2.83471e-06,1.47358e-33,-4.0716e-16,-8.73601e-16,0.0900641,0.0900641,-0.176913,0.0,0.0,0.0,0.156431,0.09424442252472098,0.0,0.0,0.09424442252472098,0.0,-0.16214732546508304
116,0.2305,812.887,859.554,-2.82567e-06,1.30627e-33,-2.7692e-16,2.42127e-15,0.0909776,0.0909776,-0.178735,0.0,0.0,0.0,0.15806,0.0952444715075269,0.0,0.0,0.0952444715075269,0.0,-0.1636725031792624
117,0.2329,814.232,860.977,-2.81663e-06,1.14538e-33,-1.85833e-16,4.69265e-15,0.0918902,0.0918902,-0.180555,0.0,0.0,0.0,0.159688,0.09624444783201991,0.0,0.0,0.09624444783201991,0.0,-0.16519323493780325
118,0.2353,815.564,862.388,-2.80759e-06,1.21645e-33,-1.22077e-16,2.82564e-16,0.092802,0.092802,-0.182373,0.0,0.0,0.0,0.161315,0.09724445935552417,0.0,0.0,0.09724445935552417,0.0,-0.1667095349023886
119,0.2378,816.884,863.785,-2.79856e-06,1.17188e-33,-7.74133e-17,2.28353e-16,0.0937129,0.0937129,-0.18419,0.0,0.0,0.0,0.16294,0.09824439468495627,0.0,0.0,0.09824439468495627,0.0,-0.16822224896056504
120,0.2402,818.193,865.17,-2.78953e-06,4.50831e-34,2.98892e-15,-5.79511e-15,0.0946231,0.0946231,-0.186005,0.0,0.0,0.0,0.164564,0.09924447179904927,0.0,0.0,0.09924447179904927,0.0,-0.1697305563756637
121,0.242,819.173,866.208,-1.1797e-06,6.66165e-34,-1.01098e-15,2.17618e-15,0.0953102,0.0953102,-0.187375,0.0,0.0,0.0,0.165789,0.10000002221524285,0.0,0.0,0.10000002221524285,0.0,-0.1708672467027672
