,Time,S11,S22,S33,S12,S13,S23,LE11,LE22,LE33,LE12,LE13,LE23,SDV_EPBAR,E11,E12,E13,E22,E23,E33
0,2.42e-07,0.029678,0.029678,1.04083e-17,0.0,0.0,0.0,1e-07,1e-07,-8.57143e-08,0.0,0.0,0.0,0.0,1.0000000494336803e-07,0.0,0.0,1.0000000494336803e-07,0.0,-8.571429632731054e-08
1,4.84e-07,0.059356,0.059356,3.46945e-18,0.0,0.0,0.0,2e-07,2e-07,-1.71429e-07,0.0,0.0,0.0,0.0,2.0000002010078788e-07,0.0,0.0,2.0000002010078788e-07,0.0,-1.7142898534050488e-07
2,8.47e-07,0.103873,0.103873,3.46945e-18,0.0,0.0,0.0,3.5e-07,3.5e-07,-3e-07,0.0,0.0,0.0,0.0,3.5000006115559756e-07,0.0,0.0,3.5000006115559756e-07,0.0,-2.9999995498908305e-07
3,1.3915e-06,0.170648,0.170648,-1.73472e-17,0.0,0.0,0.0,5.75e-07,5.75e-07,-4.92857e-07,0.0,0.0,0.0,0.0,5.750001652593539e-07,0.0,0.0,5.750001652593539e-07,0.0,-4.928568785311782e-07
4,2.2083e-06,0.270812,0.270812,-3.46945e-18,0.0,0.0,0.0,9.125e-07,9.125e-07,-7.82142e-07,0.0,0.0,0.0,0.0,9.125004163390571e-07,0.0,0.0,9.125004163390571e-07,0.0,-7.821416940778647e-07
5,3.4334e-06,0.421056,0.421056,5.20417e-17,0.0,0.0,0.0,1.41875e-06,1.41875e-06,-1.21607e-06,0.0,0.0,0.0,0.0,1.4187510064544995e-06,0.0,0.0,1.4187510064544995e-06,0.0,-1.2160692606233425e-06
6,5.2711e-06,0.646423,0.646423,2.42861e-17,0.0,0.0,0.0,2.17812e-06,2.17812e-06,-1.86696e-06,0.0,0.0,0.0,0.0,2.178122372020752e-06,0.0,0.0,2.178122372020752e-06,0.0,-1.8669582572128363e-06
7,8.0276e-06,0.984473,0.984473,1.35308e-16,0.0,0.0,0.0,3.31718e-06,3.31718e-06,-2.8433e-06,0.0,0.0,0.0,0.0,3.317185501838793e-06,0.0,0.0,3.317185501838793e-06,0.0,-2.8432959577884276e-06
8,1.2162e-05,1.49155,1.49155,4.68375e-16,0.0,0.0,0.0,5.02577e-06,5.02577e-06,-4.3078e-06,0.0,0.0,0.0,0.0,5.025782629175524e-06,0.0,0.0,5.025782629175524e-06,0.0,-4.307790721469473e-06
9,1.8365e-05,2.25216,2.25216,3.57353e-16,0.0,0.0,0.0,7.58864e-06,7.58864e-06,-6.50455e-06,0.0,0.0,0.0,0.0,7.5886687938009345e-06,0.0,0.0,7.5886687938009345e-06,0.0,-6.50452884543018e-06
10,2.7668e-05,3.39307,3.39307,-3.08781e-16,0.0,0.0,0.0,1.14329e-05,1.14329e-05,-9.79967e-06,0.0,0.0,0.0,0.0,1.1432965355773206e-05,0.0,0.0,1.1432965355773206e-05,0.0,-9.799621983441753e-06
11,4.1623e-05,5.10443,5.10443,-7.5287e-16,0.0,0.0,-1.23207e-38,1.71994e-05,1.71994e-05,-1.47423e-05,0.0,0.0,0.0,0.0,1.7199547910573543e-05,0.0,0.0,1.7199547910573543e-05,0.0,-1.4742191332794974e-05
12,6.2555e-05,7.67145,7.67145,-1.64105e-15,0.0,0.0,-2.77213e-38,2.58489e-05,2.58489e-05,-2.21562e-05,0.0,0.0,0.0,0.0,2.5849234085661976e-05,0.0,0.0,2.5849234085661976e-05,0.0,-2.2155954553237933e-05
13,9.3954e-05,11.5219,11.5219,-8.30239e-15,0.0,0.0,-6.23724e-38,3.88231e-05,3.88231e-05,-3.3277e-05,0.0,0.0,0.0,0.0,3.882385362641294e-05,0.0,0.0,3.882385362641294e-05,0.0,-3.327644632677984e-05
14,0.00014105,17.2976,17.2976,-4.47177e-14,0.0,0.0,-1.40336e-37,5.82842e-05,5.82842e-05,-4.99578e-05,0.0,0.0,0.0,0.0,5.828589855694233e-05,0.0,0.0,5.828589855694233e-05,0.0,-4.995655212991501e-05
15,0.0002117,25.9608,25.9608,-2.25018e-13,0.0,0.0,-3.1575e-37,8.7475e-05,8.7475e-05,-7.49785e-05,0.0,0.0,0.0,0.0,8.747882604942525e-05,0.0,0.0,8.747882604942525e-05,0.0,-7.4975689182466e-05
16,0.00031767,38.9552,38.9552,-1.14339e-12,0.0,0.0,-7.10416e-37,0.00013126,0.00013126,-0.000112508,0.0,0.0,0.0,0.0,0.0001312686149708142,0.0,0.0,0.0001312686149708142,0.0,-0.00011250167121223953
17,0.00047662,58.4457,58.4457,-5.85252e-12,0.0,0.0,-1.59836e-36,0.000196933,0.000196933,-0.0001688,0.0,0.0,0.0,0.0,0.00019695239257622177,0.0,0.0,0.00019695239257622177,0.0,-0.00016878575408152408
18,0.00071506,87.6791,87.6791,-2.95989e-11,0.0,0.0,-3.59607e-36,0.000295435,0.000295435,-0.00025323,0.0,0.0,0.0,0.0,0.00029547864521761724,0.0,0.0,0.00029547864521761724,0.0,-0.00025319793998968
19,0.0010727,131.524,131.524,-1.49709e-10,0.0,0.0,-8.09034e-36,0.000443169,0.000443169,-0.000379859,0.0,0.0,0.0,0.0,0.0004432672138892091,0.0,0.0,0.0004432672138892091,0.0,-0.0003797868627043455
20,0.0016092,197.279,197.279,-7.57628e-10,0.0,0.0,-1.82005e-35,0.00066473,0.00066473,-0.000569769,0.0,0.0,0.0,0.0,0.0006649509819482979,0.0,0.0,0.0006649509819482979,0.0,-0.0005696067124669746
21,0.0024139,295.884,295.884,-3.83263e-09,0.0,0.0,-4.09417e-35,0.00099698,0.00099698,-0.000854554,0.0,0.0,0.0,0.0,0.0009974771497625046,0.0,0.0,0.0009974771497625046,0.0,-0.0008541889727163854
22,0.003621,425.603,425.82,0.00297701,0.0,0.0,1.19036e-32,0.00149515,0.00149515,-0.00135093,0.0,0.0,0.0,0.000108179,0.0014962682940309335,0.0,0.0,0.0014962682940309335,0.0,-0.0013500179048392402
23,0.0054316,450.832,452.468,0.144564,2.23946e-34,2.75731e-15,2.711e-15,0.00224193,0.00224193,-0.00274435,0.0,0.0,0.0,0.00128339,0.0022444450041991804,0.0,0.0,0.0022444450041991804,0.0,-0.0027405877140023183
24,0.0078516,476.6,479.329,0.000101237,1.53674e-33,-5.87454e-15,-5.78524e-15,0.0032392,0.0032392,-0.00463782,0.0,0.0,0.0,0.00290189,0.003244451877416177,0.0,0.0,0.003244451877416177,0.0,-0.004627081919665654
25,0.010272,497.221,500.608,1.32596e-05,1.44954e-33,1.62042e-15,1.6399e-15,0.00423547,0.00423547,-0.00654969,0.0,0.0,0.0,0.00455121,0.004244452279975608,0.0,0.0,0.004244452279975608,0.0,-0.006528287532453714
26,0.012692,514.44,518.244,1.76934e-06,1.59048e-33,-1.58295e-15,-1.54145e-15,0.00523074,0.00523074,-0.00847313,0.0,0.0,0.0,0.00621991,0.0052444442044314865,0.0,0.0,0.0052444442044314865,0.0,-0.00843733420615278
27,0.015112,529.269,533.356,3.70684e-07,1.50354e-33,-9.29062e-16,-8.87414e-16,0.00622503,0.00622503,-0.0104041,0.0,0.0,0.0,0.00790161,0.006244445766251383,0.0,0.0,0.006244445766251383,0.0,-0.010350164563547648
28,0.017532,542.321,546.611,1.56113e-07,1.42281e-33,-5.46383e-16,-5.118e-16,0.00721833,0.00721833,-0.01234,0.0,0.0,0.0,0.00959245,0.007244444941601369,0.0,0.0,0.007244444941601369,0.0,-0.0122641744163694
29,0.019952,553.997,558.441,-6.00842e-08,1.23673e-33,-3.20441e-16,2.25104e-15,0.00821065,0.00821065,-0.0142794,0.0,0.0,0.0,0.0112899,0.008244449829572176,0.0,0.0,0.008244449829572176,0.0,-0.01417793290505276
30,0.022372,564.573,569.143,-3.48645e-07,1.28365e-33,-1.85958e-16,-1.2266e-15,0.00920198,0.00920198,-0.0162211,0.0,0.0,0.0,0.0129924,0.009244448382409898,0.0,0.0,0.009244448382409898,0.0,-0.01609024644231638
31,0.024792,574.25,578.925,-6.63995e-07,-6.1089e-36,5.1448e-15,-8.45649e-15,0.0101923,0.0101923,-0.0181643,0.0,0.0,0.0,0.0146985,0.010244418407964417,0.0,0.0,0.010244418407964417,0.0,-0.018000323443573718
32,0.027212,583.177,587.943,-9.71755e-07,2.16517e-34,-2.14224e-15,1.3919e-16,0.0111817,0.0111817,-0.0201085,0.0,0.0,0.0,0.0164075,0.011244448869027979,0.0,0.0,0.011244448869027979,0.0,-0.01990767247993508
33,0.029632,591.469,596.316,-1.25523e-06,2.05079e-34,-1.30789e-15,9.92838e-17,0.0121701,0.0121701,-0.0220532,0.0,0.0,0.0,0.0181185,0.012244457004898734,0.0,0.0,0.012244457004898734,0.0,-0.02181180594499188
34,0.032052,599.215,604.136,-1.50855e-06,1.94327e-34,-7.99168e-16,7.55697e-17,0.0131575,0.0131575,-0.0239981,0.0,0.0,0.0,0.0198311,0.013244440792496093,0.0,0.0,0.013244440792496093,0.0,-0.023712435297479906
35,0.034472,606.487,611.476,-1.73134e-06,-1.50201e-34,2.18908e-15,-2.56783e-15,0.0141439,0.0141439,-0.0259428,0.0,0.0,0.0,0.0215449,0.014244398206812336,0.0,0.0,0.014244398206812336,0.0,-0.025609176830160285
36,0.036892,613.343,618.395,-1.92568e-06,-1.4296e-34,1.36218e-15,-1.54661e-15,0.0151294,0.0151294,-0.0278872,0.0,0.0,0.0,0.0232594,0.015244428745356142,0.0,0.0,0.015244428745356142,0.0,-0.027501941604488267
37,0.039312,619.832,624.943,-2.09457e-06,-1.36135e-34,8.50913e-16,-9.2595e-16,0.0161139,0.0161139,-0.0298311,0.0,0.0,0.0,0.0249744,0.016244429054838472,0.0,0.0,0.016244429054838472,0.0,-0.029390544358044335
38,0.041732,625.993,631.16,-2.24115e-06,4.28258e-34,-2.17422e-15,-3.20791e-15,0.0170975,0.0170975,-0.0317743,0.0,0.0,0.0,0.0266896,0.017244498828943522,0.0,0.0,0.017244498828943522,0.0,-0.03127480131527138
39,0.044152,631.86,637.08,-2.36837e-06,4.06872e-34,-1.35988e-15,-1.95213e-15,0.01808,0.01808,-0.0337168,0.0,0.0,0.0,0.0284049,0.01824443268611331,0.0,0.0,0.01824443268611331,0.0,-0.03315472354812088
40,0.046572,637.461,642.732,-2.47891e-06,4.9827e-34,-8.50361e-16,-3.8591e-15,0.0190616,0.0190616,-0.0356583,0.0,0.0,0.0,0.0301201,0.019244432140675505,0.0,0.0,0.019244432140675505,0.0,-0.03503003260701387
41,0.048992,642.822,648.14,-2.57507e-06,4.7366e-34,-5.3042e-16,-2.36256e-15,0.0200423,0.0200423,-0.0375989,0.0,0.0,0.0,0.0318351,0.02024449545617002,0.0,0.0,0.02024449545617002,0.0,-0.036900837496642636
42,0.051412,647.963,653.326,-2.65884e-06,3.38647e-34,-3.2883e-16,1.26086e-15,0.0210219,0.0210219,-0.0395383,0.0,0.0,0.0,0.0335496,0.02124441664535559,0.0,0.0,0.02124441664535559,0.0,-0.03876686194361001
43,0.053832,652.903,658.31,-2.73192e-06,3.21963e-34,-2.01386e-16,8.2117e-16,0.0220006,0.0220006,-0.0414767,0.0,0.0,0.0,0.0352636,0.022244397816892914,0.0,0.0,0.022244397816892914,0.0,-0.04062831155860147
44,0.056252,657.657,663.107,-2.79575e-06,3.06142e-34,-1.20554e-16,5.47373e-16,0.0229784,0.0229784,-0.0434138,0.0,0.0,0.0,0.0369771,0.02324443722866909,0.0,0.0,0.02324443722866909,0.0,-0.04248491166569557
45,0.058672,662.241,667.731,-2.85155e-06,2.91131e-34,-6.91187e-17,3.76441e-16,0.0239552,0.0239552,-0.0453497,0.0,0.0,0.0,0.0386899,0.024244430712260456,0.0,0.0,0.024244430712260456,0.0,-0.0443367720386012
46,0.061092,666.667,672.196,-2.90036e-06,3.88741e-34,-3.62801e-17,-2.45714e-15,0.0249311,0.0249311,-0.0472843,0.0,0.0,0.0,0.0404019,0.02524447874626201,0.0,0.0,0.02524447874626201,0.0,-0.04618381090264978
47,0.063512,670.947,676.513,-2.94308e-06,-1.31173e-33,-5.57426e-15,1.21524e-14,0.025906,0.025906,-0.0492175,0.0,0.0,0.0,0.0421132,0.026244476958517948,0.0,0.0,0.026244476958517948,0.0,-0.04802594717677788
48,0.065932,675.089,680.691,-2.98045e-06,-8.07758e-34,-7.85448e-16,-3.25059e-15,0.0268799,0.0268799,-0.0511494,0.0,0.0,0.0,0.0438235,0.02724442329946286,0.0,0.0,0.02724442329946286,0.0,-0.04986329049619764
49,0.068352,679.104,684.741,-3.01313e-06,5.69025e-34,-3.28409e-15,-7.52868e-15,0.0278529,0.0278529,-0.0530799,0.0,0.0,0.0,0.045533,0.028244418542125116,0.0,0.0,0.028244418542125116,0.0,-0.051695760053546036
50,0.070772,682.999,688.67,-3.04168e-06,8.74457e-34,-2.10369e-15,-7.50387e-15,0.028825,0.028825,-0.0550089,0.0,0.0,0.0,0.0472415,0.02924446093324229,0.0,0.0,0.02924446093324229,0.0,-0.05352327572684745
51,0.073192,686.781,692.486,-3.06656e-06,-4.00987e-34,1.46306e-15,6.29879e-15,0.0297961,0.0297961,-0.0569365,0.0,0.0,0.0,0.0489489,0.030244445693269784,0.0,0.0,0.030244445693269784,0.0,-0.055345947005611795
52,0.075612,690.459,696.196,-3.0882e-06,2.86537e-34,9.6842e-16,-4.23846e-15,0.0307663,0.0307663,-0.0588627,0.0,0.0,0.0,0.0506554,0.03124447388971663,0.0,0.0,0.03124447388971663,0.0,-0.057163788317469044
53,0.078032,694.037,699.805,-3.10695e-06,4.94574e-34,6.47826e-16,-5.44169e-15,0.0317355,0.0317355,-0.0607873,0.0,0.0,0.0,0.0523607,0.032244440539372476,0.0,0.0,0.032244440539372476,0.0,-0.0589766258373523
54,0.080452,697.521,703.319,-3.12313e-06,4.69057e-34,4.39625e-16,-3.44177e-15,0.0327038,0.0327038,-0.0627104,0.0,0.0,0.0,0.054065,0.03324444690609507,0.0,0.0,0.03324444690609507,0.0,-0.060784568903354375
55,0.082872,700.917,706.744,-3.13701e-06,-1.16896e-34,-2.52307e-15,6.18524e-15,0.0336712,0.0336712,-0.064632,0.0,0.0,0.0,0.0557681,0.03424449122747819,0.0,0.0,0.03424449122747819,0.0,-0.06258763233757769
56,0.085292,704.228,710.084,-3.14883e-06,-1.12594e-33,4.03492e-15,1.23663e-15,0.0346376,0.0346376,-0.066552,0.0,0.0,0.0,0.0574701,0.03524446821485494,0.0,0.0,0.03524446821485494,0.0,-0.06438573735029929
57,0.087712,707.46,713.344,-3.1588e-06,-1.08187e-33,-3.0161e-15,6.42484e-15,0.0356031,0.0356031,-0.0684705,0.0,0.0,0.0,0.0591708,0.03624447942664566,0.0,0.0,0.03624447942664566,0.0,-0.06617899258308324
58,0.090132,710.616,716.527,-3.1671e-06,-3.00013e-35,-1.96047e-15,-4.20686e-15,0.0365676,0.0365676,-0.0703874,0.0,0.0,0.0,0.0608704,0.037244419370573656,0.0,0.0,0.037244419370573656,0.0,-0.06796731950266333
59,0.092552,713.7,719.638,-3.17389e-06,-4.84159e-34,1.57969e-15,-8.28626e-15,0.0375313,0.0375313,-0.0723027,0.0,0.0,0.0,0.0625688,0.038244493625901876,0.0,0.0,0.038244493625901876,0.0,-0.06975073326424519
60,0.094972,716.715,722.68,-3.17933e-06,-4.69423e-34,1.05972e-15,-5.32131e-15,0.038494,0.038494,-0.0742165,0.0,0.0,0.0,0.0642659,0.03924449287232035,0.0,0.0,0.03924449287232035,0.0,-0.07152934181753412
61,0.097392,719.665,725.655,-3.18353e-06,-9.04479e-34,7.17477e-16,2.22444e-15,0.0394557,0.0394557,-0.0761286,0.0,0.0,0.0,0.0659617,0.04024441503662213,0.0,0.0,0.04024441503662213,0.0,-0.0733029743412853
62,0.099812,722.552,728.567,-3.18661e-06,2.51801e-34,-2.36983e-15,-1.31742e-15,0.0404166,0.0404166,-0.0780392,0.0,0.0,0.0,0.0676563,0.041244466292708726,0.0,0.0,0.041244466292708726,0.0,-0.0750718313513219
63,0.1022,725.38,731.419,-3.18868e-06,-4.39437e-34,1.31829e-15,-3.62518e-15,0.0413765,0.0413765,-0.0799481,0.0,0.0,0.0,0.0693496,0.042244436714925504,0.0,0.0,0.042244436714925504,0.0,-0.07683574263170745
64,0.1047,728.15,734.214,-3.18982e-06,-4.26851e-34,8.92681e-16,-2.3069e-15,0.0423355,0.0423355,-0.0818554,0.0,0.0,0.0,0.0710417,0.043244428549180425,0.0,0.0,0.043244428549180425,0.0,-0.07859481574644811
65,0.1071,730.866,736.953,-3.19012e-06,-1.90123e-34,6.10712e-16,-4.27696e-15,0.0432936,0.0432936,-0.0837611,0.0,0.0,0.0,0.0727324,0.044244440015168696,0.0,0.0,0.044244440015168696,0.0,-0.08034906553825805
66,0.1095,733.529,739.639,-3.18965e-06,-1.88311e-34,4.23634e-16,-2.73373e-15,0.0442508,0.0442508,-0.0856651,0.0,0.0,0.0,0.0744217,0.04524446933082715,0.0,0.0,0.04524446933082715,0.0,-0.08209841500829707
67,0.1119,736.142,742.274,-3.18848e-06,-1.866e-34,2.99342e-16,-1.72356e-15,0.045207,0.045207,-0.0875675,0.0,0.0,0.0,0.0761098,0.046244410087888266,0.0,0.0,0.046244410087888266,0.0,-0.08384297103574456
68,0.1143,738.706,744.861,-3.18665e-06,3.76794e-34,-2.6708e-15,1.78179e-15,0.0461624,0.0461624,-0.0894683,0.0,0.0,0.0,0.0777965,0.04724446964966855,0.0,0.0,0.04724446964966855,0.0,-0.0855827483082563
69,0.1168,741.224,747.4,-3.18424e-06,-4.3323e-34,1.12832e-15,-1.60739e-15,0.0471168,0.0471168,-0.0913674,0.0,0.0,0.0,0.0794819,0.048244436879960606,0.0,0.0,0.048244436879960606,0.0,-0.08731767019443915
70,0.1192,743.697,749.894,-3.18129e-06,-6.46859e-34,7.72952e-16,1.86342e-15,0.0480703,0.0480703,-0.0932649,0.0,0.0,0.0,0.0811659,0.04924441461414841,0.0,0.0,0.04924441461414841,0.0,-0.08904784289477075
71,0.1216,746.127,752.345,-3.17783e-06,-1.52673e-33,3.43475e-15,-1.55805e-15,0.0490229,0.0490229,-0.0951607,0.0,0.0,0.0,0.0828486,0.05024440106143513,0.0,0.0,0.05024440106143513,0.0,-0.09077319002092044
72,0.124,748.515,754.754,-3.17392e-06,-7.95279e-34,-5.86188e-16,1.90107e-15,0.0499747,0.0499747,-0.0970549,0.0,0.0,0.0,0.0845299,0.05124449955373711,0.0,0.0,0.05124449955373711,0.0,-0.09249381732379758
73,0.1264,750.863,757.122,-3.16959e-06,-9.94453e-34,-3.7794e-16,4.18808e-15,0.0509255,0.0509255,-0.0989474,0.0,0.0,0.0,0.0862099,0.052244498147909324,0.0,0.0,0.052244498147909324,0.0,-0.0942096486570011
74,0.1289,753.173,759.451,-3.16487e-06,1.17866e-33,-3.14872e-15,-5.76289e-15,0.0518753,0.0518753,-0.100838,0.0,0.0,0.0,0.0878884,0.05324439474797682,0.0,0.0,0.05324439474797682,0.0,-0.09592051810075852
75,0.1313,755.445,761.743,-3.15979e-06,-9.01067e-34,3.72891e-15,1.99256e-15,0.0528243,0.0528243,-0.102727,0.0,0.0,0.0,0.0895656,0.05424439810513504,0.0,0.0,0.05424439810513504,0.0,-0.09762671223435293
76,0.1337,757.681,763.998,-3.15439e-06,3.69595e-34,-3.90494e-16,-1.4827e-15,0.0537724,0.0537724,-0.104615,0.0,0.0,0.0,0.0912414,0.05524440119553553,0.0,0.0,0.05524440119553553,0.0,-0.09932878573867354
77,0.1361,759.882,766.218,-3.14867e-06,3.49649e-34,-2.47517e-16,-9.14192e-16,0.0547196,0.0547196,-0.106501,0.0,0.0,0.0,0.0929158,0.05624440221806659,0.0,0.0,0.05624440221806659,0.0,-0.10102585081336724
78,0.1385,762.049,768.404,-3.14268e-06,1.0533e-34,-1.51007e-16,2.34482e-15,0.0556659,0.0556659,-0.108385,0.0,0.0,0.0,0.0945888,0.057244399369914545,0.0,0.0,0.057244399369914545,0.0,-0.10271792367730215
79,0.141,764.184,770.557,-3.13643e-06,5.46648e-34,-8.57682e-17,-4.13761e-15,0.0566114,0.0566114,-0.110268,0.0,0.0,0.0,0.0962604,0.05824449667101317,0.0,0.0,0.05824449667101317,0.0,-0.10440591608340954
80,0.1434,766.286,772.677,-3.12994e-06,-1.50714e-33,5.8218e-15,2.03288e-16,0.0575559,0.0575559,-0.112149,0.0,0.0,0.0,0.0979306,0.05924448076626909,0.0,0.0,0.05924448076626909,0.0,-0.10608894517016487
81,0.1458,768.358,774.767,-3.12323e-06,-6.61904e-34,1.02099e-15,3.10107e-15,0.0584995,0.0584995,-0.114028,0.0,0.0,0.0,0.0995995,0.06024445557223701,0.0,0.0,0.06024445557223701,0.0,-0.1077670269905946
82,0.1482,770.401,776.827,-3.11631e-06,-6.39477e-34,7.0287e-16,2.14374e-15,0.0594422,0.0594422,-0.115905,0.0,0.0,0.0,0.101267,0.06124441927934421,0.0,0.0,0.06124441927934421,0.0,-0.10944017753791735
83,0.1506,772.414,778.857,-3.1092e-06,-2.79958e-34,4.86989e-16,-7.1901e-15,0.0603841,0.0603841,-0.117781,0.0,0.0,0.0,0.102933,0.062244476300782114,0.0,0.0,0.062244476300782114,0.0,-0.11110930163692856
84,0.1531,774.399,780.86,-3.10192e-06,-2.07468e-33,6.22992e-15,1.06306e-15,0.061325,0.061325,-0.119656,0.0,0.0,0.0,0.104597,0.06324441247473667,0.0,0.0,0.06324441247473667,0.0,-0.11277441016928536
85,0.1555,776.357,782.834,-3.09448e-06,2.85313e-33,-7.54822e-15,-2.11589e-15,0.0622651,0.0622651,-0.121528,0.0,0.0,0.0,0.106261,0.06424443853550321,0.0,0.0,0.06424443853550321,0.0,-0.11443374285347807
86,0.1579,778.289,784.782,-3.08689e-06,1.49778e-33,-2.18111e-15,1.56523e-15,0.0632043,0.0632043,-0.123399,0.0,0.0,0.0,0.107922,0.06524444644238003,0.0,0.0,0.06524444644238003,0.0,-0.11608908826207176
87,0.1603,780.195,786.705,-3.07916e-06,4.21896e-34,1.47907e-15,1.12855e-15,0.0641426,0.0641426,-0.125268,0.0,0.0,0.0,0.109583,0.06624443437745042,0.0,0.0,0.06624443437745042,0.0,-0.11773957489589948
88,0.1627,782.075,788.601,-3.0713e-06,4.03427e-34,1.02095e-15,8.35096e-16,0.06508,0.06508,-0.127136,0.0,0.0,0.0,0.111242,0.06724440052114344,0.0,0.0,0.06724440052114344,0.0,-0.11938609903766051
89,0.1652,783.932,790.474,-3.06333e-06,2.72934e-34,7.08021e-16,3.55467e-15,0.0660166,0.0660166,-0.129002,0.0,0.0,0.0,0.112899,0.06824444987667944,0.0,0.0,0.06824444987667944,0.0,-0.12102779240058992
90,0.1676,785.765,792.322,-3.05525e-06,1.16253e-33,-2.46918e-15,2.4686e-15,0.0669523,0.0669523,-0.130866,0.0,0.0,0.0,0.114555,0.0692444739967506,0.0,0.0,0.0692444739967506,0.0,-0.12266467055117503
91,0.17,787.574,794.147,-3.04707e-06,2.12563e-34,1.2872e-15,1.73611e-15,0.0678871,0.0678871,-0.132729,0.0,0.0,0.0,0.11621,0.07024447105684795,0.0,0.0,0.07024447105684795,0.0,-0.12429762470084726
92,0.1724,789.361,795.95,-3.03879e-06,6.53453e-34,8.93119e-16,-1.0462e-14,0.068821,0.068821,-0.13459,0.0,0.0,0.0,0.117863,0.07124443923082846,0.0,0.0,0.07124443923082846,0.0,-0.12592579134231363
93,0.1748,791.127,797.73,-3.03043e-06,4.00222e-34,6.22828e-16,-1.13784e-15,0.0697541,0.0697541,-0.136449,0.0,0.0,0.0,0.119515,0.07224448391536265,0.0,0.0,0.07224448391536265,0.0,-0.12754918588346098
94,0.1773,792.871,799.489,-3.022e-06,2.18833e-33,-2.53753e-15,-6.55375e-15,0.0706863,0.0706863,-0.138307,0.0,0.0,0.0,0.121165,0.07324449625660368,0.0,0.0,0.07324449625660368,0.0,-0.12916869450667778
95,0.1797,794.594,801.227,-3.01349e-06,-6.03769e-34,7.20023e-15,4.44966e-15,0.0716176,0.0716176,-0.140163,0.0,0.0,0.0,0.122814,0.07424447442352577,0.0,0.0,0.07424447442352577,0.0,-0.13078345844520212
96,0.1821,796.297,802.944,-3.00492e-06,5.49684e-34,1.9794e-15,1.62372e-16,0.072548,0.072548,-0.142017,0.0,0.0,0.0,0.124462,0.07524441658348935,0.0,0.0,0.07524441658348935,0.0,-0.13239349295007563
97,0.1845,797.98,804.642,-2.99629e-06,5.2988e-34,1.36704e-15,3.13279e-15,0.0734776,0.0734776,-0.14387,0.0,0.0,0.0,0.126108,0.07624442852668256,0.0,0.0,0.07624442852668256,0.0,-0.1339996792164787
98,0.1869,799.644,806.32,-2.9876e-06,2.43095e-33,-2.0409e-15,-9.56371e-15,0.0744063,0.0744063,-0.145721,0.0,0.0,0.0,0.127753,0.07724440099279839,0.0,0.0,0.07724440099279839,0.0,-0.1356011631795906
99,0.1894,801.289,807.979,-2.97887e-06,2.114e-33,-1.40374e-15,-5.23999e-16,0.0753342,0.0753342,-0.14757,0.0,0.0,0.0,0.129396,0.07824443996881003,0.0,0.0,0.07824443996881003,0.0,-0.13719795993534356
100,0.1918,802.915,809.619,-2.97009e-06,2.03502e-33,-9.63767e-16,-2.67436e-16,0.0762612,0.0762612,-0.149418,0.0,0.0,0.0,0.131038,0.07924443599120679,0.0,0.0,0.07924443599120679,0.0,-0.13879094573315476
101,0.1942,804.523,811.241,-2.96127e-06,7.17064e-34,2.33422e-15,-9.24729e-17,0.0771874,0.0771874,-0.151264,0.0,0.0,0.0,0.132679,0.08024449524377042,0.0,0.0,0.08024449524377042,0.0,-0.14037927117190474
102,0.1966,806.114,812.845,-2.95241e-06,1.93372e-33,-1.37723e-15,2.70076e-17,0.0781126,0.0781126,-0.153108,0.0,0.0,0.0,0.134318,0.08124439993535426,0.0,0.0,0.08124439993535426,0.0,-0.14196295119412938
103,0.199,807.688,814.432,-2.94352e-06,1.74882e-33,-9.47905e-16,3.06518e-15,0.0790371,0.0790371,-0.154951,0.0,0.0,0.0,0.135955,0.0822444725954512,0.0,0.0,0.0822444725954512,0.0,-0.1435428571445465
104,0.2015,809.245,816.003,-2.9346e-06,1.68389e-33,-6.50382e-16,2.18182e-15,0.0799607,0.0799607,-0.156792,0.0,0.0,0.0,0.137591,0.08324449532975087,0.0,0.0,0.08324449532975087,0.0,-0.14511814424784053
105,0.2039,810.785,817.556,-2.92566e-06,3.78593e-34,2.5602e-15,-1.38368e-15,0.0808834,0.0808834,-0.158632,0.0,0.0,0.0,0.139226,0.08424446629124893,0.0,0.0,0.08424446629124893,0.0,-0.14668968060559262
106,0.2063,812.31,819.093,-2.91669e-06,1.60792e-33,-1.22465e-15,-8.5929e-16,0.0818053,0.0818053,-0.160469,0.0,0.0,0.0,0.14086,0.0852444921558182,0.0,0.0,0.0852444921558182,0.0,-0.14825577276626356
107,0.2087,813.818,820.615,-2.90771e-06,1.43513e-33,-8.44828e-16,2.46681e-15,0.0827263,0.0827263,-0.162306,0.0,0.0,0.0,0.142492,0.08624446274886743,0.0,0.0,0.08624446274886743,0.0,-0.14981899065646087
108,0.2111,815.311,822.121,-2.8987e-06,1.60781e-33,-5.80711e-16,-4.16084e-15,0.0836465,0.0836465,-0.16414,0.0,0.0,0.0,0.144122,0.08724448494313486,0.0,0.0,0.08724448494313486,0.0,-0.15137679368557289
109,0.2136,816.789,823.611,-2.88969e-06,-2.56258e-34,8.64555e-15,9.12295e-15,0.0845658,0.0845658,-0.165973,0.0,0.0,0.0,0.145751,0.08824444836090461,0.0,0.0,0.08824444836090461,0.0,-0.152930895253526
110,0.216,818.253,825.087,-2.88066e-06,3.82881e-33,-3.02878e-15,-2.57556e-15,0.0854843,0.0854843,-0.167804,0.0,0.0,0.0,0.147379,0.08924446007179787,0.0,0.0,0.08924446007179787,0.0,-0.1544804597251257
111,0.2184,819.702,826.548,-2.87162e-06,3.69253e-33,-2.1085e-15,-1.68464e-15,0.0864019,0.0864019,-0.169634,0.0,0.0,0.0,0.149005,0.09024440949499302,0.0,0.0,0.09024440949499302,0.0,-0.15602634556686557
112,0.2208,821.136,827.995,-2.86257e-06,3.56131e-33,-1.46648e-15,-1.07165e-15,0.0873187,0.0873187,-0.171462,0.0,0.0,0.0,0.15063,0.09124440389700861,0.0,0.0,0.09124440389700861,0.0,-0.15756772016157028
113,0.2232,822.557,829.428,-2.85352e-06,2.19148e-33,2.00552e-15,-6.49493e-16,0.0882347,0.0882347,-0.173289,0.0,0.0,0.0,0.152254,0.09224444171837654,0.0,0.0,0.09224444171837654,0.0,-0.1591054388031231
114,0.2257,823.964,830.847,-2.84447e-06,2.11601e-33,1.40494e-15,-3.58475e-16,0.0891498,0.0891498,-0.175113,0.0,0.0,0.0,0.153876,0.09324441207364731,0.0,0.0,0.09324441207364731,0.0,-0.160637832514828
115,0.2281,825.358,832.253,-2.83541e-06,2.04331e-33,9.84972e-16,-1.57652e-16,0.0900641,0.0900641,-0.176937,0.0,0.0,0.0,0.155496,0.09424442252472098,0.0,0.0,0.09424442252472098,0.0,-0.16216743368797226
116,0.2305,826.739,833.645,-2.82636e-06,1.97329e-33,6.91065e-16,2.96972e-15,0.0909776,0.0909776,-0.178758,0.0,0.0,0.0,0.157115,0.0952444715075269,0.0,0.0,0.0952444715075269,0.0,-0.16369173849048235
117,0.2329,828.107,835.025,-2.81731e-06,1.90583e-33,4.85222e-16,5.12917e-15,0.0918902,0.0918902,-0.180578,0.0,0.0,0.0,0.158733,0.09624444783201991,0.0,0.0,0.09624444783201991,0.0,-0.165212435272595
118,0.2353,829.462,836.392,-2.80826e-06,1.84084e-33,3.40946e-16,3.62795e-15,0.092802,0.092802,-0.182397,0.0,0.0,0.0,0.16035,0.09724445935552417,0.0,0.0,0.09724445935552417,0.0,-0.16672953363356524
119,0.2378,830.805,837.746,-2.79921e-06,1.77821e-33,2.39746e-16,5.58518e-15,0.0937129,0.0937129,-0.184213,0.0,0.0,0.0,0.161965,0.09824439468495627,0.0,0.0,0.09824439468495627,0.0,-0.16824137962883545
120,0.2402,832.136,839.088,-2.79018e-06,3.59897e-34,3.20847e-15,-2.05408e-15,0.0946231,0.0946231,-0.186028,0.0,0.0,0.0,0.163578,0.09924447179904927,0.0,0.0,0.09924447179904927,0.0,-0.16974965235326256
121,0.242,833.133,840.094,-1.17996e-06,1.60874e-33,-8.52397e-16,-4.71863e-15,0.0953102,0.0953102,-0.187399,0.0,0.0,0.0,0.164797,0.10000002221524285,0.0,0.0,0.10000002221524285,0.0,-0.17088714565005803
