,Time,S11,S22,S33,S12,S13,S23,LE11,LE22,LE33,LE12,LE13,LE23,SDV_EPBAR,E11,E12,E13,E22,E23,E33
0,2.42e-07,0.029678,0.029678,1.04083e-17,0.0,0.0,0.0,1e-07,1e-07,-8.57143e-08,0.0,0.0,0.0,0.0,1.0000000494336803e-07,0.0,0.0,1.0000000494336803e-07,0.0,-8.571429632731054e-08
1,4.84e-07,0.059356,0.059356,3.46945e-18,0.0,0.0,0.0,2e-07,2e-07,-1.71429e-07,0.0,0.0,0.0,0.0,2.0000002010078788e-07,0.0,0.0,2.0000002010078788e-07,0.0,-1.7142898534050488e-07
2,8.47e-07,0.103873,0.103873,3.46945e-18,0.0,0.0,0.0,3.5e-07,3.5e-07,-3e-07,0.0,0.0,0.0,0.0,3.5000006115559756e-07,0.0,0.0,3.5000006115559756e-07,0.0,-2.9999995498908305e-07
3,1.3915e-06,0.170648,0.170648,-1.73472e-17,0.0,0.0,0.0,5.75e-07,5.75e-07,-4.92857e-07,0.0,0.0,0.0,0.0,5.750001652593539e-07,0.0,0.0,5.750001652593539e-07,0.0,-4.928568785311782e-07
4,2.2083e-06,0.270812,0.270812,-3.46945e-18,0.0,0.0,0.0,9.125e-07,9.125e-07,-7.82142e-07,0.0,0.0,0.0,0.0,9.125004163390571e-07,0.0,0.0,9.125004163390571e-07,0.0,-7.821416940778647e-07
5,3.4334e-06,0.421056,0.421056,5.20417e-17,0.0,0.0,0.0,1.41875e-06,1.41875e-06,-1.21607e-06,0.0,0.0,0.0,0.0,1.4187510064544995e-06,0.0,0.0,1.4187510064544995e-06,0.0,-1.2160692606233425e-06
6,5.2711e-06,0.646423,0.646423,2.42861e-17,0.0,0.0,0.0,2.17812e-06,2.17812e-06,-1.86696e-06,0.0,0.0,0.0,0.0,2.178122372020752e-06,0.0,0.0,2.178122372020752e-06,0.0,-1.8669582572128363e-06
7,8.0276e-06,0.984473,0.984473,1.35308e-16,0.0,0.0,0.0,3.31718e-06,3.31718e-06,-2.8433e-06,0.0,0.0,0.0,0.0,3.317185501838793e-06,0.0,0.0,3.317185501838793e-06,0.0,-2.8432959577884276e-06
8,1.2162e-05,1.49155,1.49155,4.68375e-16,0.0,0.0,0.0,5.02577e-06,5.02577e-06,-4.3078e-06,0.0,0.0,0.0,0.0,5.025782629175524e-06,0.0,0.0,5.025782629175524e-06,0.0,-4.307790721469473e-06
9,1.8365e-05,2.25216,2.25216,3.57353e-16,0.0,0.0,0.0,7.58864e-06,7.58864e-06,-6.50455e-06,0.0,0.0,0.0,0.0,7.5886687938009345e-06,0.0,0.0,7.5886687938009345e-06,0.0,-6.50452884543018e-06
10,2.7668e-05,3.39307,3.39307,-3.08781e-16,0.0,0.0,0.0,1.14329e-05,1.14329e-05,-9.79967e-06,0.0,0.0,0.0,0.0,1.1432965355773206e-05,0.0,0.0,1.1432965355773206e-05,0.0,-9.799621983441753e-06
11,4.1623e-05,5.10443,5.10443,-7.5287e-16,0.0,0.0,-1.23207e-38,1.71994e-05,1.71994e-05,-1.47423e-05,0.0,0.0,0.0,0.0,1.7199547910573543e-05,0.0,0.0,1.7199547910573543e-05,0.0,-1.4742191332794974e-05
12,6.2555e-05,7.67145,7.67145,-1.64105e-15,0.0,0.0,-2.77213e-38,2.58489e-05,2.58489e-05,-2.21562e-05,0.0,0.0,0.0,0.0,2.5849234085661976e-05,0.0,0.0,2.5849234085661976e-05,0.0,-2.2155954553237933e-05
13,9.3954e-05,11.5219,11.5219,-8.30239e-15,0.0,0.0,-6.23724e-38,3.88231e-05,3.88231e-05,-3.3277e-05,0.0,0.0,0.0,0.0,3.882385362641294e-05,0.0,0.0,3.882385362641294e-05,0.0,-3.327644632677984e-05
14,0.00014105,17.2976,17.2976,-4.47177e-14,0.0,0.0,-1.40336e-37,5.82842e-05,5.82842e-05,-4.99578e-05,0.0,0.0,0.0,0.0,5.828589855694233e-05,0.0,0.0,5.828589855694233e-05,0.0,-4.995655212991501e-05
15,0.0002117,25.9608,25.9608,-2.25018e-13,0.0,0.0,-3.1575e-37,8.7475e-05,8.7475e-05,-7.49785e-05,0.0,0.0,0.0,0.0,8.747882604942525e-05,0.0,0.0,8.747882604942525e-05,0.0,-7.4975689182466e-05
16,0.00031767,38.9552,38.9552,-1.14339e-12,0.0,0.0,-7.10416e-37,0.00013126,0.00013126,-0.000112508,0.0,0.0,0.0,0.0,0.0001312686149708142,0.0,0.0,0.0001312686149708142,0.0,-0.00011250167121223953
17,0.00047662,58.4457,58.4457,-5.85252e-12,0.0,0.0,-1.59836e-36,0.000196933,0.000196933,-0.0001688,0.0,0.0,0.0,0.0,0.00019695239257622177,0.0,0.0,0.00019695239257622177,0.0,-0.00016878575408152408
18,0.00071506,87.6791,87.6791,-2.95989e-11,0.0,0.0,-3.59607e-36,0.000295435,0.000295435,-0.00025323,0.0,0.0,0.0,0.0,0.00029547864521761724,0.0,0.0,0.00029547864521761724,0.0,-0.00025319793998968
19,0.0010727,131.524,131.524,-1.49709e-10,0.0,0.0,-8.09034e-36,0.000443169,0.000443169,-0.000379859,0.0,0.0,0.0,0.0,0.0004432672138892091,0.0,0.0,0.0004432672138892091,0.0,-0.0003797868627043455
20,0.0016092,197.279,197.279,-7.57628e-10,0.0,0.0,-1.82005e-35,0.00066473,0.00066473,-0.000569769,0.0,0.0,0.0,0.0,0.0006649509819482979,0.0,0.0,0.0006649509819482979,0.0,-0.0005696067124669746
21,0.0024139,295.884,295.884,-3.83263e-09,0.0,0.0,-4.09417e-35,0.00099698,0.00099698,-0.000854554,0.0,0.0,0.0,0.0,0.0009974771497625046,0.0,0.0,0.0009974771497625046,0.0,-0.0008541889727163854
22,0.003621,428.953,430.049,0.00210247,0.0,0.0,9.5118e-33,0.00149515,0.00149515,-0.00133634,0.0,0.0,0.0,8.62922e-05,0.0014962682940309335,0.0,0.0,0.0014962682940309335,0.0,-0.0013354474953096718
23,0.0054316,451.079,461.464,0.165396,-2.68127e-33,-8.25193e-15,1.0817e-14,0.00224193,0.00224193,-0.00272651,0.0,0.0,0.0,0.00126864,0.0022444450041991804,0.0,0.0,0.0022444450041991804,0.0,-0.002722796447389486
24,0.0078516,474.361,492.093,0.000122428,-1.85519e-33,2.4283e-16,1.19633e-15,0.0032392,0.0032392,-0.00461756,0.0,0.0,0.0,0.00290035,0.003244451877416177,0.0,0.0,0.003244451877416177,0.0,-0.004606915460059757
25,0.010272,493.496,515.752,1.54838e-05,-1.743e-33,1.47879e-16,6.64852e-16,0.00423547,0.00423547,-0.0065277,0.0,0.0,0.0,0.00456476,0.004244452279975608,0.0,0.0,0.004244452279975608,0.0,-0.0065064408492930825
26,0.012692,509.803,534.977,2.06882e-06,-1.63946e-33,9.38067e-17,3.66585e-16,0.00523074,0.00523074,-0.00844984,0.0,0.0,0.0,0.00624964,0.0052444442044314865,0.0,0.0,0.0052444442044314865,0.0,-0.00841424044274075
27,0.015112,524.054,551.215,4.00327e-07,-1.54374e-33,6.27572e-17,1.97319e-16,0.00622503,0.00622503,-0.0103797,0.0,0.0,0.0,0.00794818,0.006244445766251383,0.0,0.0,0.006244445766251383,0.0,-0.010326016812961636
28,0.017532,536.722,565.316,1.69705e-07,-1.45506e-33,4.48122e-17,1.00219e-16,0.00721833,0.00721833,-0.0123148,0.0,0.0,0.0,0.0096563,0.007244444941601369,0.0,0.0,0.007244444941601369,0.0,-0.012239283159936276
29,0.019952,548.129,577.815,-3.67532e-08,-1.37339e-33,2.61786e-15,-5.02686e-15,0.00821065,0.00821065,-0.0142534,0.0,0.0,0.0,0.0113714,0.008244449829572176,0.0,0.0,0.008244449829572176,0.0,-0.014152301198097517
30,0.022372,558.507,589.068,-3.17684e-07,-1.29742e-33,1.57604e-15,-2.97055e-15,0.00920198,0.00920198,-0.0161944,0.0,0.0,0.0,0.0130916,0.009244448382409898,0.0,0.0,0.009244448382409898,0.0,-0.016063975701183564
31,0.024792,568.029,599.322,-6.2953e-07,-7.83291e-34,3.5698e-15,3.36916e-15,0.0101923,0.0101923,-0.018137,0.0,0.0,0.0,0.0148158,0.010244418407964417,0.0,0.0,0.010244418407964417,0.0,-0.017973514486462894
32,0.027212,576.829,608.754,-9.36612e-07,-8.52839e-34,4.7954e-15,-5.82925e-16,0.0111817,0.0111817,-0.0200806,0.0,0.0,0.0,0.0165429,0.011244448869027979,0.0,0.0,0.011244448869027979,0.0,-0.0198803275225371
33,0.029632,585.013,617.498,-1.22101e-06,-8.08109e-34,2.91894e-15,-3.57933e-16,0.0121701,0.0121701,-0.0220248,0.0,0.0,0.0,0.0182721,0.012244457004898734,0.0,0.0,0.012244457004898734,0.0,-0.02178402500579335
34,0.032052,592.664,625.656,-1.47606e-06,-7.66246e-34,1.77898e-15,-2.23801e-16,0.0131575,0.0131575,-0.0239692,0.0,0.0,0.0,0.0200031,0.013244440792496093,0.0,0.0,0.013244440792496093,0.0,-0.023684220179153503
35,0.034472,599.851,633.307,-1.70092e-06,-7.27016e-34,1.08285e-15,-1.43449e-16,0.0141439,0.0141439,-0.0259135,0.0,0.0,0.0,0.0217352,0.014244398206812336,0.0,0.0,0.014244398206812336,0.0,-0.025580626760784875
36,0.036892,606.629,640.516,-1.89742e-06,-4.68149e-34,6.55693e-16,2.53564e-15,0.0151294,0.0151294,-0.0278576,0.0,0.0,0.0,0.0234682,0.015244428745356142,0.0,0.0,0.015244428745356142,0.0,-0.02747315523592364
37,0.039312,613.045,647.334,-2.06841e-06,-2.23389e-34,3.92357e-16,4.17648e-15,0.0161139,0.0161139,-0.0298011,0.0,0.0,0.0,0.0252017,0.016244429054838472,0.0,0.0,0.016244429054838472,0.0,-0.02936142563759636
38,0.041732,619.138,653.805,-2.21698e-06,-6.58626e-34,2.29288e-16,-2.762e-15,0.0170975,0.0170975,-0.0317439,0.0,0.0,0.0,0.0269355,0.017244498828943522,0.0,0.0,0.017244498828943522,0.0,-0.03124535162159814
39,0.044152,624.941,659.966,-2.34605e-06,4.09038e-35,1.27864e-16,6.27292e-15,0.01808,0.01808,-0.033686,0.0,0.0,0.0,0.0286693,0.01824443268611331,0.0,0.0,0.01824443268611331,0.0,-0.03312494425500745
40,0.046572,630.481,665.845,-2.45827e-06,-8.53699e-34,6.45011e-17,-6.83294e-15,0.0190616,0.0190616,-0.0356273,0.0,0.0,0.0,0.0304031,0.019244432140675505,0.0,0.0,0.019244432140675505,0.0,-0.03500011807435188
41,0.048992,635.784,671.471,-2.55597e-06,7.87227e-35,2.47336e-17,6.47646e-15,0.0200423,0.0200423,-0.0375675,0.0,0.0,0.0,0.0321367,0.02024449545617002,0.0,0.0,0.02024449545617002,0.0,-0.03687059570814666
42,0.051412,640.869,676.865,-2.64113e-06,7.22645e-35,-3.49658e-19,3.99775e-15,0.0210219,0.0210219,-0.0395067,0.0,0.0,0.0,0.0338699,0.02124441664535559,0.0,0.0,0.02124441664535559,0.0,-0.03873648649651773
43,0.053832,645.756,682.048,-2.71547e-06,2.88258e-34,5.46645e-15,-2.31916e-16,0.0220006,0.0220006,-0.0414447,0.0,0.0,0.0,0.0356026,0.022244397816892914,0.0,0.0,0.022244397816892914,0.0,-0.04059761117336791
44,0.056252,650.459,687.035,-2.78044e-06,-6.38083e-35,6.98276e-16,-1.68825e-16,0.0229784,0.0229784,-0.0433816,0.0,0.0,0.0,0.0373347,0.02324443722866909,0.0,0.0,0.02324443722866909,0.0,-0.0424540791834509
45,0.058672,654.994,691.842,-2.83727e-06,-7.3147e-34,-2.33482e-15,-8.25979e-15,0.0239552,0.0239552,-0.0453172,0.0,0.0,0.0,0.0390662,0.024244430712260456,0.0,0.0,0.024244430712260456,0.0,-0.04430571247897752
46,0.061092,659.372,696.484,-2.88703e-06,-4.73696e-34,-1.51002e-15,-2.47938e-15,0.0249311,0.0249311,-0.0472515,0.0,0.0,0.0,0.040797,0.02524447874626201,0.0,0.0,0.02524447874626201,0.0,-0.046152525218564944
47,0.063512,663.605,700.97,-2.9306e-06,-1.17366e-34,7.32595e-15,-1.5718e-15,0.025906,0.025906,-0.0491846,0.0,0.0,0.0,0.0425269,0.026244476958517948,0.0,0.0,0.026244476958517948,0.0,-0.04799462671522137
48,0.065932,667.703,705.313,-2.96875e-06,1.09332e-34,1.8929e-15,1.72904e-15,0.0268799,0.0268799,-0.0511162,0.0,0.0,0.0,0.044256,0.02724442329946286,0.0,0.0,0.02724442329946286,0.0,-0.04983174543379709
49,0.068352,671.674,709.522,-3.00214e-06,5.48048e-34,1.18743e-15,3.81725e-15,0.0278529,0.0278529,-0.0530465,0.0,0.0,0.0,0.0459841,0.028244418542125116,0.0,0.0,0.028244418542125116,0.0,-0.05166408616298068
50,0.070772,675.528,713.604,-3.03133e-06,-3.74358e-34,7.34463e-16,-3.08629e-15,0.028825,0.028825,-0.0549753,0.0,0.0,0.0,0.0477113,0.02924446093324229,0.0,0.0,0.02924446093324229,0.0,-0.05349147357463868
51,0.073192,679.27,717.569,-3.0568e-06,1.09394e-33,3.23841e-15,3.52657e-15,0.0297961,0.0297961,-0.0569027,0.0,0.0,0.0,0.0494375,0.030244445693269784,0.0,0.0,0.030244445693269784,0.0,-0.05531401715900919
52,0.075612,682.908,721.423,-3.07899e-06,3.42832e-35,-7.41561e-16,-3.28531e-15,0.0307663,0.0307663,-0.0588286,0.0,0.0,0.0,0.0511627,0.03124447388971663,0.0,0.0,0.03124447388971663,0.0,-0.05713163705447466
53,0.078032,686.447,725.173,-3.09824e-06,8.13852e-34,2.29255e-15,6.52902e-16,0.0317355,0.0317355,-0.0607531,0.0,0.0,0.0,0.0528868,0.032244440539372476,0.0,0.0,0.032244440539372476,0.0,-0.05894444228762041
54,0.080452,689.894,728.824,-3.11488e-06,1.3325e-33,1.4522e-15,3.16939e-15,0.0327038,0.0327038,-0.062676,0.0,0.0,0.0,0.0546097,0.03324444690609507,0.0,0.0,0.03324444690609507,0.0,-0.060752259336803505
55,0.082872,693.253,732.382,-3.12919e-06,7.08605e-34,9.06722e-16,-7.621e-16,0.0336712,0.0336712,-0.0645974,0.0,0.0,0.0,0.0563316,0.03424449122747819,0.0,0.0,0.03424449122747819,0.0,-0.06255519730853365
56,0.085292,696.529,735.851,-3.1414e-06,1.12018e-33,-2.27151e-15,5.04971e-15,0.0346376,0.0346376,-0.0665172,0.0,0.0,0.0,0.0580522,0.03524446821485494,0.0,0.0,0.03524446821485494,0.0,-0.06435317740741942
57,0.087712,699.726,739.237,-3.15173e-06,1.06499e-33,-1.52034e-15,3.22188e-15,0.0356031,0.0356031,-0.0684355,0.0,0.0,0.0,0.0597717,0.03624447942664566,0.0,0.0,0.03624447942664566,0.0,-0.06614630827585166
58,0.090132,702.848,742.543,-3.16037e-06,1.0125e-33,-1.0302e-15,2.04779e-15,0.0365676,0.0365676,-0.0703523,0.0,0.0,0.0,0.06149,0.037244419370573656,0.0,0.0,0.037244419370573656,0.0,-0.0679346045814343
59,0.092552,705.898,745.774,-3.16748e-06,9.62559e-34,-7.09833e-16,1.29214e-15,0.0375313,0.0375313,-0.0722674,0.0,0.0,0.0,0.063207,0.038244493625901876,0.0,0.0,0.038244493625901876,0.0,-0.06971789488553548
60,0.094972,708.881,748.933,-3.1732e-06,1.90575e-35,2.34322e-15,-4.79156e-15,0.038494,0.038494,-0.074181,0.0,0.0,0.0,0.0649228,0.03924449287232035,0.0,0.0,0.03924449287232035,0.0,-0.07149638052410912
61,0.097392,711.799,752.023,-3.17768e-06,5.74698e-34,1.5041e-15,-3.22797e-16,0.0394557,0.0394557,-0.076093,0.0,0.0,0.0,0.0666373,0.04024441503662213,0.0,0.0,0.04024441503662213,0.0,-0.0732699833399354
62,0.099812,714.656,755.047,-3.18102e-06,5.44479e-34,-1.9003e-15,2.57358e-15,0.0404166,0.0404166,-0.0780034,0.0,0.0,0.0,0.0683506,0.041244466292708726,0.0,0.0,0.041244466292708726,0.0,-0.07503871833016473
63,0.1022,717.453,758.009,-3.18333e-06,9.63633e-34,-1.28997e-15,4.45562e-15,0.0413765,0.0413765,-0.0799121,0.0,0.0,0.0,0.0700625,0.042244436714925504,0.0,0.0,0.042244436714925504,0.0,-0.0768025081202246
64,0.1047,720.194,760.911,-3.18469e-06,-9.18966e-35,-3.74918e-15,-2.76821e-15,0.0423355,0.0423355,-0.0818193,0.0,0.0,0.0,0.0717732,0.043244428549180425,0.0,0.0,0.043244428549180425,0.0,-0.07856155241889728
65,0.1071,722.88,763.755,-3.1852e-06,1.36621e-33,3.21944e-15,9.88717e-16,0.0432936,0.0432936,-0.0837248,0.0,0.0,0.0,0.0734825,0.044244440015168696,0.0,0.0,0.044244440015168696,0.0,-0.0803156816034224
66,0.1095,725.514,766.544,-3.18492e-06,5.17183e-34,-7.71954e-16,-2.21112e-15,0.0442508,0.0442508,-0.0856287,0.0,0.0,0.0,0.0751906,0.04524446933082715,0.0,0.0,0.04524446933082715,0.0,-0.08206500278250461
67,0.1119,728.099,769.28,-3.18393e-06,4.2959e-35,-5.467e-16,-4.30273e-15,0.045207,0.045207,-0.087531,0.0,0.0,0.0,0.0768972,0.046244410087888266,0.0,0.0,0.046244410087888266,0.0,-0.08380953069390484
68,0.1143,730.636,771.965,-3.18229e-06,2.28174e-33,5.3597e-15,2.82845e-15,0.0461624,0.0461624,-0.0894316,0.0,0.0,0.0,0.0786026,0.04724446964966855,0.0,0.0,0.04724446964966855,0.0,-0.08554918857930194
69,0.1168,733.126,774.602,-3.18004e-06,1.72898e-33,6.44956e-16,1.82602e-15,0.0471168,0.0471168,-0.0913306,0.0,0.0,0.0,0.0803066,0.048244436879960606,0.0,0.0,0.048244436879960606,0.0,-0.0872840828666992
70,0.1192,735.573,777.192,-3.17724e-06,1.31294e-33,3.27628e-15,-1.67301e-15,0.0480703,0.0480703,-0.093228,0.0,0.0,0.0,0.0820092,0.04924441461414841,0.0,0.0,0.04924441461414841,0.0,-0.08901422813998527
71,0.1216,737.976,779.736,-3.17393e-06,1.25202e-33,2.14297e-15,-1.12677e-15,0.0490229,0.0490229,-0.0951237,0.0,0.0,0.0,0.0837104,0.05024440106143513,0.0,0.0,0.05024440106143513,0.0,-0.0907395480065778
72,0.124,740.339,782.237,-3.17016e-06,1.19387e-33,1.38643e-15,-7.67868e-16,0.0499747,0.0499747,-0.0970177,0.0,0.0,0.0,0.0854103,0.05124449955373711,0.0,0.0,0.05124449955373711,0.0,-0.0924600574658726
73,0.1264,742.662,784.695,-3.16596e-06,-3.20788e-34,3.7787e-15,-6.23921e-15,0.0509255,0.0509255,-0.0989101,0.0,0.0,0.0,0.0871088,0.052244498147909324,0.0,0.0,0.052244498147909324,0.0,-0.09417586204677963
74,0.1289,744.946,787.113,-3.16136e-06,4.75769e-34,2.48076e-15,-1.27837e-15,0.0518753,0.0518753,-0.100801,0.0,0.0,0.0,0.0888059,0.05324439474797682,0.0,0.0,0.05324439474797682,0.0,-0.09588706654107837
75,0.1313,747.194,789.492,-3.1564e-06,-3.33988e-34,1.61085e-15,-3.72435e-15,0.0528243,0.0528243,-0.10269,0.0,0.0,0.0,0.0905016,0.05424439810513504,0.0,0.0,0.05424439810513504,0.0,-0.09759332380502361
76,0.1337,749.406,791.833,-3.15111e-06,1.25256e-34,-4.79102e-15,3.25131e-15,0.0537724,0.0537724,-0.104577,0.0,0.0,0.0,0.0921959,0.05524440119553553,0.0,0.0,0.05524440119553553,0.0,-0.09929455958223898
77,0.1361,751.583,794.137,-3.1455e-06,-2.22103e-34,2.55306e-15,-7.33682e-16,0.0547196,0.0547196,-0.106463,0.0,0.0,0.0,0.0938888,0.05624440221806659,0.0,0.0,0.05624440221806659,0.0,-0.10099168914663059
78,0.1385,753.727,796.406,-3.13961e-06,5.68494e-34,1.66571e-15,2.36788e-15,0.0556659,0.0556659,-0.108347,0.0,0.0,0.0,0.0955803,0.057244399369914545,0.0,0.0,0.057244399369914545,0.0,-0.10268382631055617
79,0.141,755.838,798.641,-3.13345e-06,-2.47471e-34,1.06794e-15,-1.32359e-15,0.0566114,0.0566114,-0.11023,0.0,0.0,0.0,0.0972704,0.05824449667101317,0.0,0.0,0.05824449667101317,0.0,-0.10437188286159349
80,0.1434,757.918,800.842,-3.12705e-06,9.93913e-34,3.58762e-15,1.98044e-15,0.0575559,0.0575559,-0.11211,0.0,0.0,0.0,0.0989591,0.05924448076626909,0.0,0.0,0.05924448076626909,0.0,-0.1060540819591983
81,0.1458,759.968,803.011,-3.12043e-06,9.46012e-34,2.36429e-15,1.29713e-15,0.0584995,0.0584995,-0.11399,0.0,0.0,0.0,0.100646,0.06024445557223701,0.0,0.0,0.06024445557223701,0.0,-0.10773312149341974
82,0.1482,761.988,805.149,-3.11359e-06,-7.84387e-34,-1.39226e-15,-4.92936e-15,0.0594422,0.0594422,-0.115867,0.0,0.0,0.0,0.102332,0.06124441927934421,0.0,0.0,0.06124441927934421,0.0,-0.10940633562167146
83,0.1506,763.98,807.257,-3.10657e-06,8.17091e-34,-3.93618e-15,5.36192e-15,0.0603841,0.0603841,-0.117743,0.0,0.0,0.0,0.104017,0.062244476300782114,0.0,0.0,0.062244476300782114,0.0,-0.11107552314860347
84,0.1531,765.943,809.335,-3.09936e-06,1.22621e-33,2.10704e-16,3.55783e-15,0.061325,0.061325,-0.119617,0.0,0.0,0.0,0.1057,0.06324441247473667,0.0,0.0,0.06324441247473667,0.0,-0.11273980769653824
85,0.1555,767.88,811.385,-3.09199e-06,1.61788e-33,3.02457e-15,2.35241e-15,0.0622651,0.0622651,-0.121489,0.0,0.0,0.0,0.107381,0.06424443853550321,0.0,0.0,0.06424443853550321,0.0,-0.11439920509596746
86,0.1579,769.791,813.406,-3.08447e-06,1.54326e-33,1.99402e-15,1.54605e-15,0.0632043,0.0632043,-0.12336,0.0,0.0,0.0,0.109061,0.06524444644238003,0.0,0.0,0.06524444644238003,0.0,-0.11605461506429104
87,0.1603,771.676,815.401,-3.07681e-06,1.47181e-33,1.29343e-15,1.00602e-15,0.0641426,0.0641426,-0.125229,0.0,0.0,0.0,0.11074,0.06624443437745042,0.0,0.0,0.06624443437745042,0.0,-0.11770516606835268
88,0.1627,773.537,817.37,-3.06902e-06,5.0388e-34,8.16581e-16,-2.2611e-15,0.06508,0.06508,-0.127097,0.0,0.0,0.0,0.112417,0.06724440052114344,0.0,0.0,0.06724440052114344,0.0,-0.11935175442580725
89,0.1652,775.373,819.313,-3.06111e-06,3.85128e-33,6.39473e-15,4.26935e-15,0.0660166,0.0660166,-0.128963,0.0,0.0,0.0,0.114093,0.06824444987667944,0.0,0.0,0.06824444987667944,0.0,-0.12099351181602658
90,0.1676,777.186,821.232,-3.05308e-06,1.43452e-33,4.29115e-15,-2.98573e-15,0.0669523,0.0669523,-0.130827,0.0,0.0,0.0,0.115768,0.0692444739967506,0.0,0.0,0.0692444739967506,0.0,-0.12263045380610438
91,0.17,778.976,823.126,-3.04496e-06,2.49358e-33,2.85519e-15,8.75254e-16,0.0678871,0.0678871,-0.132689,0.0,0.0,0.0,0.117441,0.07024447105684795,0.0,0.0,0.07024447105684795,0.0,-0.124262595905264
92,0.1724,780.744,824.996,-3.03674e-06,1.03375e-33,-1.08651e-15,-2.35871e-15,0.068821,0.068821,-0.13455,0.0,0.0,0.0,0.119112,0.07124443923082846,0.0,0.0,0.07124443923082846,0.0,-0.12589082767469872
93,0.1748,782.49,826.844,-3.02843e-06,2.56038e-33,2.14323e-15,1.30096e-15,0.0697541,0.0697541,-0.13641,0.0,0.0,0.0,0.120782,0.07224448391536265,0.0,0.0,0.07224448391536265,0.0,-0.12751515963820304
94,0.1773,784.215,828.669,-3.02005e-06,3.57343e-33,1.38878e-15,3.7706e-15,0.0706863,0.0706863,-0.138267,0.0,0.0,0.0,0.122451,0.07324449625660368,0.0,0.0,0.07324449625660368,0.0,-0.12913386055778364
95,0.1797,785.92,830.473,-3.01159e-06,1.16836e-33,8.71598e-16,-3.33847e-15,0.0716176,0.0716176,-0.140123,0.0,0.0,0.0,0.124118,0.07424447442352577,0.0,0.0,0.07424447442352577,0.0,-0.1307486890881575
96,0.1821,787.604,832.255,-3.00306e-06,1.11374e-33,5.16672e-16,-2.28807e-15,0.072548,0.072548,-0.141977,0.0,0.0,0.0,0.125784,0.07524441658348935,0.0,0.0,0.07524441658348935,0.0,-0.13235878799569922
97,0.1845,789.269,834.017,-2.99448e-06,1.06137e-33,2.72811e-16,-1.57737e-15,0.0734776,0.0734776,-0.14383,0.0,0.0,0.0,0.127449,0.07624442852668256,0.0,0.0,0.07624442852668256,0.0,-0.13396503851083807
98,0.1869,790.915,835.758,-2.98583e-06,1.01115e-33,1.05051e-16,-1.09606e-15,0.0744063,0.0744063,-0.145681,0.0,0.0,0.0,0.129112,0.07724440099279839,0.0,0.0,0.07724440099279839,0.0,-0.13556658653458953
99,0.1894,792.542,837.479,-2.97714e-06,9.62965e-34,-1.05147e-17,-7.69795e-16,0.0753342,0.0753342,-0.14753,0.0,0.0,0.0,0.130773,0.07824443996881003,0.0,0.0,0.07824443996881003,0.0,-0.13716344716349005
100,0.1918,794.151,839.181,-2.9684e-06,9.16743e-34,-9.02487e-17,-5.4844e-16,0.0762612,0.0762612,-0.149378,0.0,0.0,0.0,0.132433,0.07924443599120679,0.0,0.0,0.07924443599120679,0.0,-0.13875649668200762
101,0.1942,795.742,840.865,-2.95962e-06,1.99855e-33,-1.4536e-16,2.5443e-15,0.0771874,0.0771874,-0.151224,0.0,0.0,0.0,0.134092,0.08024449524377042,0.0,0.0,0.08024449524377042,0.0,-0.14034488565504566
102,0.1966,797.316,842.53,-2.9508e-06,3.03631e-33,-1.83535e-16,4.64712e-15,0.0781126,0.0781126,-0.153068,0.0,0.0,0.0,0.135749,0.08124439993535426,0.0,0.0,0.08124439993535426,0.0,-0.14192862902573844
103,0.199,798.872,844.176,-2.94195e-06,4.03193e-33,5.77104e-15,3.13041e-15,0.0790371,0.0790371,-0.154911,0.0,0.0,0.0,0.137405,0.0822444725954512,0.0,0.0,0.0822444725954512,0.0,-0.14350859817365746
104,0.2015,800.412,845.806,-2.93306e-06,2.1712e-33,9.06206e-16,-8.53106e-16,0.0799607,0.0799607,-0.156752,0.0,0.0,0.0,0.139059,0.08324449532975087,0.0,0.0,0.08324449532975087,0.0,-0.14508394828969595
105,0.2039,801.936,847.418,-2.92415e-06,3.31487e-33,5.37196e-16,2.33704e-15,0.0808834,0.0808834,-0.158591,0.0,0.0,0.0,0.140712,0.08424446629124893,0.0,0.0,0.08424446629124893,0.0,-0.14665469416528032
106,0.2063,803.444,849.013,-2.91522e-06,3.173e-33,2.81601e-16,1.55816e-15,0.0818053,0.0818053,-0.160429,0.0,0.0,0.0,0.142364,0.0852444921558182,0.0,0.0,0.0852444921558182,0.0,-0.1482217023157697
107,0.2087,804.936,850.592,-2.90627e-06,1.79722e-33,1.04362e-16,-1.93193e-15,0.0827263,0.0827263,-0.162265,0.0,0.0,0.0,0.144014,0.08624446274886743,0.0,0.0,0.08624446274886743,0.0,-0.14978413252049083
108,0.2111,806.413,852.154,-2.89729e-06,1.71625e-33,-1.86949e-17,-1.35685e-15,0.0836465,0.0836465,-0.1641,0.0,0.0,0.0,0.145662,0.08724448494313486,0.0,0.0,0.08724448494313486,0.0,-0.15134284807841258
109,0.2136,807.875,853.701,-2.8883e-06,2.31352e-33,-6.11554e-15,4.96276e-15,0.0845658,0.0845658,-0.165932,0.0,0.0,0.0,0.147309,0.08824444836090461,0.0,0.0,0.08824444836090461,0.0,-0.15289616470826006
110,0.216,809.323,855.232,-2.8793e-06,6.31217e-34,1.68278e-15,-2.5731e-15,0.0854843,0.0854843,-0.167764,0.0,0.0,0.0,0.148955,0.08924446007179787,0.0,0.0,0.08924446007179787,0.0,-0.15444663826708993
111,0.2184,810.756,856.748,-2.87029e-06,1.04504e-33,4.09206e-15,-1.80071e-15,0.0864019,0.0864019,-0.169593,0.0,0.0,0.0,0.150599,0.09024440949499302,0.0,0.0,0.09024440949499302,0.0,-0.15599174193766419
112,0.2208,812.175,858.25,-2.86128e-06,-8.1188e-34,-3.27113e-15,-4.2415e-15,0.0873187,0.0873187,-0.171421,0.0,0.0,0.0,0.152242,0.09124440389700861,0.0,0.0,0.09124440389700861,0.0,-0.1575331797300229
113,0.2232,813.581,859.736,-2.85225e-06,9.00485e-34,6.48983e-16,2.9247e-17,0.0882347,0.0882347,-0.173248,0.0,0.0,0.0,0.153884,0.09224444171837654,0.0,0.0,0.09224444171837654,0.0,-0.15907096141933263
114,0.2257,814.972,861.209,-2.84322e-06,-2.64122e-33,-2.65545e-15,-8.93848e-15,0.0891498,0.0891498,-0.175072,0.0,0.0,0.0,0.155524,0.09324441207364731,0.0,0.0,0.09324441207364731,0.0,-0.16060341796046762
115,0.2281,816.351,862.667,-2.83419e-06,1.96397e-33,-1.93938e-15,5.74097e-15,0.0900641,0.0900641,-0.176895,0.0,0.0,0.0,0.157163,0.09424442252472098,0.0,0.0,0.09424442252472098,0.0,-0.1621322439812084
116,0.2305,817.717,864.112,-2.82516e-06,6.16369e-33,4.60477e-15,9.8798e-15,0.0909776,0.0909776,-0.178717,0.0,0.0,0.0,0.1588,0.0952444715075269,0.0,0.0,0.0952444715075269,0.0,-0.16365744914883384
117,0.2329,819.07,865.543,-2.81613e-06,1.96323e-33,6.14931e-15,-2.18316e-15,0.0918902,0.0918902,-0.180537,0.0,0.0,0.0,0.160435,0.09624444783201991,0.0,0.0,0.09624444783201991,0.0,-0.16517820828079255
118,0.2353,820.411,866.962,-2.8071e-06,3.90547e-33,1.17432e-15,4.42826e-15,0.092802,0.092802,-0.182355,0.0,0.0,0.0,0.16207,0.09724445935552417,0.0,0.0,0.09724445935552417,0.0,-0.16669453553902291
119,0.2378,821.739,868.367,-2.79808e-06,5.09487e-33,7.24052e-16,6.00005e-15,0.0937129,0.0937129,-0.184172,0.0,0.0,0.0,0.163703,0.09824439468495627,0.0,0.0,0.09824439468495627,0.0,-0.16820727682629766
120,0.2402,823.056,869.759,-2.78907e-06,4.09372e-33,3.44005e-15,1.10564e-15,0.0946231,0.0946231,-0.185987,0.0,0.0,0.0,0.165334,0.09924447179904927,0.0,0.0,0.09924447179904927,0.0,-0.16971561139117397
121,0.242,824.042,870.803,-1.17951e-06,4.53162e-33,-7.56083e-16,4.02421e-15,0.0953102,0.0953102,-0.187357,0.0,0.0,0.0,0.166566,0.10000002221524285,0.0,0.0,0.10000002221524285,0.0,-0.17085232217888746
