,Time,S11,S22,S33,S12,S13,S23,LE11,LE22,LE33,LE12,LE13,LE23,SDV_EPBAR,E11,E12,E13,E22,E23,E33
0,2.42e-07,0.029678,0.029678,1.04083e-17,0.0,0.0,0.0,1e-07,1e-07,-8.57143e-08,0.0,0.0,0.0,0.0,1.0000000494336803e-07,0.0,0.0,1.0000000494336803e-07,0.0,-8.571429632731054e-08
1,4.84e-07,0.059356,0.059356,3.46945e-18,0.0,0.0,0.0,2e-07,2e-07,-1.71429e-07,0.0,0.0,0.0,0.0,2.0000002010078788e-07,0.0,0.0,2.0000002010078788e-07,0.0,-1.7142898534050488e-07
2,8.47e-07,0.103873,0.103873,3.46945e-18,0.0,0.0,0.0,3.5e-07,3.5e-07,-3e-07,0.0,0.0,0.0,0.0,3.5000006115559756e-07,0.0,0.0,3.5000006115559756e-07,0.0,-2.9999995498908305e-07
3,1.3915e-06,0.170648,0.170648,-1.73472e-17,0.0,0.0,0.0,5.75e-07,5.75e-07,-4.92857e-07,0.0,0.0,0.0,0.0,5.750001652593539e-07,0.0,0.0,5.750001652593539e-07,0.0,-4.928568785311782e-07
4,2.2083e-06,0.270812,0.270812,-3.46945e-18,0.0,0.0,0.0,9.125e-07,9.125e-07,-7.82142e-07,0.0,0.0,0.0,0.0,9.125004163390571e-07,0.0,0.0,9.125004163390571e-07,0.0,-7.821416940778647e-07
5,3.4334e-06,0.421056,0.421056,5.20417e-17,0.0,0.0,0.0,1.41875e-06,1.41875e-06,-1.21607e-06,0.0,0.0,0.0,0.0,1.4187510064544995e-06,0.0,0.0,1.4187510064544995e-06,0.0,-1.2160692606233425e-06
6,5.2711e-06,0.646423,0.646423,2.42861e-17,0.0,0.0,0.0,2.17812e-06,2.17812e-06,-1.86696e-06,0.0,0.0,0.0,0.0,2.178122372020752e-06,0.0,0.0,2.178122372020752e-06,0.0,-1.8669582572128363e-06
7,8.0276e-06,0.984473,0.984473,1.35308e-16,0.0,0.0,0.0,3.31718e-06,3.31718e-06,-2.8433e-06,0.0,0.0,0.0,0.0,3.317185501838793e-06,0.0,0.0,3.317185501838793e-06,0.0,-2.8432959577884276e-06
8,1.2162e-05,1.49155,1.49155,4.68375e-16,0.0,0.0,0.0,5.02577e-06,5.02577e-06,-4.3078e-06,0.0,0.0,0.0,0.0,5.025782629175524e-06,0.0,0.0,5.025782629175524e-06,0.0,-4.307790721469473e-06
9,1.8365e-05,2.25216,2.25216,3.57353e-16,0.0,0.0,0.0,7.58864e-06,7.58864e-06,-6.50455e-06,0.0,0.0,0.0,0.0,7.5886687938009345e-06,0.0,0.0,7.5886687938009345e-06,0.0,-6.50452884543018e-06
10,2.7668e-05,3.39307,3.39307,-3.08781e-16,0.0,0.0,0.0,1.14329e-05,1.14329e-05,-9.79967e-06,0.0,0.0,0.0,0.0,1.1432965355773206e-05,0.0,0.0,1.1432965355773206e-05,0.0,-9.799621983441753e-06
11,4.1623e-05,5.10443,5.10443,-7.5287e-16,0.0,0.0,-1.23207e-38,1.71994e-05,1.71994e-05,-1.47423e-05,0.0,0.0,0.0,0.0,1.7199547910573543e-05,0.0,0.0,1.7199547910573543e-05,0.0,-1.4742191332794974e-05
12,6.2555e-05,7.67145,7.67145,-1.64105e-15,0.0,0.0,-2.77213e-38,2.58489e-05,2.58489e-05,-2.21562e-05,0.0,0.0,0.0,0.0,2.5849234085661976e-05,0.0,0.0,2.5849234085661976e-05,0.0,-2.2155954553237933e-05
13,9.3954e-05,11.5219,11.5219,-8.30239e-15,0.0,0.0,-6.23724e-38,3.88231e-05,3.88231e-05,-3.3277e-05,0.0,0.0,0.0,0.0,3.882385362641294e-05,0.0,0.0,3.882385362641294e-05,0.0,-3.327644632677984e-05
14,0.00014105,17.2976,17.2976,-4.47177e-14,0.0,0.0,-1.40336e-37,5.82842e-05,5.82842e-05,-4.99578e-05,0.0,0.0,0.0,0.0,5.828589855694233e-05,0.0,0.0,5.828589855694233e-05,0.0,-4.995655212991501e-05
15,0.0002117,25.9608,25.9608,-2.25018e-13,0.0,0.0,-3.1575e-37,8.7475e-05,8.7475e-05,-7.49785e-05,0.0,0.0,0.0,0.0,8.747882604942525e-05,0.0,0.0,8.747882604942525e-05,0.0,-7.4975689182466e-05
16,0.00031767,38.9552,38.9552,-1.14339e-12,0.0,0.0,-7.10416e-37,0.00013126,0.00013126,-0.000112508,0.0,0.0,0.0,0.0,0.0001312686149708142,0.0,0.0,0.0001312686149708142,0.0,-0.00011250167121223953
17,0.00047662,58.4457,58.4457,-5.85252e-12,0.0,0.0,-1.59836e-36,0.000196933,0.000196933,-0.0001688,0.0,0.0,0.0,0.0,0.00019695239257622177,0.0,0.0,0.00019695239257622177,0.0,-0.00016878575408152408
18,0.00071506,87.6791,87.6791,-2.95989e-11,0.0,0.0,-3.59607e-36,0.000295435,0.000295435,-0.00025323,0.0,0.0,0.0,0.0,0.00029547864521761724,0.0,0.0,0.00029547864521761724,0.0,-0.00025319793998968
19,0.0010727,131.524,131.524,-1.49709e-10,0.0,0.0,-8.09034e-36,0.000443169,0.000443169,-0.000379859,0.0,0.0,0.0,0.0,0.0004432672138892091,0.0,0.0,0.0004432672138892091,0.0,-0.0003797868627043455
20,0.0016092,197.279,197.279,-7.57628e-10,0.0,0.0,-1.82005e-35,0.00066473,0.00066473,-0.000569769,0.0,0.0,0.0,0.0,0.0006649509819482979,0.0,0.0,0.0006649509819482979,0.0,-0.0005696067124669746
21,0.0024139,295.884,295.884,-3.83263e-09,0.0,0.0,-4.09417e-35,0.00099698,0.00099698,-0.000854554,0.0,0.0,0.0,0.0,0.0009974771497625046,0.0,0.0,0.0009974771497625046,0.0,-0.0008541889727163854
22,0.003621,420.352,423.522,0.00556846,0.0,0.0,-2.02326e-15,0.00149515,0.00149515,-0.00136547,0.0,0.0,0.0,0.000129456,0.0014962682940309335,0.0,0.0,0.0014962682940309335,0.0,-0.0013645381700164716
23,0.0054316,437.667,458.704,0.145002,-2.80302e-34,2.7692e-15,-3.99478e-15,0.00224193,0.00224193,-0.00275769,0.0,0.0,0.0,0.00129111,0.0022444450041991804,0.0,0.0,0.0022444450041991804,0.0,-0.002753891065828573
24,0.0078516,456.822,492.148,0.000116058,-2.08739e-34,-9.02031e-16,1.94162e-16,0.0032392,0.0032392,-0.00465122,0.0,0.0,0.0,0.0028953,0.003244451877416177,0.0,0.0,0.003244451877416177,0.0,-0.004640419827403708
25,0.010272,473.217,517.394,1.40061e-05,-1.96636e-34,-5.25768e-16,2.58337e-15,0.00423547,0.00423547,-0.00656358,0.0,0.0,0.0,0.00453201,0.004244452279975608,0.0,0.0,0.004244452279975608,0.0,-0.0065420867587039355
26,0.012692,487.633,537.543,1.74983e-06,-1.85326e-34,-3.09257e-16,1.48693e-15,0.00523074,0.00523074,-0.00848759,0.0,0.0,0.0,0.00618887,0.0052444442044314865,0.0,0.0,0.0052444442044314865,0.0,-0.008451672098636953
27,0.015112,500.51,554.336,3.60846e-07,-1.74789e-34,-1.83436e-16,8.61671e-16,0.00622503,0.00622503,-0.010419,0.0,0.0,0.0,0.00785907,0.006244445766251383,0.0,0.0,0.006244445766251383,0.0,-0.010364910236240088
28,0.017532,512.129,568.783,1.50742e-07,-1.6498e-34,-1.09637e-16,-9.63118e-15,0.00721833,0.00721833,-0.0123555,0.0,0.0,0.0,0.00953858,0.007244444941601369,0.0,0.0,0.007244444941601369,0.0,-0.012279484203014834
29,0.019952,522.696,581.507,-7.06662e-08,-1.55845e-34,-6.59844e-17,-5.60678e-16,0.00821065,0.00821065,-0.0142952,0.0,0.0,0.0,0.0112248,0.008244449829572176,0.0,0.0,0.008244449829572176,0.0,-0.014193508770663166
30,0.022372,532.374,592.914,-3.63826e-07,-1.47329e-34,-3.99645e-17,-3.22047e-16,0.00920198,0.00920198,-0.0162373,0.0,0.0,0.0,0.012916,0.009244448382409898,0.0,0.0,0.009244448382409898,0.0,-0.01610618565121602
31,0.024792,541.294,603.279,-6.81508e-07,2.48556e-34,-2.65533e-15,-2.76459e-15,0.0101923,0.0101923,-0.0181809,0.0,0.0,0.0,0.0146109,0.010244418407964417,0.0,0.0,0.010244418407964417,0.0,-0.0180166245029052
32,0.027212,549.563,612.797,-9.89924e-07,2.34492e-34,-1.61852e-15,-1.6437e-15,0.0111817,0.0111817,-0.0201254,0.0,0.0,0.0,0.0163086,0.011244448869027979,0.0,0.0,0.011244448869027979,0.0,-0.019924235900308895
33,0.029632,557.269,621.61,-1.27309e-06,2.21322e-34,-9.88411e-16,-9.74502e-16,0.0121701,0.0121701,-0.0220703,0.0,0.0,0.0,0.0180085,0.012244457004898734,0.0,0.0,0.012244457004898734,0.0,-0.021828532820095115
34,0.032052,564.484,629.825,-1.5256e-06,2.08973e-34,-6.03356e-16,-5.72661e-16,0.0131575,0.0131575,-0.0240155,0.0,0.0,0.0,0.0197098,0.013244440792496093,0.0,0.0,0.013244440792496093,0.0,-0.023729422553316226
35,0.034472,571.269,637.527,-1.74736e-06,1.9738e-34,-3.66837e-16,-3.30043e-16,0.0141439,0.0141439,-0.0259605,0.0,0.0,0.0,0.0214123,0.014244398206812336,0.0,0.0,0.014244398206812336,0.0,-0.025626423395097908
36,0.036892,577.673,644.781,-1.94062e-06,7.97777e-34,-2.91405e-15,-2.82899e-15,0.0151294,0.0151294,-0.0279051,0.0,0.0,0.0,0.0231155,0.015244428745356142,0.0,0.0,0.015244428745356142,0.0,-0.027519349163935503
37,0.039312,583.738,651.641,-2.10842e-06,9.77423e-34,-1.80831e-15,-4.36962e-15,0.0161139,0.0161139,-0.0298492,0.0,0.0,0.0,0.0248192,0.016244429054838472,0.0,0.0,0.016244429054838472,0.0,-0.02940811223020179
38,0.041732,589.501,658.151,-2.25397e-06,1.14788e-33,-1.12018e-15,-5.32942e-15,0.0170975,0.0170975,-0.0317926,0.0,0.0,0.0,0.0265232,0.017244498828943522,0.0,0.0,0.017244498828943522,0.0,-0.03129252882420008
39,0.044152,594.992,664.348,-2.38025e-06,4.75728e-34,2.03255e-15,-5.83011e-16,0.01808,0.01808,-0.0337353,0.0,0.0,0.0,0.0282272,0.01824443268611331,0.0,0.0,0.01824443268611331,0.0,-0.03317261002028471
40,0.046572,600.236,670.263,-2.48991e-06,4.50814e-34,1.29362e-15,-3.2705e-16,0.0190616,0.0190616,-0.035677,0.0,0.0,0.0,0.0299311,0.019244432140675505,0.0,0.0,0.019244432140675505,0.0,-0.03504807737668503
41,0.048992,605.256,675.922,-2.58527e-06,1.26268e-33,-1.91146e-15,-2.8623e-15,0.0200423,0.0200423,-0.0376177,0.0,0.0,0.0,0.0316348,0.02024449545617002,0.0,0.0,0.02024449545617002,0.0,-0.036918943590699915
42,0.051412,610.072,681.347,-2.66831e-06,1.19783e-33,-1.20034e-15,-1.7473e-15,0.0210219,0.0210219,-0.0395573,0.0,0.0,0.0,0.033338,0.02124441664535559,0.0,0.0,0.02124441664535559,0.0,-0.03878512519973165
43,0.053832,614.7,686.56,-2.74072e-06,5.23062e-34,2.00641e-15,-6.473e-15,0.0220006,0.0220006,-0.0414958,0.0,0.0,0.0,0.0350408,0.022244397816892914,0.0,0.0,0.022244397816892914,0.0,-0.04064663538285762
44,0.056252,619.156,691.577,-2.80395e-06,-3.40388e-34,4.05604e-15,-4.0137e-15,0.0229784,0.0229784,-0.0434331,0.0,0.0,0.0,0.0367429,0.02324443722866909,0.0,0.0,0.02324443722866909,0.0,-0.04250339152856919
45,0.058672,623.452,696.412,-2.8592e-06,-3.24223e-34,2.60257e-15,-2.47287e-15,0.0239552,0.0239552,-0.0453691,0.0,0.0,0.0,0.0384444,0.024244430712260456,0.0,0.0,0.024244430712260456,0.0,-0.0443553117253882
46,0.061092,627.602,701.081,-2.90752e-06,5.27635e-34,-1.10409e-15,-1.5046e-15,0.0249311,0.0249311,-0.0473039,0.0,0.0,0.0,0.0401452,0.02524447874626201,0.0,0.0,0.02524447874626201,0.0,-0.046202505516748316
47,0.063512,631.614,705.594,-2.94979e-06,1.00224e-33,-3.48894e-15,1.84484e-15,0.025906,0.025906,-0.0492373,0.0,0.0,0.0,0.0418451,0.026244476958517948,0.0,0.0,0.026244476958517948,0.0,-0.048044796076419205
48,0.065932,635.498,709.963,-2.98675e-06,7.28103e-34,-2.23891e-15,3.97077e-15,0.0268799,0.0268799,-0.0511693,0.0,0.0,0.0,0.0435442,0.02724442329946286,0.0,0.0,0.02724442329946286,0.0,-0.04988219802858618
49,0.068352,639.263,714.196,-3.01905e-06,-9.85164e-34,4.16191e-15,-2.93011e-15,0.0278529,0.0278529,-0.0530999,0.0,0.0,0.0,0.0452424,0.028244418542125116,0.0,0.0,0.028244418542125116,0.0,-0.051714725948685425
50,0.070772,642.916,718.303,-3.04725e-06,-1.59381e-34,-2.90621e-15,3.70587e-15,0.028825,0.028825,-0.0550291,0.0,0.0,0.0,0.0469396,0.02924446093324229,0.0,0.0,0.02924446093324229,0.0,-0.05354239436357888
51,0.073192,646.464,722.292,-3.07182e-06,5.14594e-34,-1.87467e-15,-5.87762e-15,0.0297961,0.0297961,-0.0569568,0.0,0.0,0.0,0.0486358,0.030244445693269784,0.0,0.0,0.030244445693269784,0.0,-0.05536512328824772
52,0.075612,649.914,726.169,-3.09317e-06,-4.64123e-34,1.61012e-15,-3.70208e-15,0.0307663,0.0307663,-0.058883,0.0,0.0,0.0,0.050331,0.03124447388971663,0.0,0.0,0.03124447388971663,0.0,-0.0571829276983008
53,0.078032,653.271,729.941,-3.11165e-06,1.68526e-34,-1.76163e-15,4.65057e-16,0.0317355,0.0317355,-0.0608078,0.0,0.0,0.0,0.0520251,0.032244440539372476,0.0,0.0,0.032244440539372476,0.0,-0.058995916618791666
54,0.080452,656.54,733.614,-3.12759e-06,3.79672e-34,-1.13681e-15,-2.42192e-15,0.0327038,0.0327038,-0.062731,0.0,0.0,0.0,0.0537181,0.03324444690609507,0.0,0.0,0.03324444690609507,0.0,-0.06080391654195372
55,0.082872,659.726,737.193,-3.14124e-06,-1.09527e-33,4.93624e-15,4.08046e-15,0.0336712,0.0336712,-0.0646527,0.0,0.0,0.0,0.0554099,0.03424449122747819,0.0,0.0,0.03424449122747819,0.0,-0.0626070365727538
56,0.085292,662.833,740.683,-3.15285e-06,-3.19437e-34,4.05572e-16,2.69108e-15,0.0346376,0.0346376,-0.0665728,0.0,0.0,0.0,0.0571007,0.03524446821485494,0.0,0.0,0.03524446821485494,0.0,-0.06440519792457178
57,0.087712,665.866,744.089,-3.16262e-06,1.40132e-34,2.75201e-16,-9.39599e-15,0.0356031,0.0356031,-0.0684914,0.0,0.0,0.0,0.0587902,0.03624447942664566,0.0,0.0,0.03624447942664566,0.0,-0.06619850923818849
58,0.090132,668.828,747.416,-3.17074e-06,-5.95527e-34,3.03783e-15,5.19931e-15,0.0365676,0.0365676,-0.0704084,0.0,0.0,0.0,0.0604786,0.037244419370573656,0.0,0.0,0.037244419370573656,0.0,-0.06798689198344199
59,0.092552,671.722,750.666,-3.17737e-06,-5.69385e-34,2.00669e-15,3.43306e-15,0.0375313,0.0375313,-0.0723238,0.0,0.0,0.0,0.0621657,0.038244493625901876,0.0,0.0,0.038244493625901876,0.0,-0.06977036131669667
60,0.094972,674.553,753.844,-3.18264e-06,-4.34492e-34,-4.38785e-15,1.07274e-14,0.038494,0.038494,-0.0742377,0.0,0.0,0.0,0.0638516,0.03924449287232035,0.0,0.0,0.03924449287232035,0.0,-0.07154902518684303
61,0.097392,677.322,756.952,-3.1867e-06,2.54007e-34,-2.89159e-15,-1.42628e-15,0.0394557,0.0394557,-0.0761499,0.0,0.0,0.0,0.0655362,0.04024441503662213,0.0,0.0,0.04024441503662213,0.0,-0.07332271277771674
62,0.099812,680.032,759.995,-3.18965e-06,-4.88862e-34,9.6411e-16,1.94315e-15,0.0404166,0.0404166,-0.0780605,0.0,0.0,0.0,0.0672196,0.041244466292708726,0.0,0.0,0.041244466292708726,0.0,-0.07509153211150021
63,0.1022,682.686,762.975,-3.19158e-06,1.49213e-33,-2.22233e-15,-9.99102e-15,0.0413765,0.0413765,-0.0799695,0.0,0.0,0.0,0.0689018,0.042244436714925504,0.0,0.0,0.042244436714925504,0.0,-0.07685549813543058
64,0.1047,685.287,765.894,-3.19261e-06,3.58186e-34,1.41273e-15,-8.09514e-16,0.0423355,0.0423355,-0.0818769,0.0,0.0,0.0,0.0705826,0.043244428549180425,0.0,0.0,0.043244428549180425,0.0,-0.07861462574495126
65,0.1071,687.837,768.756,-3.19279e-06,3.40465e-34,9.50393e-16,-4.70411e-16,0.0432936,0.0432936,-0.0837827,0.0,0.0,0.0,0.0722621,0.044244440015168696,0.0,0.0,0.044244440015168696,0.0,-0.08036892978390775
66,0.1095,690.337,771.562,-3.19222e-06,2.11477e-34,6.43006e-16,2.59186e-15,0.0442508,0.0442508,-0.0856868,0.0,0.0,0.0,0.0739404,0.04524446933082715,0.0,0.0,0.04524446933082715,0.0,-0.08211833325657747
67,0.1119,692.79,774.315,-3.19094e-06,3.12534e-34,4.38339e-16,-1.08446e-15,0.045207,0.045207,-0.0875893,0.0,0.0,0.0,0.0756173,0.046244410087888266,0.0,0.0,0.046244410087888266,0.0,-0.08386294304128039
68,0.1143,695.198,777.016,-3.18902e-06,-7.68937e-34,3.19469e-15,-6.35087e-15,0.0461624,0.0461624,-0.0894901,0.0,0.0,0.0,0.0772928,0.04724446964966855,0.0,0.0,0.04724446964966855,0.0,-0.08560268238706092
69,0.1168,697.562,779.669,-3.18652e-06,-7.36611e-34,2.14266e-15,-4.11677e-15,0.0471168,0.0471168,-0.0913893,0.0,0.0,0.0,0.0789671,0.048244436879960606,0.0,0.0,0.048244436879960606,0.0,-0.0873376577185977
70,0.1192,699.885,782.274,-3.18349e-06,-7.05766e-34,1.43903e-15,2.11444e-16,0.0480703,0.0480703,-0.0932869,0.0,0.0,0.0,0.08064,0.04924441461414841,0.0,0.0,0.04924441461414841,0.0,-0.08906788362177842
71,0.1216,702.166,784.834,-3.17995e-06,5.01969e-34,-1.93691e-15,-2.65097e-15,0.0490229,0.0490229,-0.0951828,0.0,0.0,0.0,0.0823115,0.05024440106143513,0.0,0.0,0.05024440106143513,0.0,-0.09079328371138484
72,0.124,704.409,787.35,-3.16896e-06,-5.87899e-34,1.61249e-15,-1.68037e-15,0.0499747,0.0499747,-0.097077,0.0,0.0,0.0,0.0839817,0.05124449955373711,0.0,0.0,0.05124449955373711,0.0,-0.09251387298881886
73,0.1264,706.614,789.824,-3.16471e-06,2.01827e-33,-4.73724e-15,-3.9063e-15,0.0509255,0.0509255,-0.0989696,0.0,0.0,0.0,0.0856505,0.052244498147909324,0.0,0.0,0.052244498147909324,0.0,-0.09422975697959768
74,0.1289,708.783,792.257,-3.16008e-06,-2.78593e-33,8.48218e-15,-2.51144e-15,0.0518753,0.0518753,-0.100861,0.0,0.0,0.0,0.087318,0.05324439474797682,0.0,0.0,0.05324439474797682,0.0,-0.09594131168971509
75,0.1313,710.917,794.651,-3.15509e-06,4.21503e-34,-3.04181e-15,1.2895e-15,0.0528243,0.0528243,-0.10275,0.0,0.0,0.0,0.0889841,0.05424439810513504,0.0,0.0,0.05424439810513504,0.0,-0.09764746658129586
76,0.1337,713.017,797.006,-3.14976e-06,-6.65444e-34,8.72841e-16,9.37379e-16,0.0537724,0.0537724,-0.104637,0.0,0.0,0.0,0.0906488,0.05524440119553553,0.0,0.0,0.05524440119553553,0.0,-0.09934860028742643
77,0.1361,715.084,799.324,-3.14413e-06,-6.38294e-34,5.91429e-16,3.58627e-15,0.0547196,0.0547196,-0.106523,0.0,0.0,0.0,0.0923121,0.05624440221806659,0.0,0.0,0.05624440221806659,0.0,-0.10104562802709915
78,0.1385,717.119,801.607,-3.13822e-06,-6.12343e-34,4.01222e-16,-3.30653e-15,0.0556659,0.0556659,-0.108408,0.0,0.0,0.0,0.0939741,0.057244399369914545,0.0,0.0,0.057244399369914545,0.0,-0.10273856092772837
79,0.141,719.124,803.856,-3.13204e-06,-5.87533e-34,2.72504e-16,7.63635e-16,0.0566114,0.0566114,-0.11029,0.0,0.0,0.0,0.0956347,0.05824449667101317,0.0,0.0,0.05824449667101317,0.0,-0.10442561893652347
80,0.1434,721.099,806.07,-3.12563e-06,-5.6381e-34,1.85294e-16,6.37595e-15,0.0575559,0.0575559,-0.112171,0.0,0.0,0.0,0.0972938,0.05924448076626909,0.0,0.0,0.05924448076626909,0.0,-0.10610861099704627
81,0.1458,723.045,808.253,-3.11899e-06,-5.41122e-34,1.26136e-16,-7.24921e-15,0.0584995,0.0584995,-0.114051,0.0,0.0,0.0,0.0989516,0.06024445557223701,0.0,0.0,0.06024445557223701,0.0,-0.10778754811297997
82,0.1482,724.964,810.404,-3.11215e-06,-5.19419e-34,8.59614e-17,-7.67284e-15,0.0594422,0.0594422,-0.115928,0.0,0.0,0.0,0.100608,0.06124441927934421,0.0,0.0,0.06124441927934421,0.0,-0.10946066017828271
83,0.1506,726.855,812.525,-3.10511e-06,-4.98656e-34,5.86467e-17,3.65501e-15,0.0603841,0.0603841,-0.117804,0.0,0.0,0.0,0.102263,0.062244476300782114,0.0,0.0,0.062244476300782114,0.0,-0.11112974588788105
84,0.1531,728.72,814.616,-3.0979e-06,-1.32155e-33,2.99008e-15,5.44404e-15,0.061325,0.061325,-0.119679,0.0,0.0,0.0,0.103917,0.06324441247473667,0.0,0.0,0.06324441247473667,0.0,-0.1127948161231821
85,0.1555,730.559,816.678,-3.09052e-06,-3.10747e-34,-9.17155e-16,3.7372e-15,0.0622651,0.0622651,-0.121551,0.0,0.0,0.0,0.105569,0.06424443853550321,0.0,0.0,0.06424443853550321,0.0,-0.11445411064316191
86,0.1579,732.374,818.713,-3.083e-06,-2.98445e-34,-6.27733e-16,-3.23575e-15,0.0632043,0.0632043,-0.123422,0.0,0.0,0.0,0.10722,0.06524444644238003,0.0,0.0,0.06524444644238003,0.0,-0.11610941797924912
87,0.1603,734.164,820.72,-3.07534e-06,-2.86666e-34,-4.3009e-16,-5.01438e-15,0.0641426,0.0641426,-0.125291,0.0,0.0,0.0,0.108869,0.06624443437745042,0.0,0.0,0.06624443437745042,0.0,-0.11775986665232074
88,0.1627,735.931,822.701,-3.06754e-06,-2.75388e-34,-2.94977e-16,-3.29445e-15,0.06508,0.06508,-0.127159,0.0,0.0,0.0,0.110517,0.06724440052114344,0.0,0.0,0.06724440052114344,0.0,-0.119406352924462
89,0.1652,737.675,824.656,-3.05963e-06,-2.64588e-34,-2.02515e-16,-5.0566e-15,0.0660166,0.0660166,-0.129025,0.0,0.0,0.0,0.112163,0.06824444987667944,0.0,0.0,0.06824444987667944,0.0,-0.12104800852887843
90,0.1676,739.397,826.586,-3.05161e-06,-2.54242e-34,-1.39175e-16,-3.32185e-15,0.0669523,0.0669523,-0.130889,0.0,0.0,0.0,0.113809,0.0692444739967506,0.0,0.0,0.0692444739967506,0.0,-0.12268484903169896
91,0.17,741.097,828.492,-3.04349e-06,-2.44331e-34,-9.57396e-17,7.78949e-16,0.0678871,0.0678871,-0.132752,0.0,0.0,0.0,0.115452,0.07024447105684795,0.0,0.0,0.07024447105684795,0.0,-0.12431776562385766
92,0.1724,742.776,830.374,-3.03527e-06,-2.34834e-34,-6.59244e-17,-2.30811e-15,0.068821,0.068821,-0.134613,0.0,0.0,0.0,0.117095,0.07124443923082846,0.0,0.0,0.07124443923082846,0.0,-0.12594589481792196
93,0.1748,744.434,832.233,-3.02697e-06,-2.25734e-34,-4.54379e-17,-1.46516e-15,0.0697541,0.0697541,-0.136472,0.0,0.0,0.0,0.118735,0.07224448391536265,0.0,0.0,0.07224448391536265,0.0,-0.1275692520214241
94,0.1773,746.073,834.07,-3.01859e-06,-2.17012e-34,-3.13476e-17,4.98047e-15,0.0706863,0.0706863,-0.13833,0.0,0.0,0.0,0.120375,0.07324449625660368,0.0,0.0,0.07324449625660368,0.0,-0.129188723396371
95,0.1797,747.692,835.885,-3.01014e-06,-2.08652e-34,-2.1647e-17,3.47603e-15,0.0716176,0.0716176,-0.140186,0.0,0.0,0.0,0.122013,0.07424447442352577,0.0,0.0,0.07424447442352577,0.0,-0.1308034501957519
96,0.1821,749.292,837.678,-3.00162e-06,-2.00636e-34,-1.49621e-17,2.45437e-15,0.072548,0.072548,-0.14204,0.0,0.0,0.0,0.12365,0.07524441658348935,0.0,0.0,0.07524441658348935,0.0,-0.13241344767025753
97,0.1845,750.873,839.451,-2.99305e-06,-1.92951e-34,-1.03511e-17,1.75995e-15,0.0734776,0.0734776,-0.143893,0.0,0.0,0.0,0.125285,0.07624442852668256,0.0,0.0,0.07624442852668256,0.0,-0.13401959699480137
98,0.1869,752.436,841.203,-2.98441e-06,-1.8558e-34,-7.16766e-18,4.23578e-15,0.0744063,0.0744063,-0.145744,0.0,0.0,0.0,0.126919,0.07724440099279839,0.0,0.0,0.07724440099279839,0.0,-0.13562104412420573
99,0.1894,753.982,842.935,-2.97573e-06,-1.78511e-34,-4.96771e-18,2.08891e-17,0.0753342,0.0753342,-0.147594,0.0,0.0,0.0,0.128551,0.07824443996881003,0.0,0.0,0.07824443996881003,0.0,-0.13721866693582008
100,0.1918,755.51,844.648,-2.967e-06,-1.7173e-34,-3.44603e-18,1.0058e-16,0.0762612,0.0762612,-0.149441,0.0,0.0,0.0,0.130182,0.07924443599120679,0.0,0.0,0.07924443599120679,0.0,-0.1388107533136148
101,0.1942,757.021,846.342,-2.95822e-06,-3.43319e-33,5.99564e-15,-5.75761e-15,0.0771874,0.0771874,-0.151288,0.0,0.0,0.0,0.131812,0.08024449524377042,0.0,0.0,0.08024449524377042,0.0,-0.14039990182182782
102,0.1966,758.516,848.017,-2.94942e-06,-1.15705e-33,-1.85356e-15,5.03564e-15,0.0781126,0.0781126,-0.153132,0.0,0.0,0.0,0.13344,0.08124439993535426,0.0,0.0,0.08124439993535426,0.0,-0.14198354383618805
103,0.199,759.995,849.674,-2.94057e-06,-4.6081e-33,4.71928e-15,-5.35425e-15,0.0790371,0.0790371,-0.154975,0.0,0.0,0.0,0.135067,0.0822444725954512,0.0,0.0,0.0822444725954512,0.0,-0.14356341186931743
104,0.2015,761.458,851.313,-2.9317e-06,-3.01955e-33,2.61583e-16,5.3212e-15,0.0799607,0.0799607,-0.156816,0.0,0.0,0.0,0.136692,0.08324449532975087,0.0,0.0,0.08324449532975087,0.0,-0.14513866116617458
105,0.2039,762.905,852.936,-2.9228e-06,-3.12881e-33,1.73902e-16,-2.2008e-15,0.0808834,0.0808834,-0.158656,0.0,0.0,0.0,0.138316,0.08424446629124893,0.0,0.0,0.08424446629124893,0.0,-0.14671015980750668
106,0.2063,764.338,854.541,-2.91388e-06,-3.00828e-33,1.12919e-16,-1.4184e-15,0.0818053,0.0818053,-0.160494,0.0,0.0,0.0,0.139939,0.0852444921558182,0.0,0.0,0.0852444921558182,0.0,-0.1482770661057765
107,0.2087,765.755,856.129,-2.90493e-06,-2.89254e-33,7.04635e-17,-8.81389e-16,0.0827263,0.0827263,-0.16233,0.0,0.0,0.0,0.14156,0.08624446274886743,0.0,0.0,0.08624446274886743,0.0,-0.14983939475583496
108,0.2111,767.158,857.702,-2.89597e-06,-2.78141e-33,4.08779e-17,-5.1243e-16,0.0836465,0.0836465,-0.164164,0.0,0.0,0.0,0.14318,0.08724448494313486,0.0,0.0,0.08724448494313486,0.0,-0.1513971603981229
109,0.2136,768.547,859.258,-2.887e-06,-7.59332e-34,-6.01821e-15,5.69521e-15,0.0845658,0.0845658,-0.165997,0.0,0.0,0.0,0.144798,0.08824444836090461,0.0,0.0,0.08824444836090461,0.0,-0.15295122466808597
110,0.216,769.922,860.799,-2.87801e-06,-2.03146e-33,-1.17988e-15,-1.95254e-15,0.0854843,0.0854843,-0.167829,0.0,0.0,0.0,0.146415,0.08924446007179787,0.0,0.0,0.08924446007179787,0.0,-0.15450159744940994
111,0.2184,771.284,862.325,-2.86901e-06,-5.4534e-33,5.2221e-15,-7.21709e-15,0.0864019,0.0864019,-0.169659,0.0,0.0,0.0,0.148031,0.09024440949499302,0.0,0.0,0.09024440949499302,0.0,-0.15604744464448672
112,0.2208,772.632,863.835,-2.86e-06,-3.72278e-33,6.15634e-16,4.07769e-15,0.0873187,0.0873187,-0.171487,0.0,0.0,0.0,0.149645,0.09124440389700861,0.0,0.0,0.09124440389700861,0.0,-0.15758878070530835
113,0.2232,773.967,865.331,-2.85099e-06,-3.80841e-33,4.23334e-16,-3.06773e-15,0.0882347,0.0882347,-0.173313,0.0,0.0,0.0,0.151257,0.09224444171837654,0.0,0.0,0.09224444171837654,0.0,-0.1591256200304162
114,0.2257,775.29,866.813,-2.84197e-06,-3.55226e-33,2.88729e-16,9.68946e-16,0.0891498,0.0891498,-0.175138,0.0,0.0,0.0,0.152869,0.09324441207364731,0.0,0.0,0.09324441207364731,0.0,-0.16065881630671663
115,0.2281,776.599,868.281,-2.83295e-06,-3.41892e-33,1.94432e-16,7.65443e-16,0.0900641,0.0900641,-0.176961,0.0,0.0,0.0,0.154479,0.09424442252472098,0.0,0.0,0.09424442252472098,0.0,-0.16218754142826985
116,0.2305,777.897,869.734,-2.82393e-06,-1.88023e-33,-2.90744e-15,-2.36885e-15,0.0909776,0.0909776,-0.178783,0.0,0.0,0.0,0.156087,0.0952444715075269,0.0,0.0,0.0952444715075269,0.0,-0.16371264593567592
117,0.2329,779.182,871.175,-2.81492e-06,-3.22222e-33,9.9323e-16,-1.5404e-15,0.0918902,0.0918902,-0.180603,0.0,0.0,0.0,0.157694,0.09624444783201991,0.0,0.0,0.09624444783201991,0.0,-0.1652333047008443
118,0.2353,780.456,872.602,-2.8059e-06,-2.98865e-33,6.90736e-16,2.03178e-15,0.092802,0.092802,-0.182421,0.0,0.0,0.0,0.1593,0.09724445935552417,0.0,0.0,0.09724445935552417,0.0,-0.16674953188477815
119,0.2378,781.718,874.016,-2.79689e-06,-4.17473e-33,3.52074e-15,1.50577e-15,0.0937129,0.0937129,-0.184238,0.0,0.0,0.0,0.160904,0.09824439468495627,0.0,0.0,0.09824439468495627,0.0,-0.16826217333442228
120,0.2402,782.969,875.417,-2.78789e-06,-5.75654e-34,-6.66935e-15,4.1441e-15,0.0946231,0.0946231,-0.186053,0.0,0.0,0.0,0.162507,0.09924447179904927,0.0,0.0,0.09924447179904927,0.0,-0.16977040835250257
121,0.242,783.906,876.468,-1.17982e-06,-3.2975e-33,1.50846e-15,-6.38207e-17,0.0953102,0.0953102,-0.187423,0.0,0.0,0.0,0.163717,0.10000002221524285,0.0,0.0,0.10000002221524285,0.0,-0.17090704411977975
